[TITLE]
Scenario: Alternativa 1 
Date: 27/01/2025 14:57:18 

[JUNCTIONS]
;ID              	Elev        	Demand      	Pattern         
 0492            	1052.77612304688	0.004       	RAP.PPL.002_002 	;
 0493            	1052.77709960938	0.003       	RAP.PPL.002_002 	;
 0663            	1050.72973632813	0.008       	RAP.PPL.002_002 	;
 0664            	1050.39965820313	0.194       	RAP.PPL.002_002 	;
 MEDIDOR.004     	1010        	0           	                	;
 0623            	1041.21044921875	0.235       	RAP.PPL.002_002 	;
 0518            	1045.53674316406	0.219       	RAP.PPL.002_002 	;
 0622            	1035.89465332031	0.235       	RAP.PPL.002_002 	;
 0511            	1036.6689453125	0.219       	RAP.PPL.002_002 	;
 0552            	1035.07690429688	0.203       	RAP.PPL.002_002 	;
 0557            	1040        	0.227       	RAP.PPL.002_002 	;
 0471            	1040        	0.14        	RAP.PPL.002_002 	;
 0490            	1052.12170410156	0.13        	RAP.PPL.002_002 	;
 0423            	1032.5029296875	0.147       	RAP.PPL.002_002 	;
 0432            	1037.74633789063	0.194       	RAP.PPL.002_002 	;
 0564            	1049.17236328125	0.126       	RAP.PPL.002_002 	;
 0477            	1050.03454589844	0.073       	RAP.PPL.002_002 	;
 0475            	1049.92895507813	0.143       	RAP.PPL.002_002 	;
 0512            	1064.31591796875	0.128       	RAP.PPL.002_002 	;
 0500            	1053.54833984375	0.133       	RAP.PPL.002_002 	;
 0584            	1065.9091796875	0.132       	RAP.PPL.002_002 	;
 0565            	1050.37829589844	0.135       	RAP.PPL.002_002 	;
 0630            	1069.33386230469	0.128       	RAP.PPL.002_002 	;
 0628            	1052.8232421875	0.131       	RAP.PPL.002_002 	;
 0655            	1069.70874023438	0.13        	RAP.PPL.002_002 	;
 0652            	1061.71569824219	0.134       	RAP.PPL.002_002 	;
 0645            	1060.05224609375	0.13        	RAP.PPL.002_002 	;
 0659            	1052.54541015625	0.159       	RAP.PPL.002_002 	;
 0672            	1074.04919433594	0.232       	RAP.PPL.002_002 	;
 0662            	1052.04138183594	0.084       	RAP.PPL.002_002 	;
 0651            	1060.82763671875	0.146       	RAP.PPL.002_002 	;
 0627            	1051.77954101563	0.187       	RAP.PPL.002_002 	;
 0562            	1049.69738769531	0.187       	RAP.PPL.002_002 	;
 0494            	1052.40637207031	0.01        	RAP.PPL.002_002 	;
 0499            	1052.62524414063	0.104       	RAP.PPL.002_002 	;
 0547            	1078.03918457031	0.078       	RAP.PPL.002_002 	;
 0489            	1061.59362792969	0.188       	RAP.PPL.002_002 	;
 0543            	1077.46545410156	0.193       	RAP.PPL.002_002 	;
 0542            	1075.54992675781	0.195       	RAP.PPL.002_002 	;
 0476            	1060.74987792969	0.243       	RAP.PPL.002_002 	;
 0592            	1078.57153320313	0.19        	RAP.PPL.002_002 	;
 0668            	1078.75805664063	0.202       	RAP.PPL.002_002 	;
 0641            	1084.68530273438	0.109       	RAP.PPL.002_002 	;
 0620            	1079.96228027344	0.272       	RAP.PPL.002_002 	;
 0665            	1073.98474121094	0.293       	RAP.PPL.002_002 	;
 0637            	1081.21728515625	0.193       	RAP.PPL.002_002 	;
 0639            	1084.77502441406	0.075       	RAP.PPL.002_002 	;
 1612043         	1013.9267578125	0           	                	;
 1609264         	1010.03643798828	0           	                	;
 1609263         	1010.02630615234	0           	                	;
 1609262         	1010.02117919922	0           	                	;
 1609261         	1010.00689697266	0           	                	;
 1609259         	1010        	0           	                	;
 1609258         	1010        	0           	                	;
 1609256         	1010        	0           	                	;
 1609255         	1010.51416015625	0           	                	;
 1609253         	1011.83343505859	0           	                	;
 1609252         	1012.58404541016	0           	                	;
 1609251         	1012.95758056641	0           	                	;
 1609250         	1012.24920654297	0           	                	;
 1609249         	1013.04534912109	0           	                	;
 1609247         	1013.21722412109	0           	                	;
 1609246         	1013.16973876953	0           	                	;
 1609244         	1013.63336181641	0           	                	;
 1609243         	1010.05041503906	0           	                	;
 1609223         	1010.99816894531	0           	                	;
 1609222         	1012.42553710938	0           	                	;
 1609221         	1013.10766601563	0           	                	;
 1609220         	1013.20745849609	0           	                	;
 1609219         	1013.76904296875	0           	                	;
 1609218         	1012.71899414063	0           	                	;
 1609217         	1012.54107666016	0           	                	;
 1609216         	1013.12408447266	0           	                	;
 1609215         	1011.68927001953	0           	                	;
 1609204         	1010        	0           	                	;
 1609203         	1010        	0           	                	;
 1609202         	1010        	0           	                	;
 1609122         	1027.07702636719	0           	                	;
 1609121         	1026.68530273438	0           	                	;
 1609120         	1023.29229736328	0           	                	;
 1609119         	1024.42004394531	0           	                	;
 1609118         	1025.11340332031	0           	                	;
 1609117         	1023.37158203125	0           	                	;
 1609115         	1023.82635498047	0           	                	;
 1609110         	1010        	0           	                	;
 1609108         	1010.33856201172	0           	                	;
 1609107         	1014.01654052734	0           	                	;
 1609106         	1016.01007080078	0           	                	;
 1609105         	1017.30645751953	0           	                	;
 1609104         	1021.33630371094	0           	                	;
 1609103         	1019.0322265625	0           	                	;
 1609078         	1016.05120849609	0           	                	;
 1608983         	1010        	0           	                	;
 1608981         	1010        	0           	                	;
 1608976         	1010        	0           	                	;
 1608975         	1010        	0           	                	;
 1608952_n2a_2   	1012.71533203125	0           	                	;
 1608952_n2a_1   	1012.71539306641	0           	                	;
 1608951         	1012.73431396484	0.0205926584452161	RAP.PPL.002_002 	;
 1608934         	1016.47790527344	0           	                	;
 1608916         	1020.033203125	0           	                	;
 1608879         	1010        	0           	                	;
 1608878         	1010        	0           	                	;
 1608877         	1010        	0           	                	;
 1608873         	1010        	0           	                	;
 1608872         	1010        	0           	                	;
 1608871         	1010        	0           	                	;
 1608870         	1010        	0           	                	;
 1608868         	1010.05560302734	0           	                	;
 1608867         	1010.17578125	0           	                	;
 1608866         	1012.05981445312	0           	                	;
 1608865         	1013.81524658203	0           	                	;
 1608861         	1024.759765625	0           	                	;
 1608844         	1013.93359375	0           	                	;
 1608421         	1013.31268310547	0           	                	;
 1607061         	1012.74725341797	0           	                	;
 1607056         	1012.853515625	0           	                	;
 1607041         	1010        	0           	                	;
 1607019         	1010        	0           	                	;
 1607018         	1010        	0           	                	;
 1607016         	1010        	0           	                	;
 1606627_n2a_2   	1016.61901855469	0           	                	;
 1606627_n2a_1   	1016.62445068359	0           	                	;
 1606626         	1016.73950195313	0           	                	;
 1606625         	1020.90948486328	0           	                	;
 1606624         	1020.00445556641	0           	                	;
 1606623         	1022.20355224609	0           	                	;
 1606182         	1013.39099121094	0           	                	;
 1606181         	1013.75543212891	0           	                	;
 1606176         	1025.88732910156	0           	                	;
 1606175         	1025.05187988281	0           	                	;
 1606174         	1025.44958496094	0           	                	;
 1606173         	1024.46984863281	0           	                	;
 1606172         	1021.00885009766	0           	                	;
 1606171         	1021.11376953125	0           	                	;
 1606170         	1010        	0           	                	;
 1606166         	1016.78723144531	0           	                	;
 1606165         	1014.52435302734	0           	                	;
 1606162         	1011.91381835938	0           	                	;
 1606161         	1010        	0           	                	;
 1606160         	1010.01782226563	0           	                	;
 1606159         	1019.15344238281	0           	                	;
 1606158         	1019.44152832031	0           	                	;
 1606157         	1018.71099853516	0           	                	;
 1606156         	1021.02447509766	0           	                	;
 1606155         	1023.30474853516	0           	                	;
 1606143         	1012.66650390625	0           	                	;
 1606142         	1010.12030029297	0           	                	;
 1606141         	1016.18640136719	0           	                	;
 1606139         	1014.76306152344	0           	                	;
 1606138         	1014.89758300781	0           	                	;
 1606137         	1011.64672851563	0           	                	;
 1606131         	1014.52233886719	0           	                	;
 1606130         	1010        	0           	                	;
 1606128         	1010        	0           	                	;
 1606127         	1010        	0           	                	;
 1606126         	1010        	0           	                	;
 1606114_n2a_2   	1011.38403320313	0           	                	;
 1606114_n2a_1   	1011.38446044922	0           	                	;
 1606112         	1010.55950927734	0           	                	;
 1606111         	1010        	0           	                	;
 1606110         	1010        	0           	                	;
 1604966         	1010.96209716797	0           	                	;
 1604964         	1010.15881347656	0           	                	;
 1604963         	1010        	0           	                	;
 1600597         	1010.07958984375	0           	                	;
 J-5             	1011.12322998047	0           	                	;
 J-6             	1010.529296875	0           	                	;
 J-7             	1010.5830078125	0           	                	;
 J-8             	1010.78338623047	0           	                	;
 J-9             	1028.21044921875	0           	                	;
 J-10            	1032.34716796875	0           	                	;
 J-11            	1040        	0           	                	;
 J-12            	1045.52795410156	0           	                	;
 J-13            	1052.52062988281	0           	                	;
 J-14            	1057.47937011719	0           	                	;
 J-15            	1082.33947753906	0           	                	;
 J-16            	1084.82446289063	0           	                	;
 J-17            	1084.69482421875	0           	                	;
 J-18            	1083.236328125	0           	                	;
 J-19            	1078.96142578125	0           	                	;
 J-20            	1079.20532226563	0           	                	;
 J-21            	1082.00671386719	0           	                	;
 0679            	1082.93969726563	0           	                	;
 0675            	1083.20654296875	0.035       	RAP.PPL.002_002 	;
 0643            	1086.54504394531	0.086       	RAP.PPL.002_002 	;
 0550            	1080.04821777344	0.131       	RAP.PPL.002_002 	;
 0673            	1078.30249023438	0.041       	RAP.PPL.002_002 	;
 0674            	1078.30456542969	0.035       	RAP.PPL.002_002 	;
 0625            	1085.00061035156	0.168       	                	;
 0642            	1084.50122070313	0.103       	                	;
 0638            	1081.38989257813	0.049       	                	;
 HID.EXIST-10    	1081.39404296875	0           	                	;
 HID.EXIST-09    	1084.33337402344	0           	                	;
 5538-A          	1078.30285644531	0           	                	;
 5538-B          	1078.30285644531	0           	                	;
 5547-A          	1052.77661132813	0           	                	;
 5547-B          	1052.77661132813	0           	                	;
 5554-A          	1083.52221679688	0           	                	;
 5554-B          	1083.52221679688	0           	                	;

[RESERVOIRS]
;ID              	Head        	Pattern         
 ENTRADA         	1127.9      	ADT_LSL         	;

[TANKS]
;ID              	Elevation   	InitLevel   	MinLevel    	MaxLevel    	Diameter    	MinVol      	VolCurve        	Overflow

[PIPES]
;ID              	Node1           	Node2           	Length      	Diameter    	Roughness   	MinorLoss   	Status
 1616884(1)      	0664            	0663            	8.10871565126984	110         	140         	0           	Open  	;
 1614495         	1609105         	1609103         	45          	160         	140         	0           	Open  	;
 1614537         	1608871         	1609203         	81.017      	160         	140         	0           	Open  	;
 1616594         	0500            	0512            	177.002659468106	63          	140         	0           	Open  	;
 1612584         	1606159         	1606157         	33.843      	160         	140         	0           	Open  	;
 1616583         	0645            	0659            	176.432356120697	63          	140         	0           	Open  	;
 1616610         	0511            	0552            	187.564342893295	63          	140         	0           	Open  	;
 1612588         	1606166         	1606165         	60.005      	160         	140         	0           	Open  	;
 1612571         	1606131         	1606137         	88.384      	160         	140         	0           	Open  	;
 1616600         	0432            	0423            	200.924134741858	63          	140         	0           	Open  	;
 1614565         	1609250         	1609249         	55          	160         	140         	0           	Open  	;
 1616574         	0499            	0494            	19.9788538199761	90          	140         	0           	Open  	;
 1614540         	1609218         	1609216         	59.827      	160         	140         	0           	Open  	;
 1616596         	0492            	0490            	11.2993691138106	90          	140         	0           	Open  	;
 1616577         	0651            	0627            	251.020506332928	110         	140         	0           	Open  	;
 1614473         	1606625         	1606623         	63.769      	160         	140         	0           	Open  	;
 1616581         	0659            	0645            	177.421173505889	63          	140         	0           	Open  	;
 1616611         	0552            	0622            	231.17475798922	63          	140         	0           	Open  	;
 1614364         	1606127         	1608879         	55.744      	160         	140         	0           	Open  	;
 1612563         	1606112         	1606110         	94.944      	160         	140         	0           	Open  	;
 1614502         	1609117         	1609115         	50          	160         	140         	0           	Open  	;
 1614538         	1609204         	1609215         	100         	160         	140         	0           	Open  	;
 1612564         	1606114_n2a_2   	1606112         	59.279      	160         	140         	0           	Open  	;
 1616561         	0637            	0665            	288.886228726759	63          	140         	0           	Open  	;
 1614506         	1609104         	1609120         	100         	160         	140         	0           	Open  	;
 1616573         	0542            	0592            	127.340598324385	63          	140         	0           	Open  	;
 1612589         	1606161         	1606170         	85.999      	160         	140         	0           	Open  	;
 1606114_n2a     	1606114_n2a_1   	1606114_n2a_2   	0.1         	160         	140         	0           	Open  	;
 1612591         	1606173         	1606155         	50          	160         	140         	0           	Open  	;
 1612592         	1606174         	1606173         	50          	160         	140         	0           	Open  	;
 1614479         	1604966         	1608421         	40.719      	160         	140         	0           	Open  	;
 1612590         	1606171         	1606172         	100         	160         	140         	0           	Open  	;
 1614534         	1608976         	1609202         	60          	160         	140         	0           	Open  	;
 1616567         	0542            	0547            	132.887734949497	63          	140         	0           	Open  	;
 1614545         	1609217         	1609221         	100         	160         	140         	0           	Open  	;
 1616592         	0584            	0565            	179.401550690225	63          	140         	0           	Open  	;
 1614501         	1609115         	1608861         	61.029      	160         	140         	0           	Open  	;
 1614550         	1609222         	1609223         	100.026     	160         	140         	0           	Open  	;
 1613059         	1607056         	1607061         	62          	160         	140         	0           	Open  	;
 1616612         	0623            	0557            	230.468852069313	63          	140         	0           	Open  	;
 1614363         	1608879         	1608878         	14.33       	160         	140         	0           	Open  	;
 1614580         	1609243         	1609264         	70          	160         	140         	0           	Open  	;
 1616598         	0475            	0477            	8.4246127507818	63          	140         	0           	Open  	;
 1614541         	1609215         	1609218         	90          	160         	140         	0           	Open  	;
 1614443         	1606170         	1608983         	3.461       	160         	140         	0           	Open  	;
 1614504         	1609119         	1609118         	32.655      	160         	140         	0           	Open  	;
 1612570         	1606128         	MEDIDOR.004     	37.259      	160         	140         	0           	Open  	;
 1614563         	1609247         	1609246         	65          	160         	140         	0           	Open  	;
 1612585         	1606160         	1606161         	40          	160         	140         	0           	Open  	;
 1614578         	1609263         	1609262         	32.408      	160         	140         	0           	Open  	;
 1614549         	1609223         	1608867         	60          	160         	140         	0           	Open  	;
 1614543         	1609220         	1609219         	25.464      	160         	140         	0           	Open  	;
 1614560         	1608868         	1609243         	46          	160         	140         	0           	Open  	;
 1614475         	1609078         	1606624         	100         	160         	140         	0           	Open  	;
 1614579         	1609264         	1609263         	40          	160         	140         	0           	Open  	;
 1614355         	1608865         	1608866         	78.341      	160         	140         	0           	Open  	;
 1616586         	0652            	0655            	177.036675127943	63          	140         	0           	Open  	;
 1616606         	0557            	0564            	65.8578955024299	63          	140         	0           	Open  	;
 1616608         	0511            	0622            	411.443950981948	63          	140         	0           	Open  	;
 1612577         	1606143         	1606139         	100         	160         	140         	0           	Open  	;
 1614572         	1609259         	1609258         	18.753      	160         	140         	0           	Open  	;
 1614441         	1608983         	1608981         	24          	160         	140         	0           	Open  	;
 1616576         	0627            	0562            	250.665425816977	110         	140         	0           	Open  	;
 1616588         	0630            	0628            	174.229162532824	63          	140         	0           	Open  	;
 1616609         	0518            	0623            	410.696793753359	63          	140         	0           	Open  	;
 1614419         	1608951         	1608952_n2a_1   	10.802      	160         	140         	0           	Open  	;
 1616989         	1607041         	1607018         	62.698      	160         	140         	0           	Open  	;
 1608952_n2a     	1608952_n2a_1   	1608952_n2a_2   	0.1         	160         	140         	0           	Open  	;
 1612569         	1606126         	1606127         	31.51       	160         	140         	0           	Open  	;
 1614358         	1608870         	1608871         	50          	160         	140         	0           	Open  	;
 1614437         	1608975         	1608976         	90          	160         	140         	0           	Open  	;
 1614494         	1609103         	1609104         	85          	160         	140         	0           	Open  	;
 1612860         	1606624         	1606625         	50          	160         	140         	0           	Open  	;
 1612576         	1606137         	1606126         	54          	160         	140         	0           	Open  	;
 1614562         	1609246         	1609244         	90          	160         	140         	0           	Open  	;
 1614359         	1608872         	1608870         	35          	160         	140         	0           	Open  	;
 1614508         	1609122         	1609121         	50          	160         	140         	0           	Open  	;
 1614569         	1609255         	1609253         	80          	160         	140         	0           	Open  	;
 1614509         	1606176         	1609122         	80          	160         	140         	0           	Open  	;
 1614507         	1609121         	1606174         	50          	160         	140         	0           	Open  	;
 1614500         	1606111         	1609110         	89.799      	160         	140         	0           	Open  	;
 1612587         	1606165         	1606162         	70          	160         	140         	0           	Open  	;
 1614394         	1608916         	1606159         	70          	160         	140         	0           	Open  	;
 1616570         	0543            	0489            	257.279592819123	63          	140         	0           	Open  	;
 1616575         	0562            	0499            	251.33624509902	90          	140         	0           	Open  	;
 1614571         	1609258         	1609256         	80          	160         	140         	0           	Open  	;
 1607393         	1604963         	1604964         	37.771      	160         	140         	0           	Open  	;
 1614498         	1609108         	1609107         	75.065      	160         	140         	0           	Open  	;
 1616572         	0489            	0543            	256.989527696097	63          	140         	0           	Open  	;
 1614576         	1609261         	1607041         	27          	160         	140         	0           	Open  	;
 1614496         	1609106         	1609105         	23.668      	160         	140         	0           	Open  	;
 1614361         	1608877         	1608873         	15.524      	160         	140         	0           	Open  	;
 1616597         	0494            	0493            	8.337872004679	90          	140         	0           	Open  	;
 1612562         	1606110         	1606111         	52.473      	160         	140         	0           	Open  	;
 1614505         	1609120         	1609119         	75          	160         	140         	0           	Open  	;
 1612574         	1606142         	1606143         	74          	160         	140         	0           	Open  	;
 1616590         	0565            	0584            	180.158819689675	63          	140         	0           	Open  	;
 1616587         	0627            	0628            	8.92820250664226	63          	140         	0           	Open  	;
 1616569         	0542            	0476            	271.797673166888	63          	140         	0           	Open  	;
 1614533         	1609202         	1608872         	50          	160         	140         	0           	Open  	;
 1612583         	1606157         	1606158         	30.666      	160         	140         	0           	Open  	;
 1614570         	1609256         	1609255         	80          	160         	140         	0           	Open  	;
 1616603         	0423            	0432            	200.262500377912	63          	140         	0           	Open  	;
 1616578         	0662            	0651            	134.238531725955	110         	140         	0           	Open  	;
 1614535         	1609203         	1609204         	50          	160         	140         	0           	Open  	;
 1616589         	0630            	0628            	175.572016779904	63          	140         	0           	Open  	;
 1614568         	1609253         	1609252         	75          	160         	140         	0           	Open  	;
 1614435         	1606158         	1606166         	90          	160         	140         	0           	Open  	;
 1614503         	1609118         	1609117         	26.856      	160         	140         	0           	Open  	;
 1604927         	ENTRADA         	1600597         	592.155     	160         	140         	0           	Open  	;
 1612593         	1606175         	1606176         	50          	160         	140         	0           	Open  	;
 1616560         	0665            	0620            	512.33655922291	63          	140         	0           	Open  	;
 1606627_n2a     	1606627_n2a_1   	1606627_n2a_2   	0.1         	160         	140         	0           	Open  	;
 1616564         	0639            	0641            	8.23590310712334	63          	140         	0           	Open  	;
 1614542         	1609219         	1606181         	60          	160         	140         	0           	Open  	;
 1614433         	1606172         	1608916         	100         	160         	140         	0           	Open  	;
 1614564         	1609249         	1609247         	70          	160         	140         	0           	Open  	;
 1614356         	1608867         	1608868         	40          	160         	140         	0           	Open  	;
 1614575         	1607019         	1607016         	10.979      	160         	140         	0           	Open  	;
 1612572         	1606138         	1606131         	54          	160         	140         	0           	Open  	;
 1614548         	1608952_n2a_2   	1609222         	32.103      	160         	140         	0           	Open  	;
 1616184         	1608844         	1612043         	0.185       	160         	140         	0           	Open  	;
 1614544         	1609221         	1609220         	22.48       	160         	140         	0           	Open  	;
 1616585         	0655            	0652            	176.836422238497	63          	140         	0           	Open  	;
 1616595         	0499            	0500            	12.4612198442183	63          	140         	0           	Open  	;
 1614547         	1607061         	1608951         	19.285      	160         	140         	0           	Open  	;
 1614567         	1609252         	1609251         	32.293      	160         	140         	0           	Open  	;
 1614577         	1609262         	1609261         	52          	160         	140         	0           	Open  	;
 1616613         	0518            	0557            	187.751965094499	63          	140         	0           	Open  	;
 1612596         	1606181         	1606182         	55          	160         	140         	0           	Open  	;
 1616563         	0641            	0668            	280.683757914306	63          	140         	0           	Open  	;
 1614477         	1608421         	1609078         	51.987      	160         	140         	0           	Open  	;
 1616579         	0672            	0664            	521.889700644398	110         	140         	0           	Open  	;
 1616568         	0592            	0476            	390.984505318774	63          	140         	0           	Open  	;
 1614403         	1608934         	1608844         	56.324      	160         	140         	0           	Open  	;
 1613040         	1607018         	1607019         	1.712       	160         	140         	0           	Open  	;
 1616604         	0471            	0475            	191.262565658093	63          	140         	0           	Open  	;
 1616584         	0651            	0652            	13.4814390922345	63          	140         	0           	Open  	;
 1612582         	1606155         	1606156         	70          	160         	140         	0           	Open  	;
 1614362         	1608878         	1608877         	62.866      	160         	140         	0           	Open  	;
 1614439         	1608981         	1608975         	20          	160         	140         	0           	Open  	;
 1616562         	0620            	0637            	231.898747592807	63          	140         	0           	Open  	;
 1614499         	1609110         	1609108         	77.52       	160         	140         	0           	Open  	;
 1616593         	0500            	0512            	173.48517904285	63          	140         	0           	Open  	;
 1612586         	1606162         	1606160         	70.001      	160         	140         	0           	Open  	;
 1616884         	0663            	0662            	13.4745084972572	110         	140         	0           	Open  	;
 1616599         	0490            	0564            	279.131181346822	63          	140         	0           	Open  	;
 1616571         	0547            	0543            	14.1909865762739	63          	140         	0           	Open  	;
 1614566         	1609251         	1609250         	16.405      	160         	140         	0           	Open  	;
 1616284         	1606626         	1606627_n2a_1   	2.074       	160         	140         	0           	Open  	;
 1616591         	0562            	0565            	8.59461459273114	63          	140         	0           	Open  	;
 1614561         	1609244         	1608865         	72.881      	160         	140         	0           	Open  	;
 1614360         	1608873         	1606128         	65.633      	160         	140         	0           	Open  	;
 1614497         	1609107         	1609106         	53.927      	160         	140         	0           	Open  	;
 1612861         	1606156         	1606626         	98.834      	160         	140         	0           	Open  	;
 1614374         	1608866         	1606114_n2a_1   	38.711      	160         	140         	0           	Open  	;
 1614546         	1606182         	1607056         	100         	160         	140         	0           	Open  	;
 1616582         	0662            	0659            	81.3562738468788	63          	140         	0           	Open  	;
 1614352         	1608861         	1606175         	40          	160         	140         	0           	Open  	;
 1616605         	0471            	0475            	191.923405628541	63          	140         	0           	Open  	;
 1616607         	0552            	0557            	135.310688786856	63          	140         	0           	Open  	;
 1612859         	1606623         	1606171         	26.774      	160         	140         	0           	Open  	;
 1616988         	1604964         	1604966         	15.133      	160         	140         	0           	Open  	;
 1614573         	1607016         	1609259         	82.436      	160         	140         	0           	Open  	;
 1616602         	0490            	0477            	63.9927902185903	63          	140         	0           	Open  	;
 1614338         	1606141         	1606138         	20.14       	160         	140         	0           	Open  	;
 1617004         	MEDIDOR.004     	1606130         	4.398       	160         	140         	0           	Open  	;
 1614339         	1612043         	1606142         	99.815      	160         	140         	0           	Open  	;
 1614539         	1609216         	1609217         	25.02       	160         	140         	0           	Open  	;
 1612573         	1606139         	1606141         	66.294      	160         	140         	0           	Open  	;
 1616601         	0477            	0432            	128.19935140271	63          	140         	0           	Open  	;
 1616283         	1606627_n2a_2   	1608934         	2.663       	160         	140         	0           	Open  	;
 1607391         	1600597         	1604963         	169.385     	160         	140         	0           	Open  	;
 P-4             	1606130         	J-5             	54.7408313110397	160         	140         	0           	Open  	;
 P-5             	J-5             	J-6             	9.19239909294485	160         	140         	0           	Open  	;
 P-6             	J-6             	J-7             	7.092495707784	160         	140         	0           	Open  	;
 P-7             	J-7             	J-8             	27.5415905361101	160         	140         	0           	Open  	;
 P-8             	J-8             	J-9             	308.898075290765	160         	140         	0           	Open  	;
 P-9             	J-9             	J-10            	64.2566028699905	160         	140         	0           	Open  	;
 P-10            	J-10            	J-11            	151.290428083223	160         	140         	0           	Open  	;
 P-11            	J-11            	J-12            	119.547507866883	160         	140         	0           	Open  	;
 P-12            	J-12            	J-13            	107.959412004957	160         	140         	0           	Open  	;
 P-13            	J-13            	J-14            	85.6994145440522	160         	140         	0           	Open  	;
 P-14            	J-14            	J-15            	1232.67799859352	160         	140         	0           	Open  	;
 P-15            	J-15            	J-16            	100.93133975823	160         	140         	0           	Open  	;
 P-16            	J-16            	J-17            	61.1589220507989	160         	140         	0           	Open  	;
 P-17            	J-17            	J-18            	71.5550823489445	160         	140         	0           	Open  	;
 P-18            	J-18            	J-19            	132.078296171205	160         	140         	0           	Open  	;
 P-19            	J-19            	J-20            	102.865384550361	160         	140         	0           	Open  	;
 P-20            	J-20            	J-21            	111.700242547346	160         	140         	0           	Open  	;
 P-21            	J-21            	0679            	53.3590215448951	160         	140         	0           	Open  	;
 1616559(2)(2)(2)	0643            	0639            	68.7195040435349	63          	140         	0           	Open  	;
 1616566(1)(1)(1)(1)	0547            	0550            	64.825787806776	63          	140         	0           	Open  	;
 VRP.NOVA.015-B(1)	0493            	5547-A          	0.0491679524080147	90          	140         	0           	Open  	;
 VRP.NOVA.015-B(2)	5547-B          	0492            	0.0528130810507467	90          	140         	0           	Open  	;
 P-47(1)         	0675            	5554-A          	28.076288406932	160         	140         	0           	Open  	;
 P-47(2)         	5554-B          	0643            	321.785200321225	160         	140         	0           	Open  	;
 1616580(2)(2)(2)(2)(2)(1)	5538-B          	0673            	0.00335127031980948	90          	140         	0           	Open  	;
 1616580(2)(2)(2)(2)(2)(2)	0673            	0672            	111.971739263536	110         	140         	0           	Open  	;
 1616580(2)(2)(2)(2)(1)(1)	0675            	0674            	94.8665591579698	110         	140         	0           	Open  	;
 1616580(2)(2)(2)(2)(1)(2)	0674            	5538-A          	0.0204488762819512	90          	140         	0           	Open  	;
 P-50(1)         	0643            	0625            	165.855238867232	160         	140         	0           	Open  	;
 P-50(2)         	0625            	0550            	293.302366921668	160         	140         	0           	Open  	;
 1616565(1)      	0668            	0642            	270.621329224503	63          	140         	0           	Open  	;
 1616565(2)      	0642            	0641            	9.94806576187683	63          	140         	0           	Open  	;
 P-227           	HID.EXIST-09    	0642            	6.28286882142327	63          	140         	0           	Open  	;
 1616558(1)      	0639            	0638            	126.685029566704	63          	140         	0           	Open  	;
 1616558(2)      	0638            	0637            	6.23076601939889	63          	140         	0           	Open  	;
 P-228           	HID.EXIST-10    	0638            	1.70615026924612	63          	140         	0           	Open  	;
 44              	5538-A          	5538-B          	1           	90          	140         	0           	Open  	;
 55              	5554-A          	5554-B          	1           	160         	140         	0           	Open  	;

[PUMPS]
;ID              	Node1           	Node2           	Parameters

[VALVES]
;ID              	Node1           	Node2           	Diameter    	Type	Setting     	MinorLoss   
 VRP5.2-3        	5547-A          	5547-B          	40          	PRV 	5           	0           	;
 VRP5.2.1        	0679            	0675            	100         	PRV 	10          	0           	;

[TAGS]

[DEMANDS]
;Junction        	Demand      	Pattern         	Category

[STATUS]
;ID              	Status/Setting

[PATTERNS]
;ID              	Multipliers
;
 RAP.PPL.002_002 	0.3438      	0.3134      	0.3015      	0.1452      	0.2614      	0.3225      
 RAP.PPL.002_002 	0.4221      	0.5219      	0.7198      	0.9296      	1           	0.689       
 RAP.PPL.002_002 	0.7608      	0.8211      	0.8677      	0.8702      	0.6873      	0.5297      
 RAP.PPL.002_002 	0.5071      	0.4519      	0.3722      	0.3655      	0.3366      	0.3544      
;
 RAP.LSL.002     	0.7143      	0.7143      	0.7143      	0.7143      	0.7143      	0.7143      
 RAP.LSL.002     	0.7143      	0.8697      	0.8697      	1           	1           	1           
 RAP.LSL.002     	1           	1           	1           	1           	1           	0.7143      
 RAP.LSL.002     	0.7143      	0.7143      	0.7143      	0.7143      	0.5102      	0.5102      
;
 ADT_LSL         	0.9979      	0.9985      	1           	0.9985      	0.9984      	0.9984      
 ADT_LSL         	0.9979      	0.992       	0.991       	0.988       	0.9905      	0.995       
 ADT_LSL         	0.9948      	0.9942      	0.9941      	0.9948      	0.9957      	0.9964      
 ADT_LSL         	0.9964      	0.9965      	0.9938      	0.9957      	0.9968      	0.9977      
;
 EAT.LSL.002     	0.9951      	1           	0.9809      	0.0831      	0.0067      	0.0002      
 EAT.LSL.002     	0.0002      	0.0873      	0.9593      	0.9099      	0.8794      	0.103       
 EAT.LSL.002     	0.015       	0.0004      	0.0004      	0.0005      	0.0004      	0.0005      
 EAT.LSL.002     	0.0005      	0.0004      	0.8645      	0.9619      	0.971       	0.9768      

[CURVES]
;ID              	X-Value     	Y-Value

[CONTROLS]


[RULES]


[ENERGY]
 Global Efficiency  	75
 Global Price       	0
 Demand Charge      	0

[EMITTERS]
;Junction        	Coefficient

[QUALITY]
;Node            	InitQual

[SOURCES]
;Node            	Type        	Quality     	Pattern

[REACTIONS]
;Type     	Pipe/Tank       	Coefficient


[REACTIONS]
 Order Bulk            	1
 Order Tank            	1
 Order Wall            	1
 Global Bulk           	0
 Global Wall           	0
 Limiting Potential    	0
 Roughness Correlation 	0

[MIXING]
;Tank            	Model

[TIMES]
 Duration           	23:00 
 Hydraulic Timestep 	1:00 
 Quality Timestep   	1:00 
 Pattern Timestep   	1:00 
 Pattern Start      	0:00 
 Report Timestep    	1:00 
 Report Start       	0:00 
 Start ClockTime    	12 am
 Statistic          	NONE

[REPORT]
 Status             	No
 Summary            	No
 Page               	0

[OPTIONS]
 Units              	LPS
 Headloss           	H-W
 Specific Gravity   	1
 Viscosity          	0.985218143676839
 Trials             	40
 Accuracy           	0.001
 CHECKFREQ          	2
 MAXCHECK           	10
 DAMPLIMIT          	0
 Unbalanced         	Continue 10
 Pattern            	1
 Demand Multiplier  	1.0
 Emitter Exponent   	0.5
 Quality            	NONE mg/L
 Diffusivity        	1
 Tolerance          	0.01

[COORDINATES]
;Node            	X-Coord           	Y-Coord
0492            	198907.852        	8249964.838       
0493            	198906.994        	8249960.430       
0663            	198737.499        	8249054.546       
0664            	198743.842        	8249049.495       
MEDIDOR.004     	197529.700        	8247363.510       
0623            	198739.780        	8249482.260       
0518            	198814.080        	8249886.180       
0622            	198606.930        	8249506.500       
0511            	198681.010        	8249911.220       
0552            	198651.510        	8249729.670       
0557            	198784.400        	8249704.190       
0471            	198716.940        	8250066.690       
0490            	198899.280        	8249966.370       
0423            	198740.820        	8250194.460       
0432            	198934.000        	8250155.400       
0564            	198849.080        	8249691.790       
0477            	198910.840        	8250029.310       
0475            	198902.550        	8250030.810       
0512            	199078.810        	8249909.980       
0500            	198909.780        	8249937.930       
0584            	199033.950        	8249664.120       
0565            	198860.600        	8249691.600       
0630            	198983.870        	8249419.660       
0628            	198815.640        	8249445.010       
0655            	198944.680        	8249169.530       
0652            	198774.750        	8249197.200       
0645            	198699.540        	8249266.660       
0659            	198672.200        	8249096.220       
0672            	199257.090        	8248955.164       
0662            	198737.260        	8249067.710       
0651            	198761.510        	8249199.740       
0627            	198806.860        	8249446.630       
0562            	198852.150        	8249693.170       
0494            	198901.170        	8249960.020       
0499            	198897.560        	8249940.370       
0547            	199385.610        	8249742.450       
0489            	199429.590        	8250006.060       
0543            	199388.160        	8249756.410       
0542            	199254.860        	8249766.190       
0476            	199299.250        	8250030.560       
0592            	199228.500        	8249646.030       
0668            	199249.050        	8249021.450       
0641            	199303.910        	8249291.740       
0620            	199211.710        	8249549.190       
0665            	199119.280        	8249045.260       
0637            	199174.680        	8249323.900       
0639            	199305.400        	8249299.840       
1612043         	196778.450        	8247344.580       
1609264         	194483.120        	8246258.670       
1609263         	194519.940        	8246274.310       
1609262         	194550.970        	8246283.640       
1609261         	194601.650        	8246295.300       
1609259         	194781.820        	8246335.760       
1609258         	194786.660        	8246317.650       
1609256         	194864.860        	8246334.540       
1609255         	194943.160        	8246350.960       
1609253         	195021.280        	8246368.180       
1609252         	195094.560        	8246384.170       
1609251         	195126.130        	8246390.970       
1609250         	195122.480        	8246406.970       
1609249         	195176.480        	8246417.450       
1609247         	195244.860        	8246432.400       
1609246         	195307.440        	8246449.980       
1609244         	195395.470        	8246468.710       
1609243         	194421.090        	8246226.230       
1609223         	194308.630        	8246134.000       
1609222         	194240.220        	8246061.060       
1609221         	194093.040        	8245729.240       
1609220         	194097.240        	8245751.330       
1609219         	194121.930        	8245745.100       
1609218         	194089.890        	8245568.110       
1609217         	194074.000        	8245631.070       
1609216         	194098.730        	8245627.280       
1609215         	194074.650        	8245479.400       
1609204         	194055.520        	8245381.250       
1609203         	194045.030        	8245332.360       
1609202         	193970.320        	8245130.980       
1609122         	196369.460        	8247247.180       
1609121         	196410.280        	8247276.050       
1609120         	196146.140        	8246937.830       
1609119         	196186.340        	8247001.150       
1609118         	196205.110        	8247027.870       
1609117         	196182.230        	8247041.920       
1609115         	196207.090        	8247085.300       
1609110         	195855.590        	8246613.550       
1609108         	195917.990        	8246659.540       
1609107         	195969.310        	8246714.330       
1609106         	196000.890        	8246758.040       
1609105         	196020.700        	8246745.080       
1609104         	196092.320        	8246853.550       
1609103         	196046.200        	8246782.150       
1609078         	192990.970        	8244602.480       
1608983         	193843.370        	8244984.980       
1608981         	193861.460        	8245000.760       
1608976         	193933.460        	8245083.640       
1608975         	193876.460        	8245013.990       
1608952_n2a_2   	194223.450        	8246033.690       
1608952_n2a_1   	194223.390        	8246033.600       
1608951         	194218.080        	8246024.200       
1608934         	196721.980        	8247346.590       
1608916         	193362.750        	8244784.630       
1608879         	197384.640        	8247430.040       
1608878         	197383.710        	8247444.340       
1608877         	197446.490        	8247447.550       
1608873         	197456.840        	8247435.980       
1608872         	193993.960        	8245175.040       
1608871         	194026.670        	8245253.470       
1608870         	194008.290        	8245206.970       
1608868         	194382.480        	8246201.230       
1608867         	194351.260        	8246176.220       
1608866         	195540.510        	8246511.190       
1608865         	195466.100        	8246486.680       
1608861         	196243.410        	8247134.310       
1608844         	196778.270        	8247344.610       
1608421         	192942.150        	8244584.620       
1607061         	194208.040        	8246007.730       
1607056         	194182.160        	8245951.390       
1607041         	194627.340        	8246303.600       
1607019         	194690.670        	8246315.340       
1607018         	194688.980        	8246315.050       
1607016         	194701.430        	8246317.520       
1606627_n2a_2   	196719.320        	8247346.690       
1606627_n2a_1   	196719.220        	8247346.690       
1606626         	196717.140        	8247346.620       
1606625         	193130.740        	8244656.850       
1606624         	193084.610        	8244637.570       
1606623         	193188.670        	8244683.510       
1606182         	194152.750        	8245855.820       
1606181         	194136.060        	8245803.410       
1606176         	196305.030        	8247199.750       
1606175         	196269.170        	8247164.900       
1606174         	196454.940        	8247298.540       
1606173         	196501.520        	8247316.700       
1606172         	193270.350        	8244746.370       
1606171         	193177.980        	8244708.060       
1606170         	193840.700        	8244982.790       
1606166         	193554.120        	8244830.580       
1606165         	193608.280        	8244856.420       
1606162         	193672.470        	8244884.340       
1606161         	193771.770        	8244931.460       
1606160         	193736.590        	8244912.430       
1606159         	193427.390        	8244811.490       
1606158         	193470.870        	8244796.370       
1606157         	193458.630        	8244824.490       
1606156         	196618.360        	8247343.550       
1606155         	196549.590        	8247330.460       
1606143         	196951.340        	8247327.470       
1606142         	196877.490        	8247332.200       
1606141         	197117.470        	8247320.170       
1606139         	197051.200        	8247322.200       
1606138         	197131.600        	8247334.520       
1606137         	197270.980        	8247348.090       
1606131         	197185.570        	8247332.790       
1606130         	197533.150        	8247360.780       
1606128         	197502.060        	8247388.490       
1606127         	197344.240        	8247391.660       
1606126         	197319.010        	8247372.780       
1606114_n2a_2   	195578.410        	8246519.560       
1606114_n2a_1   	195578.310        	8246519.540       
1606112         	195636.290        	8246532.350       
1606111         	195777.780        	8246569.760       
1606110         	195729.100        	8246550.180       
1604966         	192906.200        	8244565.500       
1604964         	192891.730        	8244561.040       
1604963         	192855.640        	8244549.900       
1600597         	192689.600        	8244517.250       
J-5             	197570.972        	8247321.207       
J-6             	197580.146        	8247321.789       
J-7             	197584.409        	8247316.121       
J-8             	197609.455        	8247304.666       
J-9             	197917.658        	8247283.953       
J-10            	197981.893        	8247285.609       
J-11            	198131.042        	8247310.976       
J-12            	198240.371        	8247359.337       
J-13            	198333.676        	8247413.646       
J-14            	198399.195        	8247468.888       
J-15            	199286.450        	8248324.617       
J-16            	199356.379        	8248397.399       
J-17            	199393.348        	8248446.119       
J-18            	199428.105        	8248508.666       
J-19            	199469.503        	8248634.089       
J-20            	199484.846        	8248735.803       
J-21            	199482.531        	8248847.480       
0679            	199478.153        	8248900.659       
0675            	199463.770        	8248949.631       
0643            	199372.994        	8249287.456       
0550            	199449.376        	8249730.777       
0673            	199357.845        	8248950.912       
0674            	199382.376        	8248949.931       
0625            	199364.213        	8249452.824       
0642            	199298.133        	8249287.583       
0638            	199180.805        	8249322.755       
HID.EXIST-10    	199181.152        	8249324.426       
HID.EXIST-09    	199291.892        	8249288.304       
5538-A          	199379.923        	8248950.421       
5538-B          	199368.887        	8248950.528       
5547-A          	198907.729        	8249964.104       
5547-B          	198907.836        	8249964.514       
5554-A          	199458.423        	8248971.028       
5554-B          	199457.226        	8248979.940       
ENTRADA         	192129.550        	8244640.340       

[VERTICES]
;Link            	X-Coord           	Y-Coord
1614537         	194028.252        	8245254.370       
1614537         	194028.712        	8245256.180       
1614537         	194031.332        	8245266.500       
1614537         	194038.212        	8245293.570       
1616594         	199077.680        	8249904.320       
1616583         	198668.390        	8249096.940       
1616610         	198684.640        	8249910.530       
1612571         	197208.002        	8247331.690       
1612571         	197231.252        	8247333.040       
1612571         	197238.182        	8247334.020       
1612571         	197248.792        	8247337.450       
1612571         	197251.372        	8247338.620       
1616600         	198934.700        	8250159.200       
1616596         	198907.570        	8249964.830       
1614473         	193154.832        	8244667.310       
1616581         	198704.280        	8249265.820       
1616611         	198610.500        	8249505.850       
1614364         	197367.112        	8247411.120       
1612563         	195680.172        	8246535.900       
1616561         	199124.110        	8249044.450       
1616573         	199232.800        	8249645.220       
1612589         	193793.752        	8244945.870       
1612589         	193806.832        	8244955.000       
1612589         	193830.982        	8244973.240       
1616592         	198861.320        	8249695.480       
1614501         	196227.002        	8247111.910       
1614550         	194272.372        	8246095.550       
1613059         	194192.292        	8245970.490       
1613059         	194193.032        	8245972.090       
1613059         	194193.552        	8245973.220       
1613059         	194193.942        	8245974.090       
1616612         	198743.850        	8249481.520       
1614363         	197385.812        	8247432.750       
1612570         	197529.322        	8247364.890       
1614563         	195256.762        	8246435.360       
1614475         	193008.642        	8244608.590       
1616586         	198943.950        	8249164.820       
1616588         	198816.390        	8249449.120       
1616989         	194663.542        	8246310.450       
1616989         	194665.322        	8246310.800       
1616989         	194688.982        	8246314.820       
1612576         	197285.032        	8247354.620       
1614500         	195807.832        	8246580.700       
1614500         	195828.102        	8246593.930       
1616570         	199433.690        	8250005.410       
1614498         	195921.562        	8246661.910       
1616572         	199384.260        	8249757.130       
1616597         	198906.500        	8249959.040       
1616590         	199033.100        	8249659.500       
1616569         	199302.940        	8250029.890       
1614570         	194910.442        	8246343.820       
1616603         	198740.240        	8250191.310       
1616589         	198982.870        	8249414.220       
1614568         	195037.722        	8246371.470       
1604927         	192138.612        	8244635.040       
1604927         	192146.362        	8244628.930       
1604927         	192179.342        	8244606.150       
1604927         	192195.902        	8244594.840       
1604927         	192197.872        	8244593.660       
1604927         	192199.722        	8244592.560       
1604927         	192200.992        	8244591.790       
1604927         	192213.092        	8244584.550       
1604927         	192228.892        	8244572.260       
1604927         	192247.452        	8244564.950       
1604927         	192266.092        	8244557.560       
1604927         	192284.722        	8244550.210       
1604927         	192303.322        	8244542.940       
1604927         	192321.962        	8244535.610       
1604927         	192340.692        	8244529.940       
1604927         	192361.202        	8244527.410       
1604927         	192380.822        	8244523.350       
1604927         	192400.442        	8244519.210       
1604927         	192419.972        	8244515.150       
1604927         	192439.552        	8244511.030       
1604927         	192459.182        	8244506.990       
1604927         	192479.192        	8244506.630       
1604927         	192499.062        	8244506.300       
1604927         	192519.092        	8244505.980       
1604927         	192539.022        	8244505.610       
1604927         	192559.102        	8244505.220       
1604927         	192579.042        	8244506.480       
1604927         	192599.082        	8244507.620       
1604927         	192619.142        	8244508.760       
1604927         	192638.982        	8244511.040       
1604927         	192658.892        	8244513.440       
1604927         	192678.832        	8244515.820       
1616560         	199169.410        	8249318.540       
1614575         	194700.002        	8246316.960       
1614575         	194700.002        	8246316.960       
1616585         	198775.640        	8249201.850       
1616613         	198817.430        	8249885.550       
1616563         	199253.900        	8249020.560       
1616579         	199223.380        	8248960.273       
1616579         	199070.327        	8248989.696       
1616579         	198980.213        	8249006.411       
1616579         	198762.253        	8249045.229       
1616604         	198716.540        	8250064.500       
1616562         	199215.320        	8249548.470       
1616593         	198910.220        	8249940.110       
1612586         	193680.802        	8244887.420       
1612586         	193702.462        	8244896.990       
1616884         	198736.647        	8249059.887       
1616884         	198736.132        	8249064.527       
1616884         	198736.883        	8249066.113       
1616884         	198737.110        	8249066.930       
1614360         	197469.242        	8247423.520       
1614360         	197483.472        	8247407.480       
1614360         	197487.542        	8247403.520       
1616582         	198681.910        	8249076.350       
1616582         	198677.380        	8249078.050       
1616582         	198673.860        	8249080.350       
1616582         	198672.380        	8249083.630       
1616582         	198671.640        	8249087.850       
1616582         	198671.790        	8249094.030       
1614352         	196251.552        	8247142.370       
1616605         	198903.060        	8250033.660       
1616988         	192894.062        	8244561.340       
1616988         	192899.612        	8244563.050       
1614339         	196792.542        	8247342.990       
1612573         	197060.542        	8247321.950       
1607391         	192698.762        	8244518.180       
1607391         	192718.612        	8244520.490       
1607391         	192738.282        	8244524.520       
1607391         	192757.852        	8244528.690       
1607391         	192777.732        	8244532.360       
1607391         	192797.482        	8244536.250       
1607391         	192817.102        	8244540.140       
1607391         	192836.872        	8244544.210       
1616580(2)(2)(2)(2)(2)(2)	199319.299        	8248951.945       
1616580(2)(2)(2)(2)(2)(2)	199284.093        	8248952.250       
P-50(1)         	199370.993        	8249296.723       
P-50(1)         	199364.545        	8249378.794       
P-50(1)         	199363.860        	8249449.333       
P-50(2)         	199370.580        	8249511.981       
P-50(2)         	199383.037        	8249573.082       
P-50(2)         	199400.858        	8249625.831       
P-50(2)         	199429.397        	8249694.260       
1616565(2)      	199299.190        	8249292.620       

[LABELS]
;X-Coord             Y-Coord             Label & Anchor Node
198958.036        	8250820.211       	"VRP.NOVA.016"	
199178.249        	8251344.354       	"VRP.NOVA.017"	
198901.170        	8249960.020       	"VRP.NOVA.015"	0494
199487.354        	8249709.609       	"VRP NOVA 013"	
199458.094        	8248977.332       	"VRP 5.2.1"	0679
202576.496        	8250150.259       	"VRP.NOVA.019"	
202420.156        	8249687.344       	"VRP.NOVA.018 NO ARQUIVO"	
192339.245        	8244449.786       	"DERIVACAO"	
199828.093        	8250584.033       	"Revisar esta conexao"	
199482.891        	8248873.905       	"Macromedidor 5.2"	

[BACKDROP]
  DIMENSIONS  	191588.078        	8242581.704       	203500.462        	8252185.050       
 UNITS          	None
 FILE           	
 OFFSET         	0.00            	0.00            

[END]
