[TITLE]
Scenario: Alternativa 1 
Date: 27/01/2025 14:57:18 

[JUNCTIONS]
 0124                               1050.0575
 0302                               1062.0447
 0426                               1009.9555
 0573                               1050.5402
 0575                               1050.6011
 0089                               1040.0000
 0492                               1052.7761
 0493                               1052.7771
 0663                               1050.7297
 0664                               1050.3997
 0553                               1080.1206
 0778                               1088.0267
 0779                               1088.0320
 0930                               1103.1847
 0931                               1103.1849
 0966                               1100.3927
 0967                               1100.3960
 0377                                980.1954
 0375                                980.1964
 0504                               1039.7426
 0505                               1039.7671
 0603                               1055.5430
 0602                               1055.5365
 0993                               1112.1621
 0992                               1112.1591
 0411                               1000.4252
 0510                               1039.2285
 0458                               1079.4227
 0593                               1057.7712
 0774                               1088.9409
 0676                               1083.4041
 0805                               1074.3545
 1047                               1147.1398
 MEDIDOR.004                        1010.0000
 0563                               1049.9736
 0341                                978.2662
 0507                               1040.0000
 0570                               1050.3998
 0442                               1050.8722
 0566                               1049.9615
 0569                               1050.4260
 0110                               1010.0000
 0212                               1010.7195
 0233                               1035.1165
 0300                               1051.8606
 0101                               1030.2200
 0154                               1029.9781
 0147                               1030.2174
 0153                               1029.4949
 0146                               1029.7076
 0225                               1032.8433
 0190                               1029.2175
 0191                               1029.6525
 0282                               1027.2804
 0274                               1027.0618
 0268                               1026.6863
 0279                               1026.9165
 0362                               1069.5247
 0359                               1069.1373
 0361                               1069.3032
 0623                               1041.2104
 0518                               1045.5367
 0622                               1035.8947
 0511                               1036.6689
 0552                               1035.0769
 0557                               1040.0000
 0471                               1040.0000
 0490                               1052.1217
 0423                               1032.5029
 0432                               1037.7463
 0564                               1049.1724
 0477                               1050.0345
 0475                               1049.9290
 0512                               1064.3159
 0500                               1053.5483
 0584                               1065.9092
 0565                               1050.3783
 0630                               1069.3339
 0628                               1052.8232
 0655                               1069.7087
 0652                               1061.7157
 0645                               1060.0522
 0659                               1052.5454
 0672                               1074.0492
 0662                               1052.0414
 0651                               1060.8276
 0627                               1051.7795
 0562                               1049.6974
 0494                               1052.4064
 0499                               1052.6252
 0547                               1078.0392
 0489                               1061.5936
 0543                               1077.4655
 0542                               1075.5499
 0476                               1060.7499
 0592                               1078.5715
 0668                               1078.7581
 0641                               1084.6853
 0620                               1079.9623
 0665                               1073.9847
 0644                               1086.6516
 0637                               1081.2173
 0639                               1084.7750
 0521                               1084.8082
 0545                               1087.5996
 0581                               1096.5981
 0605                               1092.9213
 0624                               1091.0737
 0578                               1085.6561
 0582                               1089.3789
 0629                               1093.6350
 0590                               1089.7124
 0595                               1092.7756
 0631                               1096.3407
 0611                               1096.1538
 0632                               1099.1942
 0613                               1096.2833
 0636                               1095.2400
 0647                               1102.2441
 0666                               1090.9442
 0649                               1092.8557
 0616                               1085.4143
 0640                               1090.0557
 0646                               1092.8970
 0660                               1099.0955
 0669                               1104.2722
 0677                               1098.6772
 0680                               1104.9525
 0689                               1102.9181
 0693                               1102.2083
 0661                               1095.4218
 0692                               1096.8966
 0686                               1098.3560
 0691                               1090.9784
 0683                               1092.9557
 0685                               1098.4675
 0688                               1102.8553
 0696                               1094.0138
 0700                               1105.7437
 0671                               1083.4443
 0424                               1077.9591
 0551                               1080.0918
 0732                               1087.1466
 0702                               1091.6760
 0715                               1087.2983
 0695                               1083.9698
 0711                               1082.4329
 0694                               1082.0521
 0708                               1096.3051
 0726                               1103.2205
 0717                               1094.9041
 0733                               1102.5171
 0734                               1103.0509
 0728                               1103.6964
 0701                               1106.4084
 0690                               1105.7673
 0681                               1105.3165
 0670                               1104.6171
 0657                               1103.3142
 0648                               1102.5465
 0614                               1098.5250
 0539                               1093.0074
 0583                               1096.8887
 0735                               1092.6903
 0742                               1101.1936
 0772                               1088.0912
 0749                               1100.5824
 0740                               1092.8903
 0752                               1086.3193
 0739                               1088.6044
 0755                               1090.5953
 0747                               1093.1390
 0743                               1093.1882
 0753                               1096.9292
 0769                               1085.1406
 0760                               1092.7727
 0761                               1084.1964
 0754                               1081.0988
 0697                               1054.5179
 0706                               1070.0299
 0704                               1060.0071
 0713                               1070.8807
 0710                               1059.1299
 0725                               1071.2455
 0736                               1080.8875
 0722                               1072.0879
 0767                               1066.7203
 0763                               1075.0214
 0719                               1078.3915
 0707                               1070.1145
 0714                               1071.3755
 0721                               1071.5681
 0727                               1071.4941
 0718                               1078.3000
 0705                               1067.1691
 0731                               1083.0162
 0751                               1080.7922
 0757                               1075.5220
 0762                               1075.5154
 0773                               1082.1558
 0788                               1082.0918
 0770                               1075.4850
 0785                               1073.4619
 0780                               1070.6993
 0784                               1079.9706
 0787                               1069.5864
 0791                               1086.5059
 0790                               1060.8599
 0794                               1081.7375
 0793                               1050.0369
 0799                               1077.1639
 0796                               1042.9590
 0777                               1087.2097
 0781                               1088.8792
 0776                               1089.7518
 0804                               1072.2122
 0800                               1078.3081
 0795                               1082.3208
 0792                               1086.9537
 0775                               1087.6608
 0786                               1084.2073
 0782                               1085.9902
 0802                               1070.0114
 0771                               1090.6519
 0766                               1094.9352
 0756                               1100.3936
 0744                               1101.6827
 0750                               1101.0903
 0737                               1069.8733
 0745                               1075.6290
 0886                               1109.4980
 0925                               1102.3042
 0541                               1057.1135
 0955                               1099.9829
 0821                               1053.7883
 1612043                            1013.9268
 0986                               1110.9763
 0954                               1100.4360
 0407                               1000.0000
 0406                               1000.0000
 0387                               1000.0000
 0388                               1000.0000
 0498                               1089.9941
 0378                               1000.0000
 0372                                979.8318
 0452                               1062.8241
 0371                                979.8370
 0454                               1062.8138
 0455                               1062.7333
 0502                               1072.1311
 0343                                960.1888
 0196                                954.3967
 0333                                963.7800
 0365                                980.0000
 0384                                996.3986
 0205                                967.8004
 0456                               1040.0000
 0364                                974.6188
 0358                                980.0000
 0340                                976.6390
 0391                               1000.0000
 0404                               1000.0320
 0399                               1000.0000
 0401                               1000.0000
 0418                               1005.4399
 0599                               1054.9689
 0443                               1051.6793
 0450                               1052.1184
 0447                               1052.1083
 0441                               1040.0000
 0444                               1040.0000
 0612                               1059.5741
 0437                               1040.0000
 0440                               1040.0000
 0601                               1055.4047
 0429                               1040.0000
 0439                               1040.0000
 0619                               1108.4886
 0618                               1108.7601
 0517                               1033.8418
 0497                               1035.6161
 0634                               1089.9745
 0621                               1108.1530
 0633                               1087.9812
 0635                               1089.5400
 0606                               1057.8524
 0607                               1057.7714
 0554                               1057.5878
 0585                               1099.9890
 0587                               1099.9893
 0609                               1100.0837
 0525                               1090.8855
 0597                               1055.3739
 0588                               1099.9930
 0615                               1106.6830
 0617                               1107.9685
 0506                               1040.0000
 0524                               1046.6011
 0523                               1046.0844
 0347                                973.3660
 0402                               1000.0000
 0400                               1000.0000
 0369                                980.1133
 0508                               1040.0000
 0478                               1023.4164
 0480                               1023.7806
 0488                               1025.2148
 0515                               1033.8745
 0516                               1033.8734
 0393                                998.2631
 0392                                997.8829
 0390                               1000.0000
 0389                               1000.0000
 0382                               1000.0000
 0438                               1011.0493
 0434                               1010.3489
 0556                               1057.8754
 0555                               1057.7891
 0459                               1073.9683
 0464                               1073.8960
 0457                               1074.1270
 0410                               1000.9132
 0395                                999.1917
 0414                               1006.4197
 0398                                999.9941
 0421                               1006.3229
 0403                               1000.0000
 0415                               1006.7679
 0479                               1022.6212
 0491                               1028.7970
 0528                               1039.0118
 0529                               1038.9337
 0530                               1038.8883
 0501                               1037.8160
 0470                               1020.6370
 0435                               1007.1511
 0472                               1021.6787
 0537                               1063.6963
 0561                               1059.1675
 0568                               1050.4010
 0571                               1050.5579
 0572                               1050.5646
 0546                               1040.0000
 0548                               1040.0000
 0549                               1040.0000
 0604                               1055.9896
 0600                               1055.8063
 0589                               1056.4891
 0532                               1062.4589
 0481                               1023.7535
 0482                               1023.9229
 0344                                972.0820
 0345                                972.8039
 0346                                972.8165
 0496                               1089.9843
 0461                               1079.4500
 0462                               1079.4514
 0463                               1079.4640
 0586                               1056.3182
 0559                               1057.5176
 0558                               1057.5182
 0379                               1000.0000
 0509                               1039.2849
 0380                               1000.0000
 0381                               1000.0000
 0177                               1040.0000
 0139                               1050.0686
 0835                               1097.5342
 0185                               1040.2601
 1052                               1099.4436
 0356                               1068.5952
 0353                               1068.2970
 0351                               1068.1027
 0352                               1068.1049
 0328                               1029.6932
 0330                               1028.9387
 0218                               1029.5005
 0245                               1034.3997
 0237                               1035.1469
 0248                               1035.3488
 0109                               1010.0000
 0290                               1053.8812
 0323                               1040.0000
 0285                               1040.6382
 0873                               1064.3132
 0874                               1064.3217
 0211                               1011.2008
 0186                               1010.1375
 0854                               1109.8865
 0360                               1069.4165
 0321                               1062.5825
 0291                               1053.9331
 0280                               1040.0000
 0255                               1025.2714
 0950                               1102.2963
 0949                               1102.2096
 0181                               1010.0238
 0234                               1019.4557
 0243                               1024.4294
 0267                               1026.6273
 0238                               1019.8636
 1007                               1098.5759
 0112                               1010.0000
 0120                               1009.9999
 0698                               1106.2493
 1057                               1091.4938
 1022                               1110.9564
 1029                               1109.9995
 1032                               1109.0477
 1010                               1119.5657
 0944                               1088.9437
 0860                               1108.6877
 0845                               1107.5753
 0847                               1108.5173
 0283                               1040.0000
 0284                               1040.0000
 0294                               1040.0000
 0836                               1108.0508
 0261                               1040.0000
 0262                               1040.0000
 0278                               1040.0000
 0276                               1026.8040
 0273                               1040.0000
 1023                               1126.1172
 0815                               1079.7893
 0270                               1040.0000
 0269                               1040.0000
 0260                               1040.0000
 0867                               1102.6241
 0265                               1040.0000
 0266                               1040.0000
 0309                               1053.9036
 0271                               1053.5167
 0272                               1053.5221
 0251                               1052.8674
 0531                               1092.3486
 0577                               1096.4148
 1064                               1099.6639
 1063                               1103.8861
 0990                               1098.1952
 0656                               1102.4207
 0866                               1110.6276
 0869                               1111.0342
 0922                               1122.2627
 0289                               1053.7452
 0924                               1122.5798
 0933                               1123.2683
 0947                               1102.1173
 0959                               1100.9302
 0961                               1101.1147
 0923                               1105.7140
 0943                               1103.2332
 0936                               1123.1475
 0972                               1109.7635
 0952                               1120.0385
 1018                               1123.6266
 1016                               1119.9965
 0100                               1031.5814
 0131                               1050.0259
 0114                               1040.0000
 0142                               1022.5725
 0143                               1022.5795
 1049                               1147.1548
 1036                               1108.6852
 0315                               1055.2822
 0316                               1055.2882
 0324                               1056.7759
 0206                               1010.2814
 0173                               1040.0000
 0220                               1040.0000
 0219                               1040.0000
 0167                               1014.8134
 0168                               1014.8183
 0976                               1110.1128
 0977                               1110.1136
 0121                               1050.0281
 0797                               1057.9130
 1050                               1147.2725
 0816                               1080.0356
 1031                               1131.2957
 1030                               1131.2937
 1024                               1127.3701
 1027                               1127.6875
 1026                               1127.5107
 1025                               1127.5083
 0322                               1040.0000
 0320                               1040.0000
 0319                               1040.0000
 0314                               1040.0000
 0311                               1040.0000
 0310                               1040.0000
 0256                               1040.0000
 0257                               1040.0000
 0928                               1102.5499
 0927                               1102.5510
 0999                               1110.9391
 0998                               1110.9390
 0926                               1102.6122
 0895                               1109.8712
 0868                               1102.7324
 0957                               1100.8112
 0958                               1100.8123
 0960                               1100.8850
 0658                               1103.1895
 0654                               1103.0916
 0837                               1083.9048
 0838                               1083.9100
 0299                               1060.7156
 0231                               1055.1119
 0229                               1054.9520
 0834                               1107.0779
 0827                               1103.9310
 0824                               1093.7117
 0929                               1103.2826
 0130                               1050.0524
 0134                               1050.0652
 0183                               1010.0000
 0182                               1010.0000
 1040                               1105.9408
 0099                               1010.0000
 0092                               1010.0000
 0825                               1051.2953
 0881                               1115.9363
 0879                               1115.1771
 0861                               1108.6998
 0878                               1115.6959
 0872                               1115.2970
 0864                               1116.1799
 0853                               1113.4948
 0870                               1110.3674
 0814                               1079.2473
 0806                               1063.7330
 0303                               1057.0388
 0942                               1088.8417
 0823                               1081.4833
 1060                               1104.4558
 1059                               1104.4537
 1046                               1147.0459
 1051                               1147.3794
 1048                               1147.4459
 0964                               1100.9580
 0209                               1036.6924
 0210                               1036.6993
 0221                               1040.0000
 0819                               1085.7717
 0349                               1067.9966
 0350                               1067.9990
 0809                               1078.7394
 0995                               1110.9142
 0988                               1110.4019
 0987                               1110.3999
 0906                               1058.5419
 0899                               1056.7980
 0900                               1056.7950
 0876                               1063.7994
 0877                               1063.7810
 0945                               1091.1333
 0973                               1109.7886
 0971                               1112.2482
 1001                               1114.5195
 0902                               1109.1993
 0903                               1109.3585
 0904                               1109.5408
 0905                               1109.5449
 0897                               1109.8992
 0901                               1110.0553
 0896                               1109.7550
 0812                               1077.8483
 0808                               1077.2496
 0829                               1081.0844
 0833                               1081.1559
 0871                               1110.3710
 0880                               1110.7023
 0849                               1075.1527
 0882                               1111.7994
 0919                               1109.8925
 0859                               1094.3887
 0913                               1105.0856
 0863                               1083.3730
 0862                               1083.3644
 0916                               1105.5958
 0917                               1105.5955
 0907                               1109.6676
 0915                               1105.6151
 0914                               1094.6935
 0875                               1064.6738
 0894                               1109.5997
 0846                               1092.8611
 0855                               1094.3788
 0856                               1094.3790
 0975                               1073.7023
 1003                               1110.0441
 0258                               1053.3148
 0259                               1053.3156
 0989                               1106.9052
 0841                               1084.0957
 0858                               1094.2745
 0857                               1094.2710
 0968                               1100.6141
 0295                               1054.2321
 0304                               1054.5601
 1020                               1096.4174
 0306                               1053.6906
 0307                               1053.9421
 1002                               1083.0188
 1019                               1096.8007
 0335                               1055.8251
 0325                               1055.4034
 1062                               1104.0291
 1058                               1104.3755
 0963                               1100.9531
 0962                               1100.7930
 0946                               1092.2739
 0956                               1100.0894
 0932                               1101.3301
 0934                               1102.3622
 1033                               1130.0890
 1028                               1127.7894
 1041                               1142.7437
 1045                               1142.9897
 1053                               1146.1710
 1042                               1142.8223
 1043                               1142.8240
 1044                               1142.9199
 1011                               1119.6437
 0326                               1010.0000
 0337                               1010.0000
 0889                               1109.6615
 0890                               1109.6611
 0892                               1109.6167
 0891                               1109.6429
 0938                               1088.2369
 0939                               1088.3109
 0941                               1088.4926
 0940                               1088.4879
 0912                               1060.0001
 0918                               1062.7189
 0885                               1058.9951
 0828                               1080.5896
 0831                               1080.9780
 0832                               1080.9833
 0817                               1082.2783
 1015                               1110.7124
 1008                               1110.6422
 1039                               1106.2838
 1034                               1107.4683
 0951                               1096.8470
 0969                               1097.7643
 1000                               1099.1403
 0991                               1099.3478
 0842                               1098.3107
 0830                               1096.4218
 1009                               1098.5809
 0820                               1080.0336
 0818                               1081.9380
 1021                               1097.0023
 1017                               1097.9716
 1013                               1119.6200
 0981                               1110.2406
 0980                               1110.2386
 0850                               1110.7917
 0844                               1108.7220
 0994                               1113.1656
 0979                               1113.2979
 0982                               1113.5215
 0108                               1031.4523
 0107                               1031.4441
 0175                               1050.0201
 0985                               1110.3448
 0984                               1110.1943
 0983                               1110.1908
 0103                               1010.0000
 0164                               1040.0000
 0165                               1040.0000
 0150                               1010.0000
 0166                               1041.9241
 0170                               1040.7981
 0171                               1040.7900
 0192                               1010.0000
 0151                               1010.0000
 0288                               1051.6300
 0203                               1048.6278
 0202                               1048.6327
 0199                               1010.0000
 0160                               1050.4342
 0161                               1050.4396
 0888                               1059.1060
 0887                               1059.0961
 0978                               1110.1270
 0126                               1050.0579
 0125                               1050.0577
 0227                               1060.0480
 0253                               1053.0936
 0254                               1053.0990
 0263                               1053.3083
 0133                               1010.0000
 0111                               1010.0000
 0119                               1009.9999
 0334                               1015.9756
 0215                               1011.4128
 0035                               1019.8635
 0116                               1042.2445
 0162                               1050.6234
 0226                               1060.0250
 0145                               1050.7286
 0158                               1050.6339
 0159                               1050.6340
 0193                               1015.8637
 0232                               1019.1293
 0072                               1040.0000
 1054                               1098.4348
 1056                               1092.9928
 1055                               1097.3552
 0086                               1040.0000
 0077                               1034.4299
 0083                               1040.0000
 0094                               1046.0552
 0090                               1040.0045
 0081                               1034.1866
 0078                               1034.2314
 0075                               1033.1067
 0074                               1031.2886
 0063                               1030.0668
 0059                               1030.2249
 0312                               1062.3414
 0313                               1062.3442
 0318                               1062.4294
 0329                               1030.0033
 0239                               1020.1751
 0057                               1030.5046
 0061                               1010.9157
 0062                               1010.7959
 0054                               1031.3649
 0049                               1032.2501
 0852                               1078.3727
 0851                               1078.3730
 0848                               1076.6621
 0046                               1032.9469
 0893                               1059.5667
 0898                               1056.9088
 0041                               1032.6321
 0911                               1108.4651
 0921                               1106.8805
 0036                               1032.0522
 0037                               1031.9152
 0027                               1031.8148
 0022                               1031.5309
 0020                               1030.7892
 0015                               1029.4169
 0013                               1026.7375
 0009                               1023.9127
 0104                               1031.1315
 0105                               1031.1396
 0106                               1031.2938
 0002                               1022.0911
 0974                               1120.2367
 0965                               1120.7375
 0001                               1021.9140
 0006                               1022.9737
 0136                               1050.0706
 0129                               1050.0583
 0127                               1050.0582
 0003                               1020.1570
 0115                               1010.0000
 0117                               1010.0000
 0011                               1020.7859
 0008                               1022.8778
 0137                               1010.0000
 0118                               1010.0000
 0004                               1020.1283
 0909                               1122.1870
 0908                               1121.7694
 0005                               1020.1488
 0007                               1020.2025
 0010                               1020.2255
 0012                               1020.1819
 0724                               1080.1211
 0014                               1020.1826
 0017                               1021.8269
 0021                               1024.7288
 0025                               1028.4592
 0028                               1028.4590
 0031                               1027.6543
 0033                               1027.2307
 0354                               1068.3015
 0355                               1068.3948
 0034                               1026.1433
 0339                               1063.7076
 0338                               1063.1802
 0032                               1025.3546
 0144                               1050.0731
 0029                               1024.2107
 0122                               1050.0564
 0123                               1050.0568
 0026                               1021.6262
 0155                               1010.0000
 0156                               1010.0000
 0157                               1010.0000
 0039                               1024.6646
 0087                               1040.0000
 0088                               1040.0000
 0038                               1016.3232
 0045                               1016.6442
 0048                               1016.7234
 0051                               1013.9042
 0052                               1015.4909
 0050                               1016.7460
 0047                               1010.0000
 0040                               1010.0000
 0030                               1010.0000
 0023                               1010.0000
 0826                               1090.0770
 0019                               1010.0000
 0018                               1010.0000
 0016                               1010.0000
 0024                               1010.0000
 0042                               1010.0000
 0043                               1010.0000
 0044                               1010.0000
 1006                               1110.2704
 0997                               1109.9849
 0730                               1082.7852
 0053                               1010.0000
 0055                               1010.0000
 0056                               1010.0000
 0058                               1010.0000
 0060                               1010.0000
 0069                               1010.0000
 0066                               1010.0000
 0085                               1039.9552
 1061                               1104.6652
 1038                               1108.8108
 1037                               1108.8092
 0082                               1018.1942
 0080                               1017.1063
 0076                               1016.0548
 0084                               1019.2836
 0093                               1038.3605
 0073                               1015.0765
 0071                               1010.2397
 0810                               1078.8909
 0811                               1078.8954
 0839                               1084.0507
 0840                               1084.0511
 0070                               1013.7961
 0064                               1011.2635
 0068                               1012.3054
 0065                               1010.0000
 0067                               1010.0000
 0135                               1050.0679
 0140                               1050.0688
 0138                               1050.0695
 0174                               1050.0229
 0148                               1050.0664
 1609264                            1010.0364
 1609263                            1010.0263
 1609262                            1010.0212
 1609261                            1010.0069
 1609259                            1010.0000
 1609258                            1010.0000
 1609256                            1010.0000
 1609255                            1010.5142
 1609253                            1011.8334
 1609252                            1012.5840
 1609251                            1012.9576
 1609250                            1012.2492
 1609249                            1013.0453
 1609247                            1013.2172
 1609246                            1013.1697
 1609244                            1013.6334
 1609243                            1010.0504
 1609223                            1010.9982
 1609222                            1012.4255
 1609221                            1013.1077
 1609220                            1013.2075
 1609219                            1013.7690
 1609218                            1012.7190
 1609217                            1012.5411
 1609216                            1013.1241
 1609215                            1011.6893
 1609204                            1010.0000
 1609203                            1010.0000
 1609202                            1010.0000
 1609122                            1027.0770
 1609121                            1026.6853
 1609120                            1023.2923
 1609119                            1024.4200
 1609118                            1025.1134
 1609117                            1023.3716
 1609115                            1023.8264
 1609110                            1010.0000
 1609108                            1010.3386
 1609107                            1014.0165
 1609106                            1016.0101
 1609105                            1017.3065
 1609104                            1021.3363
 1609103                            1019.0322
 1609078                            1016.0512
 1608983                            1010.0000
 1608981                            1010.0000
 1608976                            1010.0000
 1608975                            1010.0000
 1608952_n2a_2                      1012.7153
 1608952_n2a_1                      1012.7154
 1608951                            1012.7343
 1608934                            1016.4779
 1608916                            1020.0332
 1608879                            1010.0000
 1608878                            1010.0000
 1608877                            1010.0000
 1608873                            1010.0000
 1608872                            1010.0000
 1608871                            1010.0000
 1608870                            1010.0000
 1608868                            1010.0556
 1608867                            1010.1758
 1608866                            1012.0598
 1608865                            1013.8152
 1608861                            1024.7598
 1608844                            1013.9336
 1608421                            1013.3127
 1607061                            1012.7473
 1607056                            1012.8535
 1607041                            1010.0000
 1607019                            1010.0000
 1607018                            1010.0000
 1607016                            1010.0000
 0884                               1058.9813
 0883                               1057.9237
 1606627_n2a_2                      1016.6190
 1606627_n2a_1                      1016.6245
 1606626                            1016.7395
 1606625                            1020.9095
 1606624                            1020.0045
 1606623                            1022.2036
 1606182                            1013.3910
 1606181                            1013.7554
 1606176                            1025.8873
 1606175                            1025.0519
 1606174                            1025.4496
 1606173                            1024.4698
 1606172                            1021.0089
 1606171                            1021.1138
 1606170                            1010.0000
 1606166                            1016.7872
 1606165                            1014.5244
 1606162                            1011.9138
 1606161                            1010.0000
 1606160                            1010.0178
 1606159                            1019.1534
 1606158                            1019.4415
 1606157                            1018.7110
 1606156                            1021.0245
 1606155                            1023.3047
 1606143                            1012.6665
 1606142                            1010.1203
 1606141                            1016.1864
 1606139                            1014.7631
 1606138                            1014.8976
 1606137                            1011.6467
 1606131                            1014.5223
 1606130                            1010.0000
 1606128                            1010.0000
 1606127                            1010.0000
 1606126                            1010.0000
 1606114_n2a_2                      1011.3840
 1606114_n2a_1                      1011.3845
 1606112                            1010.5595
 1606111                            1010.0000
 1606110                            1010.0000
 1604966                            1010.9621
 1604964                            1010.1588
 1604963                            1010.0000
 1600597                            1010.0796
 J-5                                1011.1232
 J-6                                1010.5293
 J-7                                1010.5830
 J-8                                1010.7834
 J-9                                1028.2104
 J-10                               1032.3472
 J-11                               1040.0000
 J-12                               1045.5280
 J-13                               1052.5206
 J-14                               1057.4794
 J-15                               1082.3395
 J-16                               1084.8245
 J-17                               1084.6948
 J-18                               1083.2363
 J-19                               1078.9614
 J-20                               1079.2053
 J-21                               1082.0067
 0679                               1082.9397
 0675                               1083.2065
 0643                               1086.5450
 0550                               1080.0482
 0223                               1058.6918
 0301                               1060.6550
 0287                               1026.7611
 0331                               1015.4669
 0178                               1052.4110
 0249                               1056.0302
 0252                               1056.3059
 0298                               1057.2539
 0305                               1052.4773
 0240                               1030.9858
 0244                               1035.2308
 0222                               1040.0000
 0201                               1029.5265
 0163                               1010.0000
 0264                               1026.4146
 0213                               1023.5531
 0241                               1024.4644
 0207                               1019.0718
 0217                               1011.5031
 0216                               1010.5059
 0204                               1010.0000
 0187                               1010.0000
 0236                               1019.8414
 0184                               1010.4885
 0242                               1060.0297
 0246                               1060.0269
 0910                               1105.9973
 0843                               1077.1062
 0560                               1058.5145
 0596                               1055.4735
 0544                               1040.0000
 0503                               1038.9235
 0533                               1039.3374
 0487                               1025.1876
 0445                               1013.4025
 0413                               1005.7113
 0367                                977.6812
 0397                               1000.0000
 0466                               1015.6641
 0436                               1010.7069
 0673                               1078.3025
 0674                               1078.3046
 0598                               1055.4243
 0594                               1055.4401
 0405                               1000.1268
 0396                               1000.0000
 0200                                955.5185
 0342                                978.9102
 0574                               1050.5984
 0394                                998.7765
 0097                               1022.7354
 0098                               1023.4210
 0096                               1023.5947
 0113                               1010.0000
 0169                               1015.3988
 0132                               1022.6393
 0180                               1050.0139
 0308                               1062.1023
 0935                               1102.9218
 0716                               1104.4442
 1004                               1110.9589
 1005                               1110.9584
 0865                               1086.0922
 1035                               1108.7711
 0953                               1100.7563
 0937                               1123.1898
 0625                               1085.0006
 0188                               1028.2765
 0102                               1030.9833
 0408                               1000.0000
 0801                               1069.9423
 0798                               1075.1526
 0789                               1085.1373
 0783                               1079.9564
 0768                               1079.9279
 0764                               1074.2927
 0758                               1075.5819
 0803                               1073.2816
 0759                               1092.9429
 0746                               1092.8751
 0738                               1088.7078
 0748                               1099.7959
 0741                               1100.3701
 0712                               1083.4412
 0729                               1101.7271
 0723                               1102.3380
 0709                               1100.5031
 0703                               1095.4105
 0699                               1105.2415
 0682                               1092.7617
 0684                               1097.8611
 0687                               1102.4740
 0678                               1103.6670
 0667                               1103.1140
 0650                               1096.2822
 0653                               1101.9731
 0567                               1085.3292
 0580                               1088.9259
 0591                               1092.3835
 0610                               1095.7886
 0579                               1095.9615
 0538                               1092.6516
 0608                               1057.8933
 0642                               1084.5012
 0638                               1081.3899
 0332                               1055.6874
 0079                               1034.6262
 0576                               1050.3773
 0626                               1084.2107
 1065                               1076.1600
 0720                               1104.1658
 0376                                  0.0000
 0296                               1054.2168
 0297                               1054.2250
 HID.PROJ-01                        1073.6459
 HID.PROJ-10                        1085.0286
 HID.PROJ-02                        1108.7163
 HID.PROJ-03                        1101.1044
 HID.PROJ-06                        1074.4846
 HID.PROJ-08                        1105.9570
 HID.PROJ-09                        1096.3783
 HID.EXIST-01                       1074.2756
 HID.EXIST-10                       1081.3940
 HID.EXIST-11                       1097.9229
 HID.EXIST-12                       1102.4836
 HID.EXIST-13                       1103.6633
 HID.EXIST-14                       1101.8418
 HID.EXIST-15                       1096.0756
 HID.EXIST-16                       1095.8270
 HID.EXIST-17                       1092.4161
 HID.EXIST-18                       1103.1554
 HID.EXIST-19                       1099.7843
 HID.EXIST-02                       1078.5370
 HID.EXIST-20                       1100.3567
 HID.EXIST-21                       1101.6903
 HID.EXIST-22                       1102.3202
 HID.EXIST-23                       1093.0023
 HID.EXIST-24                       1087.9012
 HID.EXIST-25                       1092.5739
 HID.EXIST-26                       1100.4426
 HID.EXIST-27                       1095.4048
 HID.EXIST-28                       1083.5814
 HID.EXIST-29                       1105.2515
 HID.EXIST-03                       1079.9036
 HID.EXIST-30                       1079.9512
 HID.EXIST-31                       1085.1387
 HID.EXIST-32                       1070.1276
 HID.EXIST-33                       1075.3945
 HID.EXIST-34                       1057.8225
 HID.EXIST-35                       1084.9492
 HID.EXIST-36                       1088.9597
 HID.EXIST-04                       1034.6235
 HID.EXIST-05                       1055.6735
 HID.EXIST-06                       1092.6097
 HID.EXIST-07                       1096.2401
 HID.EXIST-08                       1092.5452
 HID.EXIST-09                       1084.3334
 2577-A                             1088.0293
 2577-B                             1088.0293
 2580-A                             1112.1606
 2580-B                             1112.1606
 2613-A                             1100.3944
 2613-B                             1100.3944
 5538-A                             1078.3029
 5538-B                             1078.3029
 5547-A                             1052.7766
 5547-B                             1052.7766
 5554-A                             1083.5222
 5554-B                             1083.5222
 5872-A                             1055.3986
 5872-B                             1055.3986
 5932-A                             1000.1796
 5932-B                             1000.1796
 5949-A                             1024.5313
 5949-B                             1024.5313
 5956-A                              982.7378
 5956-B                              982.7378
 5966-A                             1087.2662
 5966-B                             1087.2662
 6011-A                             1040.0000
 6011-B                             1040.0000
 6105-A                             1050.0691
 6105-B                             1050.0691
 6121-A                             1010.0000
 6121-B                             1010.0000
 6157-A                             1094.1565
 6157-B                             1094.1565
 6551-A                             1069.3348
 6551-B                             1069.3348
 6552-A                             1054.2209
 6552-B                             1054.2209
 2                                  1010.0000
 3                                  1010.0000
 4                                     0.0000
 5                                  1027.2804
 6                                  1027.2804
 7                                  1005.7100
 8                                  1112.1600

[RESERVOIRS]
 RAP.LSL.002                        1149.0000                                
 ENTRADA                            1127.9000  ADT_LSL                       

[TANKS]

[PIPES]
 VRP.NOVA.012-A                  0779                            2577-A                                0.3048     160.0000     140.0000       0.0000       
 VRP.NOVA.012-B                  2577-B                          0778                                  0.3048     160.0000     140.0000       0.0000       
 VRP.LSL.013-A                   0993                            2580-A                                0.0492     500.0000      90.0000       0.0000       
 VRP.LSL.013-B                   2580-B                          0992                                  0.5000     500.0000      90.0000       0.0000       
 VRP.MSL.003-A                   0377                            0376                                  0.3048      60.0000     135.0000       0.0000       
 VRP.MSL.003-B                   0376                            0375                                  0.3048      60.0000     135.0000       0.0000       
 1616884(1)                      0664                            0663                                  8.1087     110.0000     140.0000       0.0000       
 VRP.MSL.001-A                   0603                            0602                                  0.3048     200.0000     135.0000       0.0000       
 VRP.NOVA.010-A                  0967                            2613-A                                0.0492     150.0000     135.0000       0.0000       
 VRP.NOVA.010-B                  2613-B                          0966                                  0.0492     150.0000     135.0000       0.0000       
 VRP.VLA.002-A                   0297                            6552-A                                1.0543     100.0000      90.0000       0.0000       
 VRP.VLA.002-B                   6552-B                          0296                                  1.0457     100.0000      90.0000       0.0000       
 1615234                         0312                            0308                                  8.2121     100.0000     135.0000       0.0000       
 1614700                         0021                            0025                                 34.9995      85.0000     140.0000       0.0000       
 1615625                         0607                            0606                                  2.0580     200.0000     135.0000       0.0000       
 1615035                         0871                            0870                                  1.4000      85.0000     135.0000       0.0000       
 1614656                         0043                            0044                                 61.9400      85.0000     140.0000       0.0000       
 1615277                         1016                            1018                                128.6088     500.0000      90.0000       0.0000       
 1615540                         0881                            0922                                268.6304     110.0000     135.0000       0.0000       
 1614495                         1609105                         1609103                              45.0000     160.0000     140.0000       0.0000       
 1614537                         1608871                         1609203                              81.0170     160.0000     140.0000       0.0000       
 1615727                         0461                            0458                                  2.9450     110.0000     135.0000       0.0000       
 1616594                         0500                            0512                                177.0027      63.0000     140.0000       0.0000       
 1612584                         1606159                         1606157                              33.8430     160.0000     140.0000       0.0000       
 1616583                         0645                            0659                                176.4324      63.0000     140.0000       0.0000       
 1616555                         0545                            0581                                370.5370      63.0000     140.0000       0.0000       
 1615642                         0603                            0607                                 35.5540     200.0000     135.0000       0.0000       
 1615053                         0907                            0905                                  3.0512     100.0000      90.0000       0.0000       
 1616264                         0944                            0990                                225.3256      75.0000      90.0000       0.0000       
 1616262                         0956                            0955                                  2.1198     100.0000      90.0000       0.0000       
 1614746                         0318                            0313                                  2.9300     100.0000     135.0000       0.0000       
 1616610                         0511                            0552                                187.5643      63.0000     140.0000       0.0000       
 1614810                         0982                            0979                                  7.5030     150.0000     135.0000       0.0000       
 1616876                         0724                            0719                                 50.5820      90.0000     140.0000       0.0000       
 1614836                         0831                            0828                                  7.7912      75.0000      90.0000       0.0000       
 1612588                         1606166                         1606165                              60.0050     160.0000     140.0000       0.0000       
 1609547_n2a                     0851                            0852                                  0.1030      60.0000     135.0000       0.0000       
 1616615                         0785                            0770                                369.7440      63.0000     140.0000       0.0000       
 1615275                         1013                            1016                                 21.3889     500.0000      90.0000       0.0000       
 1615605                         0546                            0508                                201.0410     110.0000     135.0000       0.0000       
 1612571                         1606131                         1606137                              88.3840     160.0000     140.0000       0.0000       
 1616963                         0211                            0215                                  6.1572      85.0000     135.0000       0.0000       
 1615744                         0559                            0586                                 53.1050     110.0000     135.0000       0.0000       
 1616600                         0432                            0423                                200.9241      63.0000     140.0000       0.0000       
 1614944                         0810                            0809                                  3.2491      75.0000      90.0000       0.0000       
 1614565                         1609250                         1609249                              55.0000     160.0000     140.0000       0.0000       
 1610441_n2a                     0219                            0220                                  0.0949     100.0000      90.0000       0.0000       
 1616574                         0499                            0494                                 19.9789      90.0000     140.0000       0.0000       
 1616387                         0930                            0929                                 10.6982     110.0000     135.0000       0.0000       
 1616971                         0114                            0108                                132.7258      60.0000     135.0000       0.0000       
 1614540                         1609218                         1609216                              59.8270     160.0000     140.0000       0.0000       
 1615101                         0841                            0838                                  3.6393     100.0000      90.0000       0.0000       
 1614634                         0093                            0084                                248.8686      85.0000     135.0000       0.0000       
 1616935                         0209                            0191                                109.6943     100.0000      90.0000       0.0000       
 1615355                         0836                            0834                                 28.2389      60.0000     135.0000       0.0000       
 1611120_n2a                     0516                            0515                                  0.1000      60.0000     135.0000       0.0000       
 1616596                         0492                            0490                                 11.2994      90.0000     140.0000       0.0000       
 1616577                         0651                            0627                                251.0205     110.0000     140.0000       0.0000       
 1614671                         0030                            0023                                 31.0000      85.0000     140.0000       0.0000       
 1615760                         0571                            0569                                  3.3780      60.0000     135.0000       0.0000       
 1614726                         0106                            0105                                  1.9428      60.0000     135.0000       0.0000       
 1615634                         0619                            0621                                 40.1980     200.0000     135.0000       0.0000       
 1615288                         0852                            0862                                176.1217      60.0000     135.0000       0.0000       
 1610288_n2a                     0838                            0837                                  0.1030     100.0000      90.0000       0.0000       
 1616629                         0781                            0776                                 39.5900     280.0000     140.0000       0.0000       
 1614680                         0045                            0048                                 14.0966      85.0000     140.0000       0.0000       
 1614910                         0915                            0907                                245.3425     150.0000      90.0000       0.0000       
 1614473                         1606625                         1606623                              63.7690     160.0000     140.0000       0.0000       
 1616673                         0713                            0714                                 11.9830      63.0000     140.0000       0.0000       
 1615019                         0806                            0814                                358.5001     400.0000      90.0000       0.0000       
 1616581                         0659                            0645                                177.4212      63.0000     140.0000       0.0000       
 1614682                         0088                            0087                                  3.2256      60.0000     135.0000       0.0000       
 1616960                         0237                            0233                                  7.1063     100.0000      90.0000       0.0000       
 1614759                         0083                            0077                                 79.7816     100.0000     135.0000       0.0000       
 1616611                         0552                            0622                                231.1748      63.0000     140.0000       0.0000       
 1615209                         0797                            0808                                413.5118     100.0000      90.0000       0.0000       
 1609452_n2a                     0157                            0156                                  0.1044     100.0000      90.0000       0.0000       
 1616657                         0727                            0737                                181.7510      63.0000     140.0000       0.0000       
 1615093                         0827                            0824                                227.6558      60.0000     135.0000       0.0000       
 1616696                         0772                            0774                                 15.1600     280.0000     140.0000       0.0000       
 1615491                         0947                            0949                                 79.2920     110.0000     135.0000       0.0000       
 1614807                         0984                            8                                     4.0663     250.0000      90.0000       0.0000       
 1614695                         0031                            0033                                 10.0316      85.0000     140.0000       0.0000       
 1614937                         0899                            0898                                  4.5579      50.0000      90.0000       0.0000       
 1615613                         0568                            0549                                 88.6420      60.0000     135.0000       0.0000       
 1615472                         0238                            0239                                  8.2665      85.0000     135.0000       0.0000       
 1616956                         0177                            0170                                 23.4743      60.0000     135.0000       0.0000       
 1614704                         0730                            0724                                121.2310      90.0000     140.0000       0.0000       
 1616626                         0800                            0795                                134.3110      63.0000     140.0000       0.0000       
 1614819                         1017                            1021                                 88.9999     110.0000     135.0000       0.0000       
 1614364                         1606127                         1608879                              55.7440     160.0000     140.0000       0.0000       
 1612563                         1606112                         1606110                              94.9440     160.0000     140.0000       0.0000       
 1614877                         1058                            1062                                  9.6075      50.0000      90.0000       0.0000       
 1616993                         0774                            0776                                 14.8570     280.0000     140.0000       0.0000       
 1616630                         0782                            0781                                109.5290     280.0000     140.0000       0.0000       
 1615088                         1039                            1040                                 29.6254      60.0000     135.0000       0.0000       
 1616385                         0886                            0895                                 10.1233     400.0000      90.0000       0.0000       
 1610300_n2a                     0958                            0957                                  0.1030     150.0000      90.0000       0.0000       
 1614724                         0965                            0974                                123.7766     160.0000     135.0000       0.0000       
 1615710                         0478                            0472                                 50.5820      60.0000     135.0000       0.0000       
 1616662                         0718                            0705                                200.3480      63.0000     140.0000       0.0000       
 1615635                         0439                            0429                                100.4680     110.0000     135.0000       0.0000       
 1615530                         0265                            0260                                 10.0386     100.0000      90.0000       0.0000       
 1616646                         0780                            0785                                191.4920      63.0000     140.0000       0.0000       
 1614721                         0006                            0008                                 14.9960      85.0000     140.0000       0.0000       
 1615523                         0850                            0853                                110.4326      85.0000     135.0000       0.0000       
 1614954                         0221                            0210                                 84.2786     100.0000      90.0000       0.0000       
 1614916                         0911                            0882                                338.5797     100.0000      90.0000       0.0000       
 1615633                         0568                            0524                                209.3220      60.0000     135.0000       0.0000       
 1614821                         1009                            1017                                112.8625     110.0000     135.0000       0.0000       
 1614636                         0080                            0076                                 15.0313      85.0000     140.0000       0.0000       
 1615669                         0333                            0196                                179.0000      60.0000     135.0000       0.0000       
 1615670                         0365                            0347                                126.8000      60.0000     135.0000       0.0000       
 1616628                         0776                            0771                                101.3070     250.0000     140.0000       0.0000       
 1615618                         0525                            0609                                343.9500     200.0000     135.0000       0.0000       
 1616686                         0743                            0756                                214.6570      63.0000     140.0000       0.0000       
 1616962                         0192                            0199                                  4.9062      85.0000     135.0000       0.0000       
 1616931                         0276                            0279                                  2.4547     100.0000      90.0000       0.0000       
 1614502                         1609117                         1609115                              50.0000     160.0000     140.0000       0.0000       
 1614538                         1609204                         1609215                             100.0000     160.0000     140.0000       0.0000       
 1616716                         0728                            0726                                 14.8100      63.0000     140.0000       0.0000       
 1616679                         0751                            0754                                 52.8880      63.0000     140.0000       0.0000       
 1614813                         0844                            0850                                 83.2175      85.0000     135.0000       0.0000       
 1614932                         0946                            0945                                 17.8012     100.0000      90.0000       0.0000       
 1612564                         1606114_n2a_2                   1606112                              59.2790     160.0000     140.0000       0.0000       
 1615519                         0866                            0854                                237.8782      85.0000     135.0000       0.0000       
 1614764                         0087                            0086                                 21.0013      60.0000     135.0000       0.0000       
 1614720                         0129                            0136                                 26.0524      85.0000     135.0000       0.0000       
 1615578                         0173                            0219                                 97.1971     100.0000      90.0000       0.0000       
 1614725                         0002                            0001                                 32.5258      85.0000     140.0000       0.0000       
 1615550                         0328                            0238                                 93.4944      85.0000     135.0000       0.0000       
 1614883                         1021                            1020                                 16.4958     110.0000     135.0000       0.0000       
 1615690                         0457                            0452                                 97.2100     110.0000     135.0000       0.0000       
 1614825                         0969                            0991                                116.9316     110.0000     135.0000       0.0000       
 1614777                         0263                            0254                                  3.8351      50.0000      90.0000       0.0000       
 1615705                         0498                            0496                                 17.3960     250.0000     135.0000       0.0000       
 1615587                         0479                            0491                                 91.0000      60.0000     135.0000       0.0000       
 1614754                         0078                            0081                                  7.6825      85.0000     135.0000       0.0000       
 1616561                         0637                            0665                                288.8862      63.0000     140.0000       0.0000       
 1614685                         0026                            0039                                 34.0021      85.0000     140.0000       0.0000       
 1614641                         0085                            0093                                 63.4915      85.0000     135.0000       0.0000       
 1615091                         0929                            0917                                192.4425     150.0000      90.0000       0.0000       
 1614506                         1609104                         1609120                             100.0000     160.0000     140.0000       0.0000       
 1616573                         0542                            0592                                127.3406      63.0000     140.0000       0.0000       
 1616661                         0705                            0707                                 51.7030      90.0000     140.0000       0.0000       
 1615117                         0837                            0833                                 55.1706     100.0000      90.0000       0.0000       
 1612589                         1606161                         1606170                              85.9990     160.0000     140.0000       0.0000       
 1614912                         0916                            0915                                  4.3113     150.0000      90.0000       0.0000       
 1606114_n2a                     1606114_n2a_1                   1606114_n2a_2                         0.1000     160.0000     140.0000       0.0000       
 1612591                         1606173                         1606155                              50.0000     160.0000     140.0000       0.0000       
 1609687_n2a                     0161                            0160                                  0.1000      75.0000      90.0000       0.0000       
 1616928                         0362                            0360                                  4.5068      90.0000     140.0000       0.0000       
 1614666                         0019                            0018                                  8.9968      85.0000     140.0000       0.0000       
 1615260                         1061                            1065                                994.8038      90.0000     140.0000       0.0000       
 1615622                         0585                            0588                                 30.1090     200.0000     135.0000       0.0000       
 1612592                         1606174                         1606173                              50.0000     160.0000     140.0000       0.0000       
 1615130                         0995                            0998                                 14.6169     250.0000      90.0000       0.0000       
 1610639_n2a                     0262                            0261                                  0.0949     100.0000      90.0000       0.0000       
 1614479                         1604966                         1608421                              40.7190     160.0000     140.0000       0.0000       
 1616707                         0701                            0690                                352.8450     250.0000     135.0000       0.0000       
 1612590                         1606171                         1606172                             100.0000     160.0000     140.0000       0.0000       
 1614688                         0144                            0148                                 10.9040      60.0000     135.0000       0.0000       
 1614882                         0938                            0918                                561.6501     100.0000      90.0000       0.0000       
 1614534                         1608976                         1609202                              60.0000     160.0000     140.0000       0.0000       
 1616532                         0616                            0640                                300.2510      63.0000     140.0000       0.0000       
 1616672                         0710                            0725                                173.6360      63.0000     140.0000       0.0000       
 1614757                         0094                            0090                                 98.4893     100.0000     135.0000       0.0000       
 1615631                         0530                            0517                                 91.8240      60.0000     135.0000       0.0000       
 1614727                         0009                            0002                                 30.5894      85.0000     140.0000       0.0000       
 1615597                         0438                            0479                                197.7010      60.0000     135.0000       0.0000       
 1614787                         0227                            0126                                289.7769     100.0000     135.0000       0.0000       
 1616621                         0771                            0766                                155.4010     250.0000     140.0000       0.0000       
 1614867                         1028                            1033                                129.1367      50.0000      90.0000       0.0000       
 1616567                         0542                            0547                                132.8877      63.0000     140.0000       0.0000       
 1615357                         0836                            0847                                110.0036      60.0000     135.0000       0.0000       
 1614823                         0991                            1000                                 48.3673     110.0000     135.0000       0.0000       
 1609812_n2a                     0832                            0831                                  0.1030      75.0000      90.0000       0.0000       
 1616381                         0968                            0967                                  6.4009     150.0000     135.0000       0.0000       
 1615720                         0403                            0406                                  6.0800      60.0000     135.0000       0.0000       
 1615346                         0273                            0257                                  6.2170     100.0000      90.0000       0.0000       
 1615107                         0826                            0830                                189.2935      85.0000     135.0000       0.0000       
 1614545                         1609217                         1609221                             100.0000     160.0000     140.0000       0.0000       
 1616693                         0740                            0749                                207.3350      63.0000     140.0000       0.0000       
 1611123_n2a                     0480                            0478                                  0.1000      60.0000     135.0000       0.0000       
 1615251                         1050                            1049                                  4.5529     500.0000      90.0000       0.0000       
 1610259_n2a                     0182                            0183                                  0.1044      85.0000     135.0000       0.0000       
 1611188_n2a                     0447                            0450                                  0.1000     110.0000     135.0000       0.0000       
 1616624                         0792                            0786                                306.2790     160.0000     140.0000       0.0000       
 1616592                         0584                            0565                                179.4016      63.0000     140.0000       0.0000       
 1615761                         0561                            0537                                195.9960      60.0000     135.0000       0.0000       
 1614775                         0133                            0119                                106.2118      85.0000     135.0000       0.0000       
 1616685                         0769                            0760                                206.9970      63.0000     140.0000       0.0000       
 1615665                         0205                            0340                                276.0000      60.0000     135.0000       0.0000       
 1614691                         0034                            0032                                 15.0829      85.0000     140.0000       0.0000       
 1609718_n2a                     0165                            0164                                  0.1020      60.0000     135.0000       0.0000       
 1614501                         1609115                         1608861                              61.0290     160.0000     140.0000       0.0000       
 1615623                         0554                            0558                                  3.4090     110.0000     135.0000       0.0000       
 1615298                         0864                            0908                                353.8798      85.0000     135.0000       0.0000       
 1615314                         0577                            0654                                655.7480     150.0000     135.0000       0.0000       
 1616384                         0925                            0929                                 20.1478     100.0000      90.0000       0.0000       
 1615516                         0866                            0872                                153.9072      85.0000     135.0000       0.0000       
 1614550                         1609222                         1609223                             100.0260     160.0000     140.0000       0.0000       
 1613059                         1607056                         1607061                              62.0000     160.0000     140.0000       0.0000       
 1616612                         0623                            0557                                230.4689      63.0000     140.0000       0.0000       
 1614363                         1608879                         1608878                              14.3300     160.0000     140.0000       0.0000       
 1615611                         0523                            0524                                  3.9610      60.0000     135.0000       0.0000       
 1614837                         0885                            0887                                  0.9646     150.0000      90.0000       0.0000       
 1614580                         1609243                         1609264                              70.0000     160.0000     140.0000       0.0000       
 1616704                         0670                            0657                                144.5100     150.0000     135.0000       0.0000       
 1615327                         0823                            0816                                131.0226     400.0000      90.0000       0.0000       
 1614714                         0004                            0005                                  9.5154      85.0000     140.0000       0.0000       
 1614820                         0818                            0820                                 58.9174      85.0000     135.0000       0.0000       
 1616598                         0475                            0477                                  8.4246      63.0000     140.0000       0.0000       
 1615647                         0418                            0401                                145.0930      60.0000     135.0000       0.0000       
 1615256                         0166                            0165                                 41.7315      60.0000     135.0000       0.0000       
 1614541                         1609215                         1609218                              90.0000     160.0000     140.0000       0.0000       
 1615430                         0115                            0112                                 76.4218      85.0000     135.0000       0.0000       
 1615594                         0457                            0459                                  6.1930      60.0000     135.0000       0.0000       
 1615376                         1027                            1028                                  3.9594      50.0000      90.0000       0.0000       
 1614443                         1606170                         1608983                               3.4610     160.0000     140.0000       0.0000       
 1614753                         0078                            0075                                 12.9976      85.0000     135.0000       0.0000       
 1614677                         0050                            0052                                 15.3900      85.0000     140.0000       0.0000       
 1615628                         0621                            0634                                582.0700     200.0000     135.0000       0.0000       
 1614504                         1609119                         1609118                              32.6550     160.0000     140.0000       0.0000       
 1611076_n2a                     0572                            0571                                  0.1000      60.0000     135.0000       0.0000       
 1612570                         1606128                         MEDIDOR.004                          37.2590     160.0000     140.0000       0.0000       
 1616681                         0754                            0761                                203.0360      63.0000     140.0000       0.0000       
 1616677                         0697                            0706                                230.4230      63.0000     140.0000       0.0000       
 1614563                         1609247                         1609246                              65.0000     160.0000     140.0000       0.0000       
 1616665                         0763                            0767                                128.0750      63.0000     140.0000       0.0000       
 1609952_n2a                     0856                            0855                                  0.1000      50.0000      90.0000       0.0000       
 1616644                         0784                            0786                                 79.5510      90.0000     140.0000       0.0000       
 1612585                         1606160                         1606161                              40.0000     160.0000     140.0000       0.0000       
 1614684                         0156                            0155                                  4.3494     100.0000      90.0000       0.0000       
 1614578                         1609263                         1609262                              32.4080     160.0000     140.0000       0.0000       
 1616683                         0769                            0753                                412.1780      63.0000     140.0000       0.0000       
 1614906                         0894                            0892                                  3.6046      75.0000      90.0000       0.0000       
 1616536                         0636                            0647                                372.6100      63.0000     140.0000       0.0000       
 1614898                         0162                            0161                                  3.3866      75.0000      90.0000       0.0000       
 1615387                         1022                            1029                                151.4242     110.0000     135.0000       0.0000       
 1616966                         0206                            0212                                 18.2778      85.0000     135.0000       0.0000       
 1615745                         0463                            0462                                  0.7760     110.0000     135.0000       0.0000       
 1615555                         0064                            0062                                  7.0020      85.0000     140.0000       0.0000       
 1610352_n2a                     0310                            0311                                  0.1005     100.0000      90.0000       0.0000       
 1610260_n2a                     0134                            0130                                 23.0210      60.0000     135.0000       0.0000       
 1614831                         1008                            1015                                 92.0206     110.0000     135.0000       0.0000       
 1614773                         0119                            0111                                 48.4699      85.0000     135.0000       0.0000       
 1614549                         1609223                         1608867                              60.0000     160.0000     140.0000       0.0000       
 1615199                         0809                            0812                                218.2835      90.0000      90.0000       0.0000       
 1615741                         0380                            0379                                  1.0890      60.0000     135.0000       0.0000       
 1614543                         1609220                         1609219                              25.4640     160.0000     140.0000       0.0000       
 1614728                         0013                            0009                                 29.8307      85.0000     140.0000       0.0000       
 1614560                         1608868                         1609243                              46.0000     160.0000     140.0000       0.0000       
 1616702                         0648                            0614                                350.6890     150.0000     135.0000       0.0000       
 1614715                         0118                            0137                                 49.2174      85.0000     135.0000       0.0000       
 1614719                         0004                            0003                                 18.5014      85.0000     140.0000       0.0000       
 1614475                         1609078                         1606624                             100.0000     160.0000     140.0000       0.0000       
 1611199_n2a                     0401                            0399                                  0.1000      60.0000     135.0000       0.0000       
 1614579                         1609264                         1609263                              40.0000     160.0000     140.0000       0.0000       
 1614355                         1608865                         1608866                              78.3410     160.0000     140.0000       0.0000       
 1616586                         0652                            0655                                177.0367      63.0000     140.0000       0.0000       
 1616606                         0557                            0564                                 65.8579      63.0000     140.0000       0.0000       
 1616930                         0361                            0362                                  6.8149      90.0000     140.0000       0.0000       
 1616608                         0511                            0622                                411.4440      63.0000     140.0000       0.0000       
 1615712                         0387                            0384                                 33.9670      60.0000     135.0000       0.0000       
 1615306                         0964                            0960                                  5.9908     150.0000      90.0000       0.0000       
 1616643                         0791                            0787                                206.1260      63.0000     140.0000       0.0000       
 1616656                         0705                            0718                                192.3690      63.0000     140.0000       0.0000       
 1616543                         0582                            0590                                 10.2840      63.0000     140.0000       0.0000       
 1610281_n2a                     0229                            0231                                  2.9585     150.0000     135.0000       0.0000       
 1614683                         0039                            0038                                 61.2702      85.0000     140.0000       0.0000       
 1615379                         1044                            1045                                  3.9559     150.0000      90.0000       0.0000       
 1615746                         0496                            0525                                169.0420     200.0000     135.0000       0.0000       
 1615389                         1015                            1022                                162.2610     110.0000     135.0000       0.0000       
 1615003                         1060                            1061                                  8.9171      50.0000      90.0000       0.0000       
 1609692_n2a                     0202                            0203                                  0.0949      60.0000     135.0000       0.0000       
 1612577                         1606143                         1606139                             100.0000     160.0000     140.0000       0.0000       
 1609970_n2a                     0862                            0863                                  0.1000      60.0000     135.0000       0.0000       
 1615759                         0548                            0546                                  5.2580      60.0000     135.0000       0.0000       
 1615676                         0537                            0502                                202.0000      60.0000     135.0000       0.0000       
 1614572                         1609259                         1609258                              18.7530     160.0000     140.0000       0.0000       
 1611117_n2a                     0392                            0393                                  0.1000      60.0000     135.0000       0.0000       
 1615521                         0186                            0211                                 48.5601      85.0000     135.0000       0.0000       
 1616723                         0732                            0715                                210.2830      63.0000     140.0000       0.0000       
 1614441                         1608983                         1608981                              24.0000     160.0000     140.0000       0.0000       
 1616658                         0721                            0727                                 75.6550      63.0000     140.0000       0.0000       
 1616671                         0710                            0725                                173.6360      63.0000     140.0000       0.0000       
 1615714                         0528                            0497                                191.6000      60.0000     135.0000       0.0000       
 1614647                         0058                            0060                                 20.0847      85.0000     140.0000       0.0000       
 1609874_n2a                     1043                            1042                                  0.1044     400.0000      90.0000       0.0000       
 1614650                         0053                            0055                                 29.9980      85.0000     140.0000       0.0000       
 1616992                         0802                            0805                                 42.2670     280.0000     140.0000       0.0000       
 1615806                         0339                            0227                                183.5156     110.0000     140.0000       0.0000       
 1615464                         1007                            1009                                 65.8505     110.0000     135.0000       0.0000       
 1614638                         0082                            0080                                 15.0059      85.0000     140.0000       0.0000       
 1609685_n2a                     0887                            0888                                  0.0949     150.0000      90.0000       0.0000       
 1614822                         0830                            0842                                 72.3456      85.0000     135.0000       0.0000       
 1616576                         0627                            0562                                250.6654     110.0000     140.0000       0.0000       
 1615360                         0961                            0959                                  3.9631     400.0000      90.0000       0.0000       
 1614739                         0046                            0041                                 29.6981      85.0000     140.0000       0.0000       
 1615660                         0506                            0440                                273.9070     110.0000     135.0000       0.0000       
 1615356                         0284                            0294                                 24.1428     100.0000      90.0000       0.0000       
 1614718                         0003                            0011                                 32.3689      85.0000     140.0000       0.0000       
 1615201                         0808                            0809                                 48.3654     100.0000      90.0000       0.0000       
 1614640                         0084                            0082                                 15.0206      85.0000     140.0000       0.0000       
 1615717                         0502                            0464                                207.1150      60.0000     135.0000       0.0000       
 1616588                         0630                            0628                                174.2292      63.0000     140.0000       0.0000       
 1614698                         0025                            0028                                 24.9903      85.0000     140.0000       0.0000       
 1616982                         0597                            0575                                 78.5530     160.0000     140.0000       0.0000       
 1616520                         0688                            0689                                  8.9320      63.0000     140.0000       0.0000       
 1616519                         0689                            0693                                218.6930      63.0000     140.0000       0.0000       
 1615588                         0415                            0426                                 79.3270     110.0000     135.0000       0.0000       
 1615788                         0861                            0860                                  1.7182      60.0000     135.0000       0.0000       
 1615557                         0351                            0338                                182.1491      75.0000      90.0000       0.0000       
 1611046_n2a                     0462                            0461                                  0.1000     110.0000     135.0000       0.0000       
 1616544                         0578                            0624                                221.1470      63.0000     140.0000       0.0000       
 1616609                         0518                            0623                                410.6968      63.0000     140.0000       0.0000       
 1614924                         0901                            0897                                  5.4918     100.0000      90.0000       0.0000       
 1611128_n2a                     0400                            0402                                  0.1000      60.0000     135.0000       0.0000       
 1615361                         1036                            1037                                  6.6165      50.0000      90.0000       0.0000       
 1610349_n2a                     0257                            0256                                  0.0949     100.0000      90.0000       0.0000       
 1610369_n2a                     1030                            1031                                  0.0985     500.0000      90.0000       0.0000       
 1616530                         0640                            0616                                299.0460      63.0000     140.0000       0.0000       
 1615095                         0834                            0827                                 93.8460      60.0000     135.0000       0.0000       
 1616631                         0778                            0777                                 14.7990     160.0000     140.0000       0.0000       
 1614840                         0918                            0912                                 64.7075     100.0000      90.0000       0.0000       
 1615348                         0282                            0319                                196.7336     100.0000      90.0000       0.0000       
 1615048                         0872                            0878                                 14.6540      85.0000     135.0000       0.0000       
 1615529                         0882                            0869                                199.4271      85.0000     135.0000       0.0000       
 1611112_n2a                     0434                            0438                                  0.1000     110.0000     135.0000       0.0000       
 1616732                         0683                            0691                                227.9170      63.0000     140.0000       0.0000       
 1615568                         0338                            0226                                162.7692     100.0000     135.0000       0.0000       
 1614419                         1608951                         1608952_n2a_1                        10.8020     160.0000     140.0000       0.0000       
 1616989                         1607041                         1607018                              62.6980     160.0000     140.0000       0.0000       
 1616700                         0583                            0539                                151.5490      63.0000     140.0000       0.0000       
 1614846                         0891                            0892                                  3.9673      75.0000      90.0000       0.0000       
 1616639                         0790                            0794                                241.6640      63.0000     140.0000       0.0000       
 1611111_n2a                     0555                            0556                                  0.1000      60.0000     135.0000       0.0000       
 1614678                         0051                            0047                                 30.6343      85.0000     140.0000       0.0000       
 1615505                         0270                            0280                                  4.2827     100.0000      90.0000       0.0000       
 1614833                         0817                            0818                                 17.1100      85.0000     135.0000       0.0000       
 1614751                         0074                            0063                                 70.4935      85.0000     140.0000       0.0000       
 1615405                         1056                            1057                                 49.0470      60.0000     135.0000       0.0000       
 1608952_n2a                     1608952_n2a_1                   1608952_n2a_2                         0.1000     160.0000     140.0000       0.0000       
 1614749                         0063                            0059                                 16.8080      85.0000     140.0000       0.0000       
 1614869                         0935                            0932                                 28.1563     100.0000      90.0000       0.0000       
 1610619_n2a                     0269                            0270                                  0.1005     100.0000      90.0000       0.0000       
 1616640                         0794                            0790                                241.6640      63.0000     140.0000       0.0000       
 1615757                         0586                            0600                                 22.8070      60.0000     135.0000       0.0000       
 1612569                         1606126                         1606127                              31.5100     160.0000     140.0000       0.0000       
 1614358                         1608870                         1608871                              50.0000     160.0000     140.0000       0.0000       
 1615210                         0797                            0821                                733.2080     110.0000     140.0000       0.0000       
 1614437                         1608975                         1608976                              90.0000     160.0000     140.0000       0.0000       
 1614745                         0239                            0329                                 91.8480      85.0000     135.0000       0.0000       
 1615517                         0303                            0304                                 77.4906     100.0000      90.0000       0.0000       
 1614864                         1044                            1043                                  5.4427     400.0000      90.0000       0.0000       
 1616619                         0756                            0750                                 86.1230     160.0000     140.0000       0.0000       
 1614692                         0355                            0354                                  2.5529     100.0000      90.0000       0.0000       
 1615342                         1018                            1023                                 77.4599     500.0000      90.0000       0.0000       
 1615645                         0414                            0410                                 54.0000      85.0000     135.0000       0.0000       
 1614494                         1609103                         1609104                              85.0000     160.0000     140.0000       0.0000       
 1614817                         0981                            0985                                  5.7021     250.0000      90.0000       0.0000       
 1615321                         0926                            0927                                  4.9104     400.0000      90.0000       0.0000       
 1615508                         0321                            0318                                 20.4005     150.0000     135.0000       0.0000       
 1612860                         1606624                         1606625                              50.0000     160.0000     140.0000       0.0000       
 1612576                         1606137                         1606126                              54.0000     160.0000     140.0000       0.0000       
 1615748                         0482                            0481                                  6.5500      60.0000     135.0000       0.0000       
 1614626                         0067                            0065                                 15.3968      85.0000     140.0000       0.0000       
 1609341_n2a                     0840                            0839                                  0.1000      75.0000      90.0000       0.0000       
 1615526                         0854                            0844                                266.9142      85.0000     135.0000       0.0000       
 1614762                         1055                            1056                                155.5379      60.0000     135.0000       0.0000       
 1610432_n2a                     0977                            0976                                  0.1000     400.0000      90.0000       0.0000       
 1610459_n2a                     0316                            0315                                  0.1000     100.0000      90.0000       0.0000       
 1610330_n2a                     0927                            0928                                  0.1030     400.0000      90.0000       0.0000       
 1614562                         1609246                         1609244                              90.0000     160.0000     140.0000       0.0000       
 1616659                         0714                            0721                                 55.9170      63.0000     140.0000       0.0000       
 1616729                         0696                            0700                                282.7880      63.0000     140.0000       0.0000       
 1616735                         0692                            0686                                219.8440      63.0000     140.0000       0.0000       
 1614818                         0993                            1013                                232.5651     500.0000      90.0000       0.0000       
 1615581                         0173                            0154                                216.0755      60.0000     135.0000       0.0000       
 1614863                         0974                            1011                                302.0749     160.0000     135.0000       0.0000       
 1616975                         0570                            0569                                  1.1140      60.0000     135.0000       0.0000       
 1614847                         0890                            0891                                  2.7866      75.0000      90.0000       0.0000       
 1614359                         1608872                         1608870                              35.0000     160.0000     140.0000       0.0000       
 1616653                         0751                            0731                                414.3320      90.0000     140.0000       0.0000       
 1615037                         0162                            0159                                  6.0019      75.0000      90.0000       0.0000       
 1616941                         0153                            0143                                102.3391      60.0000     135.0000       0.0000       
 1616539                         0611                            0613                                 11.3350      63.0000     140.0000       0.0000       
 1614832                         1006                            1008                                 19.6715     110.0000     135.0000       0.0000       
 1614812                         0994                            0982                                 60.2407     150.0000     135.0000       0.0000       
 1616664                         0762                            0763                                  8.0900      63.0000     140.0000       0.0000       
 1611049_n2a                     0346                            0345                                  0.1000      60.0000     135.0000       0.0000       
 1615287                         0976                            0961                                184.4411     400.0000      90.0000       0.0000       
 1616957                         0233                            0225                                 29.9232     100.0000      90.0000       0.0000       
 1616986                         0378                            0380                                  0.3320      60.0000     135.0000       0.0000       
 1615506                         0296                            0291                                  2.5148     100.0000      90.0000       0.0000       
 1614631                         0071                            0070                                 50.5019      85.0000     140.0000       0.0000       
 1615493                         0949                            0950                                  6.5001     110.0000     135.0000       0.0000       
 1616518                         0693                            0689                                218.6000      63.0000     140.0000       0.0000       
 1615341                         1023                            1024                                 47.4097     500.0000      90.0000       0.0000       
 1614926                         0902                            0859                                405.4419     100.0000      90.0000       0.0000       
 1615329                         0868                            0867                                  3.0158     400.0000      90.0000       0.0000       
 1616531                         0646                            0649                                 10.5070      63.0000     140.0000       0.0000       
 1614918                         0880                            0871                                120.0061      75.0000      90.0000       0.0000       
 1615636                         0598                            0601                                  3.2020     160.0000     140.0000       0.0000       
 1616676                         0706                            0707                                 12.9380      63.0000     140.0000       0.0000       
 1614933                         0876                            0875                                  4.8562     150.0000      90.0000       0.0000       
 1615678                         0517                            0516                                  3.3760      60.0000     135.0000       0.0000       
 1616667                         0722                            0721                                  6.6690      63.0000     140.0000       0.0000       
 1614703                         0014                            0017                                 34.9673      85.0000     140.0000       0.0000       
 1614662                         0016                            0024                                 98.1842      85.0000     140.0000       0.0000       
 1614508                         1609122                         1609121                              50.0000     160.0000     140.0000       0.0000       
 1615159                         0311                            0314                                  2.7251     100.0000      90.0000       0.0000       
 1615058                         0879                            0881                                 30.3362     110.0000     135.0000       0.0000       
 1615619                         0609                            0587                                 57.7660     200.0000     135.0000       0.0000       
 1614569                         1609255                         1609253                              80.0000     160.0000     140.0000       0.0000       
 1615668                         0450                            0541                                407.9640     110.0000     135.0000       0.0000       
 1614899                         1002                            0975                                145.9175      50.0000      90.0000       0.0000       
 1615664                         0523                            0456                                289.1020      60.0000     135.0000       0.0000       
 1614509                         1606176                         1609122                              80.0000     160.0000     140.0000       0.0000       
 1614507                         1609121                         1606174                              50.0000     160.0000     140.0000       0.0000       
 1614660                         0024                            0042                                 45.7708      85.0000     140.0000       0.0000       
 1615345                         1024                            1025                                  5.4420      50.0000      90.0000       0.0000       
 1609740_n2a                     0983                            0984                                  0.0943     250.0000      90.0000       0.0000       
 1616617                         0737                            0745                                189.0560      63.0000     140.0000       0.0000       
 1614500                         1606111                         1609110                              89.7990     160.0000     140.0000       0.0000       
 1614658                         0042                            0043                                 18.1625      85.0000     140.0000       0.0000       
 1609559_n2a                     0313                            0312                                  0.1000     100.0000     135.0000       0.0000       
 1614798                         0151                            0192                                126.2786      85.0000     135.0000       0.0000       
 1616663                         0718                            0719                                  2.2330      90.0000     140.0000       0.0000       
 1615267                         1046                            1048                                 18.6327     500.0000      90.0000       0.0000       
 1616533                         0666                            0649                                222.2360      63.0000     140.0000       0.0000       
 1614903                         0855                            0846                                207.9655      50.0000      90.0000       0.0000       
 1616703                         0657                            0648                                 89.3920     150.0000     135.0000       0.0000       
 1615337                         0260                            0269                                  3.7029     100.0000      90.0000       0.0000       
 1616711                         0744                            0734                                232.8210     160.0000     140.0000       0.0000       
 1609630_n2a                     0159                            0158                                  0.1063      75.0000      90.0000       0.0000       
 1615704                         0531                            0498                                124.4180     250.0000     135.0000       0.0000       
 1612587                         1606165                         1606162                              70.0000     160.0000     140.0000       0.0000       
 1614738                         0898                            0893                                 44.1107     150.0000      90.0000       0.0000       
 1614646                         0060                            0069                                 28.1561      85.0000     140.0000       0.0000       
 1616635                         0799                            0800                                 11.0350      63.0000     140.0000       0.0000       
 1616973                         0569                            0568                                  1.1280      60.0000     135.0000       0.0000       
 1614891                         0258                            0116                                418.0378      50.0000      90.0000       0.0000       
 1610650_n2a                     0284                            0283                                  0.0949     100.0000      90.0000       0.0000       
 1615685                         0371                            0372                                  2.8610      60.0000     135.0000       0.0000       
 1614394                         1608916                         1606159                              70.0000     160.0000     140.0000       0.0000       
 1616570                         0543                            0489                                257.2796      63.0000     140.0000       0.0000       
 1616737                         0692                            0686                                218.7260      63.0000     140.0000       0.0000       
 1615593                         0410                            0411                                 20.5690      85.0000     135.0000       0.0000       
 1616654                         0757                            0751                                124.8680     110.0000     140.0000       0.0000       
 1616616                         0745                            0737                                189.0560      63.0000     140.0000       0.0000       
 1614874                         0962                            0956                                 14.4356     100.0000      90.0000       0.0000       
 1616994                         0676                            0671                                 12.9320     160.0000     140.0000       0.0000       
 1614748                         0052                            0051                                 14.7850      85.0000     140.0000       0.0000       
 1615080                         0825                            0848                                372.0145      60.0000     135.0000       0.0000       
 1614938                         0906                            0900                                114.6437      50.0000      90.0000       0.0000       
 1616575                         0562                            0499                                251.3362      90.0000     140.0000       0.0000       
 1614934                         0939                            0945                                 76.6715     100.0000      90.0000       0.0000       
 1616537                         0636                            0647                                371.7480      63.0000     140.0000       0.0000       
 1614571                         1609258                         1609256                              80.0000     160.0000     140.0000       0.0000       
 1607393                         1604963                         1604964                              37.7710     160.0000     140.0000       0.0000       
 1614498                         1609108                         1609107                              75.0650     160.0000     140.0000       0.0000       
 1615266                         0325                            0316                                  1.9302     100.0000      90.0000       0.0000       
 1615632                         0618                            0619                                 81.8450     200.0000     135.0000       0.0000       
 1615284                         0943                            0971                                176.0044      60.0000     135.0000       0.0000       
 1616618                         0750                            0744                                132.9280     160.0000     140.0000       0.0000       
 1614664                         0018                            0016                                 13.1231      85.0000     140.0000       0.0000       
 1616724                         0551                            0424                                661.7250     160.0000     140.0000       0.0000       
 1615299                         0869                            0866                                124.6140      85.0000     135.0000       0.0000       
 1615286                         0943                            0923                                410.9375      60.0000     135.0000       0.0000       
 1616556                         0521                            0539                                370.1830      63.0000     140.0000       0.0000       
 1616550                         0629                            0590                                221.4600      63.0000     140.0000       0.0000       
 1616548                         0614                            0611                                112.8200      90.0000     140.0000       0.0000       
 1609990_n2a                     0905                            0904                                  0.1030     100.0000      90.0000       0.0000       
 1615483                         0893                            0877                                400.8776     150.0000      90.0000       0.0000       
 1615054                         0861                            0870                                306.2384      85.0000     135.0000       0.0000       
 1609652_n2a                     0254                            0253                                  0.0990      50.0000      90.0000       0.0000       
 1610354_n2a                     0319                            0320                                  0.1005     100.0000      90.0000       0.0000       
 1615606                         0369                            0400                                264.6690      60.0000     135.0000       0.0000       
 1616690                         0739                            0752                                289.8980      63.0000     140.0000       0.0000       
 1614707                         0010                            0012                                 17.5863      85.0000     140.0000       0.0000       
 1615522                         0875                            0874                                  4.2110     150.0000      90.0000       0.0000       
 1615614                         0615                            0588                                217.0720     200.0000     135.0000       0.0000       
 1616674                         0704                            0713                                173.8860      63.0000     140.0000       0.0000       
 1614980                         0964                            0983                                192.5407     100.0000      90.0000       0.0000       
 1616572                         0489                            0543                                256.9895      63.0000     140.0000       0.0000       
 1615808                         0290                            0289                                  1.9221     100.0000      90.0000       0.0000       
 1610008_n2a                     0900                            0899                                  0.1020      50.0000      90.0000       0.0000       
 1614576                         1609261                         1607041                              27.0000     160.0000     140.0000       0.0000       
 1615162                         0320                            0322                                  2.9037     100.0000      90.0000       0.0000       
 1614496                         1609106                         1609105                              23.6680     160.0000     140.0000       0.0000       
 1615662                         0364                            0375                                111.2880      60.0000     135.0000       0.0000       
 1614361                         1608877                         1608873                              15.5240     160.0000     140.0000       0.0000       
 1616710                         0734                            0728                                133.3150     160.0000     140.0000       0.0000       
 1615225                         0977                            0978                                  2.4655     400.0000      90.0000       0.0000       
 1615046                         0853                            0864                                117.5671      85.0000     135.0000       0.0000       
 1609512_n2a                     0127                            0129                                  0.1000      85.0000     135.0000       0.0000       
 1615297                         0922                            0924                                 13.0264     110.0000     135.0000       0.0000       
 1615301                         0879                            0872                                 33.9481     110.0000     135.0000       0.0000       
 1614681                         0038                            0045                                 25.9899      85.0000     140.0000       0.0000       
 1614914                         0858                            0859                                  3.0091      50.0000      90.0000       0.0000       
 1616597                         0494                            0493                                  8.3379      90.0000     140.0000       0.0000       
 1616648                         0788                            0773                                370.2910      63.0000     140.0000       0.0000       
 1615602                         0515                            0488                                192.5250      60.0000     135.0000       0.0000       
 1616291                         0541                            0554                                 94.0870     110.0000     135.0000       0.0000       
 1614713                         0908                            0909                                 16.3603      85.0000     135.0000       0.0000       
 1615765                         0530                            0529                                  4.3000      60.0000     135.0000       0.0000       
 1615763                         0472                            0470                                 27.2500      60.0000     135.0000       0.0000       
 1614648                         0056                            0058                                 19.7405      85.0000     140.0000       0.0000       
 1616650                         0773                            0784                                185.7730      63.0000     140.0000       0.0000       
 1616699                         0735                            0742                                208.7740      63.0000     140.0000       0.0000       
 1611322_n2a                     0406                            0407                                  0.1000      60.0000     135.0000       0.0000       
 1616655                         0730                            0731                                  4.0930      90.0000     140.0000       0.0000       
 1612562                         1606110                         1606111                              52.4730     160.0000     140.0000       0.0000       
 1615276                         0978                            0980                                  6.0990     250.0000      90.0000       0.0000       
 1615421                         0658                            0698                                679.4340     250.0000     135.0000       0.0000       
 1616636                         0799                            0793                                241.1580      63.0000     140.0000       0.0000       
 1614505                         1609120                         1609119                              75.0000     160.0000     140.0000       0.0000       
 1614645                         0069                            0067                                  4.5002      85.0000     140.0000       0.0000       
 1615021                         0802                            0806                                 53.1764     400.0000      90.0000       0.0000       
 1614693                         0033                            0034                                 12.8079      85.0000     140.0000       0.0000       
 1614930                         0979                            0971                                 32.7032     150.0000     135.0000       0.0000       
 1615051                         0878                            0909                                390.7831      85.0000     135.0000       0.0000       
 1615558                         0353                            0352                                  8.4560      75.0000      90.0000       0.0000       
 1616955                         0288                            0300                                  7.2776      60.0000     135.0000       0.0000       
 1616680                         0754                            0761                                203.0360      63.0000     140.0000       0.0000       
 1615171                         1024                            1030                                167.5895     500.0000      90.0000       0.0000       
 1615524                         0278                            0273                                  8.1374     100.0000      90.0000       0.0000       
 1609522_n2a                     0105                            0104                                  0.1044      85.0000     135.0000       0.0000       
 1611177_n2a                     0440                            0437                                  0.1000     110.0000     135.0000       0.0000       
 1612574                         1606142                         1606143                              74.0000     160.0000     140.0000       0.0000       
 1615563                         1052                            1054                                 38.8193      60.0000     135.0000       0.0000       
 1616590                         0565                            0584                                180.1588      63.0000     140.0000       0.0000       
 1615309                         1063                            1064                                120.4303      50.0000      90.0000       0.0000       
 1616541                         0595                            0605                                 10.8080      63.0000     140.0000       0.0000       
 1615610                         0347                            0346                                  4.3400      60.0000     135.0000       0.0000       
 1614644                         0065                            0066                                 41.7834      85.0000     140.0000       0.0000       
 1616668                         0736                            0722                                188.9660      63.0000     140.0000       0.0000       
 1615747                         0345                            0344                                  5.6530      60.0000     135.0000       0.0000       
 1614628                         0068                            0064                                 17.4168      85.0000     140.0000       0.0000       
 1616587                         0627                            0628                                  8.9282      63.0000     140.0000       0.0000       
 1614917                         0848                            0849                                 18.8950      60.0000     135.0000       0.0000       
 1615620                         0587                            0585                                 21.1030     200.0000     135.0000       0.0000       
 1616569                         0542                            0476                                271.7977      63.0000     140.0000       0.0000       
 1614533                         1609202                         1608872                              50.0000     160.0000     140.0000       0.0000       
 1612583                         1606157                         1606158                              30.6660     160.0000     140.0000       0.0000       
 1614886                         0990                            1019                                329.9157      75.0000      90.0000       0.0000       
 1614570                         1609256                         1609255                              80.0000     160.0000     140.0000       0.0000       
 1614747                         0059                            0057                                 18.5926      85.0000     140.0000       0.0000       
 1611183_n2a                     0444                            0441                                  0.1000      60.0000     135.0000       0.0000       
 1616687                         0743                            0747                                 10.2540      63.0000     140.0000       0.0000       
 1611090_n2a                     0529                            0528                                  0.1000      60.0000     135.0000       0.0000       
 1615229                         0220                            0221                                  5.3888     100.0000      90.0000       0.0000       
 1615264                         0155                            0120                                107.0205     100.0000      90.0000       0.0000       
 1614770                         0226                            0162                                202.7551      75.0000      90.0000       0.0000       
 1609926_n2a                     0857                            0858                                  0.1030      50.0000      90.0000       0.0000       
 1614769                         0158                            0145                                 60.4736      75.0000      90.0000       0.0000       
 1616534                         0649                            0666                                223.7200      63.0000     140.0000       0.0000       
 1616697                         0742                            0744                                 15.5540      63.0000     140.0000       0.0000       
 1616603                         0423                            0432                                200.2625      63.0000     140.0000       0.0000       
 1616578                         0662                            0651                                134.2385     110.0000     140.0000       0.0000       
 1614639                         1038                            1061                                354.4226      90.0000     140.0000       0.0000       
 1614689                         0032                            0029                                 15.0401      85.0000     140.0000       0.0000       
 1615111                         0868                            0886                                184.8511     400.0000      90.0000       0.0000       
 1610946_n2a                     0352                            0351                                  0.0949      75.0000      90.0000       0.0000       
 1616670                         0725                            0727                                 10.4420      63.0000     140.0000       0.0000       
 1615794                         0617                            0615                                 34.3110     200.0000     135.0000       0.0000       
 1614735                         0037                            0036                                 13.1962      85.0000     140.0000       0.0000       
 1615629                         0488                            0497                                 83.8300      60.0000     135.0000       0.0000       
 1609841_n2a                     0890                            0889                                  0.0943      75.0000      90.0000       0.0000       
 1616987                         0340                            0341                                  2.7650      60.0000     135.0000       0.0000       
 1611278_n2a                     0455                            0454                                  0.1000      60.0000     135.0000       0.0000       
 1615105                         0841                            0840                                  3.2352      75.0000      90.0000       0.0000       
 1614535                         1609203                         1609204                              50.0000     160.0000     140.0000       0.0000       
 1615249                         0934                            0954                                524.0984     400.0000      90.0000       0.0000       
 1614761                         0086                            0083                                111.8072      60.0000     135.0000       0.0000       
 1609363_n2a                     1037                            1038                                  0.1044      50.0000      90.0000       0.0000       
 1611074_n2a                     0549                            0548                                  0.1000      60.0000     135.0000       0.0000       
 1610321_n2a                     0998                            0999                                  0.1030     250.0000      90.0000       0.0000       
 1614929                         0907                            0901                                 51.4917     110.0000      90.0000       0.0000 CLOSED
 1615000                         1051                            1047                                 49.6509     500.0000      90.0000       0.0000       
 1616589                         0630                            0628                                175.5720      63.0000     140.0000       0.0000       
 1615573                         0122                            0094                                172.3802      60.0000     135.0000       0.0000       
 1614568                         1609253                         1609252                              75.0000     160.0000     140.0000       0.0000       
 1614435                         1606158                         1606166                              90.0000     160.0000     140.0000       0.0000       
 1615103                         0859                            0856                                  4.9899      50.0000      90.0000       0.0000       
 1615680                         0455                            0532                                356.8850      60.0000     135.0000       0.0000       
 1610016_n2a                     0987                            0988                                  0.0985     250.0000      90.0000       0.0000       
 1616705                         0681                            0670                                132.3610     250.0000     135.0000       0.0000       
 1614712                         0005                            0007                                 10.7616      85.0000     140.0000       0.0000       
 1615024                         0263                            0259                                  3.3770     100.0000      90.0000       0.0000       
 1615591                         0398                            0414                                 99.5520      85.0000     135.0000       0.0000       
 1615235                         0318                            0324                                278.4481     150.0000     135.0000       0.0000       
 1615653                         0402                            0404                                  5.6750      60.0000     135.0000       0.0000       
 1615110                         0960                            0958                                  6.3698     150.0000      90.0000       0.0000       
 1614503                         1609118                         1609117                              26.8560     160.0000     140.0000       0.0000       
 1604927                         ENTRADA                         1600597                             592.1550     160.0000     140.0000       0.0000       
 1615805                         0349                            0339                                159.4358     110.0000     140.0000       0.0000       
 1615562                         0356                            0355                                  5.4239     100.0000      90.0000       0.0000       
 1615200                         1050                            1051                                  5.1923     500.0000      90.0000       0.0000       
 1612593                         1606175                         1606176                              50.0000     160.0000     140.0000       0.0000       
 1615518                         0232                            0234                                  5.8130      85.0000     135.0000       0.0000       
 1616726                         0694                            0676                                421.7630     160.0000     140.0000       0.0000       
 1614843                         0940                            0939                                  3.5831      75.0000      90.0000       0.0000       
 1614827                         0951                            0969                                 60.8720     110.0000     135.0000       0.0000       
 1616560                         0665                            0620                                512.3366      63.0000     140.0000       0.0000       
 1614866                         1042                            1041                                  5.2185     400.0000      90.0000       0.0000       
 1606627_n2a                     1606627_n2a_1                   1606627_n2a_2                         0.1000     160.0000     140.0000       0.0000       
 1615359                         0845                            0860                                326.7526      60.0000     135.0000       0.0000       
 1616522                         0680                            0681                                 15.2790      63.0000     140.0000       0.0000       
 1616632                         0781                            0779                                 15.2430     160.0000     140.0000       0.0000       
 1616535                         0647                            0648                                 16.3780      63.0000     140.0000       0.0000       
 1614915                         0911                            0919                                 38.0825     150.0000      90.0000       0.0000       
 1615263                         0106                            0107                                  1.8869      60.0000     135.0000       0.0000       
 1616695                         0750                            0749                                 16.8480      63.0000     140.0000       0.0000       
 1615362                         0944                            0942                                  3.9589      75.0000      90.0000       0.0000       
 1614742                         0054                            0049                                 39.8799      85.0000     140.0000       0.0000       
 1610581_n2a                     0577                            0531                                  0.1000     150.0000     135.0000       0.0000       
 1616692                         0752                            0739                                289.9460      63.0000     140.0000       0.0000       
 1616564                         0639                            0641                                  8.2359      63.0000     140.0000       0.0000       
 1614542                         1609219                         1606181                              60.0000     160.0000     140.0000       0.0000       
 1614433                         1606172                         1608916                             100.0000     160.0000     140.0000       0.0000       
 1616523                         0677                            0680                                251.7070      63.0000     140.0000       0.0000       
 1614743                         0062                            0061                                  6.0035      85.0000     140.0000       0.0000       
 1615740                         0509                            0510                                  2.5370     110.0000     135.0000       0.0000       
 1614701                         0017                            0021                                 35.6193      85.0000     140.0000       0.0000       
 1614564                         1609249                         1609247                              70.0000     160.0000     140.0000       0.0000       
 1615592                         0395                            0398                                 11.4480      85.0000     135.0000       0.0000       
 1615231                         0183                            0206                                 46.2652      85.0000     135.0000       0.0000       
 1614356                         1608867                         1608868                              40.0000     160.0000     140.0000       0.0000       
 1614575                         1607019                         1607016                              10.9790     160.0000     140.0000       0.0000       
 1615758                         0589                            0604                                 24.5000      60.0000     135.0000       0.0000       
 1616730                         0688                            0690                                116.9900      90.0000     140.0000       0.0000       
 1610019_n2a                     0350                            0349                                  0.0985     110.0000     140.0000       0.0000       
 1616978                         0566                            0563                                  1.3290      60.0000     135.0000       0.0000       
 1615612                         0507                            0506                                  2.6960     110.0000     135.0000       0.0000       
 1612572                         1606138                         1606131                              54.0000     160.0000     140.0000       0.0000       
 1614548                         1608952_n2a_2                   1609222                              32.1030     160.0000     140.0000       0.0000       
 1615237                         0315                            0297                                 13.5664     100.0000      90.0000       0.0000       
 1616184                         1608844                         1612043                               0.1850     160.0000     140.0000       0.0000       
 1614766                         0087                            0072                                 46.8920      60.0000     135.0000       0.0000       
 1616675                         0704                            0713                                173.8860      63.0000     140.0000       0.0000       
 1614544                         1609221                         1609220                              22.4800     160.0000     140.0000       0.0000       
 1614797                         0203                            0288                                156.3482      60.0000     135.0000       0.0000       
 1615598                         0382                            0389                                 80.1470      60.0000     135.0000       0.0000       
 1616585                         0655                            0652                                176.8364      63.0000     140.0000       0.0000       
 1616595                         0499                            0500                                 12.4612      63.0000     140.0000       0.0000       
 1615304                         0656                            0658                                 39.3510      63.0000     140.0000       0.0000       
 1614744                         0057                            0054                                 39.8458      85.0000     140.0000       0.0000       
 1614953                         0817                            0819                                 40.4109      60.0000     135.0000       0.0000       
 1614547                         1607061                         1608951                              19.2850     160.0000     140.0000       0.0000       
 1616714                         0717                            0733                                209.8690      63.0000     140.0000       0.0000       
 1616927                         0359                            0361                                  6.7939     160.0000     140.0000       0.0000       
 1615338                         0815                            0814                                 19.0169     400.0000      90.0000       0.0000       
 1616552                         0632                            0613                                219.4320      63.0000     140.0000       0.0000       
 1614795                         0160                            0088                                346.0079      60.0000     135.0000       0.0000       
 1615630                         0634                            0635                                 14.5100     200.0000     135.0000       0.0000       
 1616721                         0702                            0732                                472.6640      63.0000     140.0000       0.0000       
 1616620                         0766                            0756                                264.0380     160.0000     140.0000       0.0000       
 1614567                         1609252                         1609251                              32.2930     160.0000     140.0000       0.0000       
 1614928                         1001                            0994                                 36.2350     150.0000     135.0000       0.0000       
 1614577                         1609262                         1609261                              52.0000     160.0000     140.0000       0.0000       
 1614966                         0925                            0914                                 93.1528     100.0000      90.0000       0.0000       
 1615627                         0635                            0633                                 32.0540     200.0000     135.0000       0.0000       
 1616613                         0518                            0557                                187.7520      63.0000     140.0000       0.0000       
 1614771                         0116                            0035                                403.3099      50.0000      90.0000       0.0000       
 1615292                         0943                            0947                                111.4594     110.0000     135.0000       0.0000       
 1614890                         0989                            0968                                174.0153     150.0000     135.0000       0.0000       
 1612596                         1606181                         1606182                              55.0000     160.0000     140.0000       0.0000       
 1610491_n2a                     0143                            0142                                  0.1020      60.0000     135.0000       0.0000       
 1616563                         0641                            0668                                280.6838      63.0000     140.0000       0.0000       
 1614808                         0175                            0166                                 99.3843      60.0000     135.0000       0.0000       
 1614477                         1608421                         1609078                              51.9870     160.0000     140.0000       0.0000       
 1616579                         0672                            0664                                521.8897     110.0000     140.0000       0.0000       
 1615718                         0454                            0452                                  7.3530      60.0000     135.0000       0.0000       
 1615646                         0617                            0618                                 35.9760     200.0000     135.0000       0.0000       
 1610112_n2a                     1059                            1060                                  0.0922      50.0000      90.0000       0.0000       
 1615323                         0354                            0272                                347.4027     100.0000      90.0000       0.0000       
 1615716                         0390                            0391                                 10.9150      60.0000     135.0000       0.0000       
 1615196                         0985                            0987                                  2.9785     250.0000      90.0000       0.0000       
 1616551                         0631                            0605                                219.7750      63.0000     140.0000       0.0000       
 1615358                         0845                            0847                                 26.0209      60.0000     135.0000       0.0000       
 1615807                         0291                            0290                                  1.1526     100.0000      90.0000       0.0000       
 1615259                         0114                            0131                                183.8108      60.0000     135.0000       0.0000       
 1611043_n2a                     0558                            0559                                  0.1000     110.0000     135.0000       0.0000       
 1614734                         0027                            0022                                 29.9979      85.0000     140.0000       0.0000       
 1616568                         0592                            0476                                390.9845      63.0000     140.0000       0.0000       
 1614403                         1608934                         1608844                              56.3240     160.0000     140.0000       0.0000       
 1615801                         0978                            0986                                 26.9595     500.0000      90.0000       0.0000       
 1616688                         0747                            0755                                211.1410      63.0000     140.0000       0.0000       
 1613040                         1607018                         1607019                               1.7120     160.0000     140.0000       0.0000       
 1614687                         0029                            0026                                 24.0730      85.0000     140.0000       0.0000       
 1615674                         0347                            0369                                176.6250      60.0000     135.0000       0.0000       
 1616604                         0471                            0475                                191.2626      63.0000     140.0000       0.0000       
 1614925                         0904                            0903                                  4.5324     100.0000      90.0000       0.0000       
 1615217                         0130                            0121                                 36.4495      60.0000     135.0000       0.0000       
 1614789                         0986                            0992                                 38.3131     500.0000      90.0000       0.0000       
 1615755                         0589                            0593                                 22.4130      60.0000     135.0000       0.0000       
 1615567                         1040                            1052                                263.8842      60.0000     135.0000       0.0000       
 1615756                         0586                            0589                                  2.9800      60.0000     135.0000       0.0000       
 1616623                         0786                            0777                                235.3130     160.0000     140.0000       0.0000       
 1615603                         0481                            0480                                  2.7680      60.0000     135.0000       0.0000       
 1614737                         0041                            0037                                 16.5047      85.0000     140.0000       0.0000       
 1615539                         0248                            0283                                 63.3338     100.0000      90.0000       0.0000       
 1614669                         0023                            0019                                 60.0019      85.0000     140.0000       0.0000       
 1616647                         0770                            0780                                184.2520      63.0000     140.0000       0.0000       
 1614997                         1048                            RAP.LSL.002                           3.0215     500.0000      90.0000       0.0000       
 1614920                         0833                            0829                                 12.0003     100.0000      90.0000       0.0000       
 1615290                         0954                            0959                                 10.6561     400.0000      90.0000       0.0000       
 1614723                         0001                            0006                                 14.9757      85.0000     140.0000       0.0000       
 1615140                         0928                            0934                                 79.0452     400.0000      90.0000       0.0000       
 1616584                         0651                            0652                                 13.4814      63.0000     140.0000       0.0000       
 1612582                         1606155                         1606156                              70.0000     160.0000     140.0000       0.0000       
 1616542                         0590                            0629                                219.9640      63.0000     140.0000       0.0000       
 1611108_n2a                     0464                            0459                                  0.1000      60.0000     135.0000       0.0000       
 1616889                         0671                            0644                                340.4110     160.0000     140.0000       0.0000       
 1615672                         0456                            0444                                 31.8650      60.0000     135.0000       0.0000       
 1615684                         0452                            0443                                101.2890     110.0000     135.0000       0.0000       
 1614829                         1034                            1039                                 71.0647     110.0000     135.0000       0.0000       
 1614362                         1608878                         1608877                              62.8660     160.0000     140.0000       0.0000       
 1614717                         0117                            0115                                 10.1055      85.0000     135.0000       0.0000       
 1614792                         0123                            0125                                  1.9261     100.0000     135.0000       0.0000       
 1614439                         1608981                         1608975                              20.0000     160.0000     140.0000       0.0000       
 1616641                         0791                            0792                                  7.4170      63.0000     140.0000       0.0000       
 1616528                         0646                            0640                                144.2200      63.0000     140.0000       0.0000       
 1616562                         0620                            0637                                231.8987      63.0000     140.0000       0.0000       
 1616970                         0090                            0089                                 46.8795     100.0000     135.0000       0.0000       
 1614630                         0839                            0811                                764.8276      75.0000      90.0000       0.0000       
 1614740                         0848                            0851                                 40.3877      60.0000     135.0000       0.0000       
 1615673                         0343                            0333                                202.6000      60.0000     135.0000       0.0000       
 1615575                         0261                            0177                                174.6099     100.0000      90.0000       0.0000       
 1615584                         0121                            0100                                315.9553      60.0000     135.0000       0.0000       
 1614499                         1609110                         1609108                              77.5200     160.0000     140.0000       0.0000       
 1615538                         0294                            0323                                 26.2844     100.0000      90.0000       0.0000       
 1616540                         0605                            0631                                219.3660      63.0000     140.0000       0.0000       
 1614767                         0232                            0193                                 78.0460      85.0000     135.0000       0.0000       
 1610592_n2a                     0272                            0271                                  0.0990     100.0000      90.0000       0.0000       
 1616719                         0711                            0695                                326.2290      63.0000     140.0000       0.0000       
 1615677                         0364                            0343                                106.0000      60.0000     135.0000       0.0000       
 1615525                         0181                            0186                                 13.3377      85.0000     135.0000       0.0000       
 1616593                         0500                            0512                                173.4852      63.0000     140.0000       0.0000       
 1612586                         1606162                         1606160                              70.0010     160.0000     140.0000       0.0000       
 1615639                         0441                            0439                                  7.5690      60.0000     135.0000       0.0000       
 1616884                         0663                            0662                                 13.4745     110.0000     140.0000       0.0000       
 1614765                         1054                            1055                                 41.3463      60.0000     135.0000       0.0000       
 1609769_n2a                     0980                            0981                                  0.0985     250.0000      90.0000       0.0000       
 1616269                         0601                            0602                                  2.1010     200.0000     135.0000       0.0000       
 1616961                         0111                            0110                                  7.7558      85.0000     135.0000       0.0000       
 1614696                         0028                            0031                                  7.0974      85.0000     140.0000       0.0000       
 1616599                         0490                            0564                                279.1312      63.0000     140.0000       0.0000       
 1614865                         1053                            1045                                127.1055     150.0000      90.0000       0.0000       
 1616571                         0547                            0543                                 14.1910      63.0000     140.0000       0.0000       
 1614566                         1609251                         1609250                              16.4050     160.0000     140.0000       0.0000       
 1616940                         0164                            0147                                183.5467      60.0000     135.0000       0.0000       
 1615666                         0384                            0365                                217.7150      60.0000     135.0000       0.0000       
 1616526                         0670                            0669                                 16.2350      63.0000     140.0000       0.0000       
 1616284                         1606626                         1606627_n2a_1                         2.0740     160.0000     140.0000       0.0000       
 1616591                         0562                            0565                                  8.5946      63.0000     140.0000       0.0000       
 1614561                         1609244                         1608865                              72.8810     160.0000     140.0000       0.0000       
 1614360                         1608873                         1606128                              65.6330     160.0000     140.0000       0.0000       
 1614835                         0820                            0826                                145.2528      85.0000     135.0000       0.0000       
 1615643                         0501                            0509                                 21.0000     110.0000     135.0000       0.0000       
 1615544                         0274                            0310                                196.6867     100.0000      90.0000       0.0000       
 1615296                         0307                            0289                                 10.8872     100.0000      90.0000       0.0000       
 1615738                         0381                            0380                                  0.3720      60.0000     135.0000       0.0000       
 1615641                         0447                            0443                                  7.8500     110.0000     135.0000       0.0000       
 1615692                         0358                            0378                                207.4280      60.0000     135.0000       0.0000       
 1616983                         0573                            0570                                  4.4360      60.0000     135.0000       0.0000       
 1614675                         0047                            0040                                 30.4799      85.0000     140.0000       0.0000       
 1615165                         1026                            1027                                  6.8544      50.0000      90.0000       0.0000       
 1615708                         0391                            0388                                  5.6790      60.0000     135.0000       0.0000       
 1615340                         1031                            1041                                366.0666     500.0000      90.0000       0.0000       
 1614497                         1609107                         1609106                              53.9270     160.0000     140.0000       0.0000       
 1612861                         1606156                         1606626                              98.8340     160.0000     140.0000       0.0000       
 1610253_n2a                     0099                            0103                                  8.3035      85.0000     135.0000       0.0000       
 1614750                         0036                            0027                                 19.1971      85.0000     140.0000       0.0000       
 1616549                         0624                            0578                                219.8790      63.0000     140.0000       0.0000       
 1615279                         0965                            0952                                 19.9521     160.0000     135.0000       0.0000       
 1614794                         0888                            0893                                  4.6431     150.0000      90.0000       0.0000       
 1614374                         1608866                         1606114_n2a_1                        38.7110     160.0000     140.0000       0.0000       
 1615487                         0698                            0716                                371.3870     250.0000     135.0000       0.0000       
 1615579                         0117                            0133                                 40.7537      85.0000     135.0000       0.0000       
 1609745_n2a                     0107                            0108                                  0.1044      60.0000     135.0000       0.0000       
 1615532                         0923                            0921                                 98.9118     110.0000     135.0000       0.0000       
 1614943                         0988                            0995                                 27.4724     250.0000      90.0000       0.0000       
 1616633                         0796                            0804                                252.3980      63.0000     140.0000       0.0000       
 1615507                         0306                            0309                                  3.5561     100.0000      90.0000       0.0000       
 1616701                         0614                            0583                                 72.5810     150.0000     135.0000       0.0000       
 1615208                         0889                            0880                                114.4742      75.0000      90.0000       0.0000       
 1615295                         0933                            0936                                 90.2335     110.0000     135.0000       0.0000       
 1616985                         0398                            0403                                  3.2500      60.0000     135.0000       0.0000       
 1615543                         0260                            0233                                 95.2720     100.0000      90.0000       0.0000       
 1614546                         1606182                         1607056                             100.0000     160.0000     140.0000       0.0000       
 1609702_n2a                     0171                            0170                                  0.0949      60.0000     135.0000       0.0000       
 1616582                         0662                            0659                                 81.3563      63.0000     140.0000       0.0000       
 1616660                         0707                            0714                                138.2330      90.0000     140.0000       0.0000       
 1615465                         1000                            1007                                 51.0384     110.0000     135.0000       0.0000       
 1614741                         0049                            0046                                 47.9968      85.0000     140.0000       0.0000       
 1614352                         1608861                         1606175                              40.0000     160.0000     140.0000       0.0000       
 1614887                         0966                            0951                                 67.5064     150.0000     135.0000       0.0000       
 1615109                         0654                            0658                                 12.3810     250.0000     135.0000       0.0000       
 1614732                         0020                            0015                                 30.0001      85.0000     140.0000       0.0000       
 1615383                         1032                            1034                                 90.0844     110.0000     135.0000       0.0000       
 1616891                         0777                            0775                                 21.3090     110.0000     140.0000       0.0000       
 1615626                         0554                            0555                                  4.2320      60.0000     135.0000       0.0000       
 1609890_n2a                     0962                            0963                                  3.3080     100.0000      90.0000       0.0000       
 1615511                         0302                            0299                                117.9004     100.0000     135.0000       0.0000       
 1615354                         0271                            0263                                  3.8142     100.0000      90.0000       0.0000       
 1615254                         0142                            0118                                225.1827      60.0000     135.0000       0.0000       
 1616932                         0267                            0268                                  1.2789     100.0000      90.0000       0.0000       
 1615503                         1058                            1059                                  3.3143      50.0000      90.0000       0.0000       
 1616706                         0690                            0681                                115.9020     250.0000     135.0000       0.0000       
 1616605                         0471                            0475                                191.9234      63.0000     140.0000       0.0000       
 1610607_n2a                     0266                            0265                                  0.1044     100.0000      90.0000       0.0000       
 1615300                         0896                            0897                                  3.9668     100.0000      90.0000       0.0000       
 1616734                         0686                            0685                                  8.5160      63.0000     140.0000       0.0000       
 1609969_n2a                     0917                            0916                                  0.1030     150.0000      90.0000       0.0000       
 1615495                         0355                            0350                                 17.5380     110.0000     140.0000       0.0000       
 1615504                         0255                            0276                                 36.3905     100.0000      90.0000       0.0000       
 1616979                         0508                            0507                                  1.2600     110.0000     135.0000       0.0000       
 1615549                         0239                            0243                                 51.2811      85.0000     135.0000       0.0000       
 1616638                         0794                            0795                                 11.4430      63.0000     140.0000       0.0000       
 1614686                         0123                            0122                                  0.5341     100.0000     135.0000       0.0000       
 1616607                         0552                            0557                                135.3107      63.0000     140.0000       0.0000       
 1616527                         0660                            0669                                251.5040      63.0000     140.0000       0.0000       
 1614635                         0076                            0073                                 14.8725      85.0000     140.0000       0.0000       
 1612859                         1606623                         1606171                              26.7740     160.0000     140.0000       0.0000       
 1615637                         0437                            0429                                  8.5810     110.0000     135.0000       0.0000       
 1616625                         0795                            0792                                227.0770      63.0000     140.0000       0.0000       
 1616988                         1604964                         1604966                              15.1330     160.0000     140.0000       0.0000       
 1615560                         0354                            0353                                  1.3153      75.0000      90.0000       0.0000       
 1610004_n2a                     0877                            0876                                  0.1020     150.0000      90.0000       0.0000       
 1615015                         0941                            0942                                  7.4121      75.0000      90.0000       0.0000       
 1614783                         0122                            0124                                  1.9070      85.0000     135.0000       0.0000       
 1614730                         0015                            0013                                 30.0148      85.0000     140.0000       0.0000       
 1615527                         0280                            0285                                 48.4297     100.0000      90.0000       0.0000       
 1615696                         0381                            0382                                 46.7300      60.0000     135.0000       0.0000       
 1614709                         0007                            0010                                 14.2480      85.0000     140.0000       0.0000       
 1615087                         0092                            0099                                 96.0020      85.0000     135.0000       0.0000       
 1610037_n2a                     0210                            0209                                  0.1044     100.0000      90.0000       0.0000       
 1616268                         0135                            0139                                  2.0306      60.0000     135.0000       0.0000       
 1615270                         1041                            1050                                211.0085     500.0000      90.0000       0.0000       
 1615320                         0253                            0251                                  4.1365     100.0000      90.0000       0.0000       
 1609672_n2a                     0125                            0126                                  0.1000     100.0000     135.0000       0.0000       
 1614884                         0304                            0295                                  4.4350     100.0000      90.0000       0.0000       
 1615569                         0251                            0185                                147.4665      50.0000      90.0000       0.0000       
 1614573                         1607016                         1609259                              82.4360     160.0000     140.0000       0.0000       
 1615281                         0973                            0972                                  0.6845     110.0000     135.0000       0.0000       
 1614921                         0829                            0808                                733.9591     100.0000      90.0000       0.0000       
 1614871                         0955                            0946                                180.5690     100.0000      90.0000       0.0000       
 1615498                         0972                            0949                                111.8027     110.0000     135.0000       0.0000       
 1614620                         0148                            0174                                 90.5986      60.0000     135.0000       0.0000       
 1614705                         0012                            0014                                 17.3983      85.0000     140.0000       0.0000       
 1612991                         0883                            0884                                 13.8706     150.0000      90.0000       0.0000       
 1614880                         1019                            1002                                335.1488      75.0000      90.0000       0.0000       
 1615385                         1029                            1032                                112.3035     110.0000     135.0000       0.0000       
 1614673                         0040                            0030                                 29.2841      85.0000     140.0000       0.0000       
 1616521                         0683                            0661                                234.0000      63.0000     140.0000       0.0000       
 1614736                         0921                            0911                                108.7451     100.0000      90.0000       0.0000       
 1616937                         0225                            0218                                 48.5772     100.0000      90.0000       0.0000       
 1615509                         0359                            0321                                246.0466     150.0000     135.0000       0.0000       
 1615542                         0245                            0248                                 11.7170     100.0000      90.0000       0.0000       
 1611321_n2a                     0388                            0387                                  0.1000      60.0000     135.0000       0.0000       
 1616602                         0490                            0477                                 63.9928      63.0000     140.0000       0.0000       
 1616717                         0708                            0726                                208.2610      63.0000     140.0000       0.0000       
 1615351                         0278                            0262                                  7.2548     100.0000      90.0000       0.0000       
 1614653                         0044                            0053                                 48.4600      85.0000     140.0000       0.0000       
 1610360_n2a                     1025                            1026                                  0.1030      50.0000      90.0000       0.0000       
 1615454                         0124                            0127                                  1.6042      85.0000     135.0000       0.0000       
 1614338                         1606141                         1606138                              20.1400     160.0000     140.0000       0.0000       
 1617004                         MEDIDOR.004                     1606130                               4.3980     160.0000     140.0000       0.0000       
 1609342_n2a                     0811                            0810                                  0.1000      75.0000      90.0000       0.0000       
 1614733                         0022                            0020                                 30.0324      85.0000     140.0000       0.0000       
 1614652                         0997                            1006                                 25.0970     110.0000     135.0000       0.0000       
 1614716                         0008                            0011                                 30.6329      85.0000     140.0000       0.0000       
 1614923                         0896                            0894                                  4.2711     100.0000      90.0000       0.0000       
 1614632                         0073                            0070                                 24.0187      85.0000     140.0000       0.0000       
 1614339                         1612043                         1606142                              99.8150     160.0000     140.0000       0.0000       
 1614539                         1609216                         1609217                              25.0200     160.0000     140.0000       0.0000       
 1614649                         0055                            0056                                 21.0844      85.0000     140.0000       0.0000       
 1615595                         0463                            0457                                 57.5500     110.0000     135.0000       0.0000       
 1616722                         0715                            0702                                270.3840      63.0000     140.0000       0.0000       
 1615644                         0599                            0601                                  6.9680     200.0000     135.0000       0.0000       
 1616669                         0736                            0722                                188.9660      63.0000     140.0000       0.0000       
 1616991                         1047                            1046                                 11.8078     500.0000      90.0000       0.0000       
 1615535                         0322                            0314                                  1.9167     100.0000      90.0000       0.0000       
 1615319                         0833                            0832                                  3.4454      75.0000      90.0000       0.0000       
 1612573                         1606139                         1606141                              66.2940     160.0000     140.0000       0.0000       
 1615294                         0933                            0924                                 28.0331     110.0000     135.0000       0.0000       
 1614629                         0070                            0068                                 29.1817      85.0000     140.0000       0.0000       
 1616601                         0477                            0432                                128.1994      63.0000     140.0000       0.0000       
 1616283                         1606627_n2a_2                   1608934                               2.6630     160.0000     140.0000       0.0000       
 1615709                         0407                            0421                                135.5920      60.0000     135.0000       0.0000       
 1609829_n2a                     0940                            0941                                  0.1030      75.0000      90.0000       0.0000       
 1615762                         0472                            0435                                122.6630      60.0000     135.0000       0.0000       
 1615226                         0167                            0157                                105.7583     100.0000      90.0000       0.0000       
 1610866_n2a                     0874                            0873                                  0.0943     150.0000      90.0000       0.0000       
 1614679                         0048                            0050                                 15.0045      85.0000     140.0000       0.0000       
 1616272                         0506                            0505                                  0.9680     110.0000     135.0000       0.0000       
 1607391                         1600597                         1604963                             169.3850     160.0000     140.0000       0.0000       
 1616712                         0733                            0734                                 16.9710      63.0000     140.0000       0.0000       
 1610434_n2a                     0168                            0167                                  0.1020     100.0000      90.0000       0.0000       
 1609930_n2a                     0259                            0258                                  0.0990      50.0000      90.0000       0.0000       
 1616538                         0613                            0632                                218.2130      63.0000     140.0000       0.0000       
 1614881                         0307                            0306                                  3.4402     100.0000      90.0000       0.0000       
 1614752                         0075                            0074                                 20.9968      85.0000     135.0000       0.0000       
 1616678                         0697                            0706                                230.4230      63.0000     140.0000       0.0000       
 1614772                         0217                            0334                                147.5722      85.0000     135.0000       0.0000       
 1615373                         1062                            1063                                  3.9634      50.0000      90.0000       0.0000       
 1614975                         0903                            0902                                  3.9554     100.0000      90.0000       0.0000       
 1614643                         0066                            0071                                 42.4637      85.0000     140.0000       0.0000       
 1616649                         0784                            0788                                190.5270      63.0000     140.0000       0.0000       
 1611115_n2a                     0389                            0390                                  0.1000      60.0000     135.0000       0.0000       
 1615339                         0815                            0816                                 21.3301     400.0000      90.0000       0.0000       
 P-4                             1606130                         J-5                                  54.7408     160.0000     140.0000       0.0000       
 P-5                             J-5                             J-6                                   9.1924     160.0000     140.0000       0.0000       
 P-6                             J-6                             J-7                                   7.0925     160.0000     140.0000       0.0000       
 P-7                             J-7                             J-8                                  27.5416     160.0000     140.0000       0.0000       
 P-8                             J-8                             J-9                                 308.8981     160.0000     140.0000       0.0000       
 P-9                             J-9                             J-10                                 64.2566     160.0000     140.0000       0.0000       
 P-10                            J-10                            J-11                                151.2904     160.0000     140.0000       0.0000       
 P-11                            J-11                            J-12                                119.5475     160.0000     140.0000       0.0000       
 P-12                            J-12                            J-13                                107.9594     160.0000     140.0000       0.0000       
 P-13                            J-13                            J-14                                 85.6994     160.0000     140.0000       0.0000       
 P-14                            J-14                            J-15                               1232.6780     160.0000     140.0000       0.0000       
 P-15                            J-15                            J-16                                100.9313     160.0000     140.0000       0.0000       
 P-16                            J-16                            J-17                                 61.1589     160.0000     140.0000       0.0000       
 P-17                            J-17                            J-18                                 71.5551     160.0000     140.0000       0.0000       
 P-18                            J-18                            J-19                                132.0783     160.0000     140.0000       0.0000       
 P-19                            J-19                            J-20                                102.8654     160.0000     140.0000       0.0000       
 P-20                            J-20                            J-21                                111.7002     160.0000     140.0000       0.0000       
 P-21                            J-21                            0679                                 53.3590     160.0000     140.0000       0.0000       
 1616559(2)(2)(2)                0643                            0639                                 68.7195      63.0000     140.0000       0.0000       
 1616566(1)(1)(1)(1)             0547                            0550                                 64.8258      63.0000     140.0000       0.0000       
 VRP.NOVA.015-B(1)               0493                            5547-A                                0.0492      90.0000     140.0000       0.0000       
 VRP.NOVA.015-B(2)               5547-B                          0492                                  0.0528      90.0000     140.0000       0.0000       
 P-47(1)                         0675                            5554-A                               28.0763     160.0000     140.0000       0.0000       
 P-47(2)                         5554-B                          0643                                321.7852     160.0000     140.0000       0.0000       
 1615514(1)                      0231                            0242                                 98.0733     150.0000     135.0000       0.0000       
 1615098(1)                      0299                            0301                                  5.2605     100.0000     135.0000       0.0000       
 1615098(2)                      0301                            0303                                115.4858     150.0000     135.0000       0.0000       
 1615547(2)                      0243                            0255                                 57.5309     100.0000      90.0000       0.0000       
 1615545(1)                      0255                            0287                                 22.6736     100.0000      90.0000       0.0000       
 1615545(2)                      0287                            0330                                 33.0213     100.0000      90.0000       0.0000       
 P-62                            0229                            0178                                113.9754      75.0000      90.0000       0.0000       
 P-64                            0249                            0252                                  7.9182     100.0000      90.0000       0.0000       
 P-65                            0252                            0298                                 38.0549     100.0000      90.0000       0.0000       
 1616954(1)                      0306                            0305                                 16.3628     100.0000      90.0000       0.0000       
 1616954(2)                      0305                            0300                                  7.5567     100.0000      90.0000       0.0000       
 P-67                            0240                            0245                                 40.4673     100.0000      90.0000       0.0000       
 1615541(2)                      0237                            0244                                 28.1597     100.0000      90.0000       0.0000       
 1615157(1)                      0256                            0222                                 72.4332     100.0000      90.0000       0.0000       
 1616939(2)                      0201                            0225                                 98.1348      60.0000     135.0000       0.0000       
 1615089(2)                      0163                            0182                                 61.3099      85.0000     135.0000       0.0000       
 1615546(2)                      0264                            0267                                  4.6716     100.0000      90.0000       0.0000       
 P-72                            0264                            0213                                 97.2468      85.0000     135.0000       0.0000       
 1615546(1)(2)                   0241                            0264                                 81.5237     100.0000      90.0000       0.0000       
 P-73                            0241                            0207                                 86.9551      85.0000     135.0000       0.0000       
 P-74                            0234                            0217                                115.5890      85.0000     135.0000       0.0000       
 P-59(2)                         0216                            0331                                147.9420      85.0000     135.0000       0.0000       
 P-75                            0217                            0216                                  9.7680      85.0000     135.0000       0.0000       
 1614849(2)                      0204                            0326                                174.9088     100.0000      90.0000       0.0000       
 P-76                            0216                            0204                                105.6135      85.0000     135.0000       0.0000       
 1614848(2)                      0187                            0337                                200.9772      50.0000      90.0000       0.0000       
 P-77                            0204                            0187                                 59.8295      85.0000     135.0000       0.0000       
 1615546(1)(1)(1)                0234                            0236                                  7.0195      85.0000     135.0000       0.0000       
 1615546(1)(1)(2)                0236                            0241                                 62.2865      85.0000     135.0000       0.0000       
 1615481(1)                      0193                            0184                                109.0706      85.0000     135.0000       0.0000       
 1615481(2)                      0184                            0181                                  6.2531      85.0000     135.0000       0.0000       
 1615534(2)                      0150                            0109                                115.5626      85.0000     135.0000       0.0000       
 P-53(1)                         0242                            0223                                 49.7422      75.0000      90.0000       0.0000       
 P-92                            0244                            0248                                  6.2594     100.0000      90.0000       0.0000       
 P-63(2)                         0229                            0249                                 44.9986     100.0000      90.0000       0.0000       
 P-53(2)(1)                      0242                            0246                                  6.4498     150.0000     135.0000       0.0000       
 P-53(2)(2)                      0246                            0301                                 51.5218     150.0000     135.0000       0.0000       
 1615324(1)                      0895                            0910                                252.0017     400.0000      90.0000       0.0000       
 1615324(2)                      0910                            0926                                252.3674     400.0000      90.0000       0.0000       
 1615596(1)                      0556                            0560                                  9.1735      60.0000     135.0000       0.0000       
 1615596(2)                      0560                            0561                                  8.3355      60.0000     135.0000       0.0000       
 1615608(1)                      0600                            0596                                  5.3114      60.0000     135.0000       0.0000       
 1615615(2)                      0544                            0566                                 92.6850      60.0000     135.0000       0.0000       
 1616271(1)                      0504                            0503                                  8.8324     110.0000     135.0000       0.0000       
 1616271(2)                      0503                            0501                                  8.4996     110.0000     135.0000       0.0000       
 1615615(1)(1)                   0530                            0533                                  6.7242     110.0000     135.0000       0.0000       
 1615764(2)                      0487                            0501                                104.3058     110.0000     135.0000       0.0000       
 1615795(2)                      0466                            0482                                 73.6082     110.0000     135.0000       0.0000       
 1615590(1)                      0421                            0445                                 87.1138      60.0000     135.0000       0.0000       
 P-123                           0445                            0413                                140.5426      60.0000     135.0000       0.0000       
 1615657(1)                      0391                            0397                                 23.3885      60.0000     135.0000       0.0000       
 1615657(2)                      0397                            0404                                  9.9075      60.0000     135.0000       0.0000       
 1615767(1)                      0491                            0466                                195.1309      60.0000     135.0000       0.0000       
 P-137                           0466                            0436                                 82.1672     110.0000     135.0000       0.0000       
 P-140                           0885                            0884                                  0.1360     150.0000      90.0000       0.0000       
 1616580(2)(2)(2)(2)(2)(1)       5538-B                          0673                                  0.0034      90.0000     140.0000       0.0000       
 1616580(2)(2)(2)(2)(2)(2)       0673                            0672                                111.9717     110.0000     140.0000       0.0000       
 1616580(2)(2)(2)(2)(1)(1)       0675                            0674                                 94.8666     110.0000     140.0000       0.0000       
 1616580(2)(2)(2)(2)(1)(2)       0674                            5538-A                                0.0204      90.0000     140.0000       0.0000       
 1615616(2)(1)                   0598                            5872-A                                0.5691     160.0000     140.0000       0.0000       
 1615616(2)(2)                   5872-B                          0597                                  0.5447     160.0000     140.0000       0.0000       
 1615608(2)(2)                   0594                            0572                                 79.6260      60.0000     135.0000       0.0000       
 1615687(2)                      0442                            0439                                 95.2676     110.0000     135.0000       0.0000       
 1615615(1)(2)(1)                0533                            0544                                 85.2705     110.0000     135.0000       0.0000       
 1615650(1)                      0404                            0405                                  1.0767      60.0000     135.0000       0.0000       
 1615682(1)                      0399                            0396                                  3.1943      60.0000     135.0000       0.0000       
 1615682(2)                      0396                            0395                                  2.8027      60.0000     135.0000       0.0000       
 1615650(2)(1)                   0405                            5932-B                                0.7226      60.0000     135.0000       0.0000       
 1615650(2)(2)                   5932-A                          0418                                101.6576      60.0000     135.0000       0.0000       
 1615706(2)(2)(2)                0200                            0205                                 77.7707      60.0000     135.0000       0.0000       
 1615661(2)                      0342                            0358                                104.9476      60.0000     135.0000       0.0000       
 1615681(1)                      0371                            0367                                 47.5470      60.0000     135.0000       0.0000       
 1615681(2)                      0367                            0364                                 13.4530      60.0000     135.0000       0.0000       
 1615600(1)                      0393                            0394                                  2.4303      60.0000     135.0000       0.0000       
 1615600(2)                      0394                            0395                                  1.7637      60.0000     135.0000       0.0000       
 1615764(1)(1)                   0482                            5949-B                                4.5728     110.0000     135.0000       0.0000       
 1615764(1)(2)                   5949-A                          0487                                  4.9614     110.0000     135.0000       0.0000       
 1615707(1)                      0377                            5956-B                               84.1191      60.0000     135.0000       0.0000       
 1615707(2)(2)                   5956-A                          0392                                 79.7722      60.0000     135.0000       0.0000       
 1615640(1)                      0612                            5966-B                              537.4058     200.0000     135.0000       0.0000       
 1615640(2)                      5966-A                          0633                                 15.0882     200.0000     135.0000       0.0000       
 1615616(1)(1)                   0604                            0598                                  8.3891      60.0000     135.0000       0.0000       
 1615564(1)                      0359                            0356                                 14.6877     100.0000      90.0000       0.0000       
 1616614(2)(1)                   0361                            6551-B                                1.8000     160.0000     140.0000       0.0000       
 1616614(2)(2)                   6551-A                          0424                                386.2823     160.0000     140.0000       0.0000       
 1614756(1)                      0089                            6011-A                               60.8437     100.0000     135.0000       0.0000       
 1614756(2)                      6011-B                          0085                                  3.8312     100.0000     135.0000       0.0000       
 1615390(1)                      0324                            0325                                 41.5402     100.0000      90.0000       0.0000       
 1615326(2)                      0309                            0266                                144.8545     100.0000      90.0000       0.0000       
 1615537(2)                      0314                            0323                                 16.2672     100.0000      90.0000       0.0000       
 1615533(2)(2)                   0323                            0290                                214.4473     100.0000      90.0000       0.0000       
 1615574(1)                      0139                            0140                                  0.7945      60.0000     135.0000       0.0000       
 1615574(2)                      0140                            0144                                 13.0696      60.0000     135.0000       0.0000       
 1614790(1)                      0138                            0136                                  1.6021      60.0000     135.0000       0.0000       
 1615571(1)                      0131                            0148                                 74.4612      60.0000     135.0000       0.0000       
 P-150                           0222                            0221                                  8.5649     100.0000      90.0000       0.0000       
 1615583(2)                      0097                            0092                                279.4201      85.0000     135.0000       0.0000       
 1615583(1)(1)                   0101                            0098                                 99.2202      85.0000     135.0000       0.0000       
 P-91(1)(1)                      0100                            0096                                113.2203      60.0000     135.0000       0.0000       
 1614804(2)                      0113                            0103                                103.8296      60.0000     135.0000       0.0000       
 P-153                           0115                            0113                                  9.4180      85.0000     135.0000       0.0000       
 P-154                           0174                            0175                                  3.3605      60.0000     135.0000       0.0000       
 P-155                           0135                            0134                                  5.5428      60.0000     135.0000       0.0000       
 P-156                           0181                            0156                                 64.8047      85.0000     135.0000       0.0000       
 1615577(2)                      0169                            0168                                 11.7925     100.0000      90.0000       0.0000       
 P-158                           0156                            0137                                 52.5068      85.0000     135.0000       0.0000       
 P-159                           0151                            0120                                 52.3593      85.0000     135.0000       0.0000       
 1614622(1)                      0138                            6105-A                                0.5045      60.0000     135.0000       0.0000       
 1614622(2)                      6105-B                          0140                                  0.4941      60.0000     135.0000       0.0000       
 1614804(1)(1)(1)                0146                            0132                                104.8299      60.0000     135.0000       0.0000       
 1615582(2)                      0180                            0202                                 39.2597      60.0000     135.0000       0.0000       
 1615520(2)(1)                   0300                            0278                                100.4632     100.0000      90.0000       0.0000       
 1614804(1)(1)(2)(2)(1)          0132                            6121-A                              224.9970      60.0000     135.0000       0.0000       
 1614804(1)(1)(2)(2)(2)          6121-B                          0113                                  4.2699      60.0000     135.0000       0.0000       
 P-160                           0118                            0117                                  6.4061      85.0000     135.0000       0.0000       
 1615092(1)                      0824                            0819                                117.4141      60.0000     135.0000       0.0000       
 P-170                           0848                            0843                                 54.6404      60.0000     135.0000       0.0000       
 1615255(2)                      0935                            0931                                 75.4952     110.0000     135.0000       0.0000       
 1615328(1)                      0868                            0835                                487.5029     400.0000      90.0000       0.0000       
 1615328(2)                      0835                            0823                                355.1078     400.0000      90.0000       0.0000       
 1614908(1)                      0875                            6157-B                              250.7366     150.0000      90.0000       0.0000       
 1614908(2)                      6157-A                          0914                                  5.3667     150.0000      90.0000       0.0000       
 1614931(2)                      1010                            0973                                316.7067     110.0000     135.0000       0.0000       
 1615250(1)                      0999                            1005                                 23.5723     250.0000      90.0000       0.0000       
 1615565(2)                      1004                            1003                                 41.1628     110.0000      90.0000       0.0000       
 1614892(1)                      1003                            0997                                 19.2510     110.0000      90.0000       0.0000       
 1614892(2)                      0997                            0989                                 59.8839     150.0000      90.0000       0.0000       
 P-177                           0915                            0913                                 10.5140     150.0000      90.0000       0.0000       
 P-176(2)                        0865                            0913                                446.6326     150.0000      90.0000       0.0000       
 P-178                           0975                            HID.PROJ-01                           0.9610      50.0000      90.0000       0.0000       
 1615250(2)(2)(1)                1005                            1035                                658.0978     250.0000      90.0000       0.0000       
 1615250(2)(2)(2)                1035                            1036                                  8.3615     250.0000      90.0000       0.0000       
 P-179                           1035                            HID.PROJ-02                           1.3930     150.0000      90.0000       0.0000       
 1615255(1)(1)                   0957                            0953                                  5.8979     150.0000      90.0000       0.0000       
 1615255(1)(2)                   0953                            0935                                509.1740     100.0000      90.0000       0.0000       
 1615282(1)                      0936                            0937                                 17.2328     160.0000     135.0000       0.0000       
 1615282(2)                      0937                            0965                                485.6296     160.0000     135.0000       0.0000       
 1616622(1)                      0805                            0782                                  6.6876     280.0000     140.0000       0.0000       
 1616682(2)                      0760                            0766                                 13.4461      63.0000     140.0000       0.0000       
 1616728(1)                      0701                            0700                                  9.6111      63.0000     140.0000       0.0000       
 1616554(1)                      0583                            0581                                 11.1142      63.0000     140.0000       0.0000       
 P-50(1)                         0643                            0625                                165.8552     160.0000     140.0000       0.0000       
 P-50(2)                         0625                            0550                                293.3024     160.0000     140.0000       0.0000       
 1615577(1)(1)(1)                0190                            0188                                 14.3038     100.0000      90.0000       0.0000       
 1615577(1)(1)(2)                0188                            0169                                216.2616     100.0000      90.0000       0.0000       
 1616947(1)                      0104                            0102                                  1.8314      85.0000     135.0000       0.0000       
 1616947(2)                      0102                            0101                                  9.4785      85.0000     135.0000       0.0000       
 1615589(1)                      0403                            0408                                  6.7990     110.0000     135.0000       0.0000       
 1615589(2)                      0408                            7                                    85.1980     110.0000     135.0000       0.0000       
 1616634(1)                      0796                            0801                                223.8400      63.0000     140.0000       0.0000       
 1616634(2)                      0801                            0804                                 28.5610      63.0000     140.0000       0.0000       
 P-192                           HID.EXIST-32                    0801                                  5.3515      63.0000     140.0000       0.0000       
 1616637(1)                      0793                            0798                                222.4508      63.0000     140.0000       0.0000       
 1616637(2)                      0798                            0799                                 18.7072      63.0000     140.0000       0.0000       
 P-194                           HID.EXIST-33                    0798                                  4.9518      63.0000     140.0000       0.0000       
 1616642(1)                      0791                            0789                                 30.0095      63.0000     140.0000       0.0000       
 1616642(2)                      0789                            0787                                176.1165      63.0000     140.0000       0.0000       
 P-195                           HID.EXIST-31                    0789                                  1.4416      63.0000     140.0000       0.0000       
 1616645(1)                      0780                            0783                                106.9976      63.0000     140.0000       0.0000       
 1616645(2)                      0783                            0784                                 18.0084      63.0000     140.0000       0.0000       
 P-196                           HID.EXIST-30                    0783                                  1.8518      63.0000     140.0000       0.0000       
 1616651(1)                      0762                            0768                                170.7367     110.0000     140.0000       0.0000       
 1616651(2)                      0768                            0775                                157.7653     110.0000     140.0000       0.0000       
 P-197                           HID.EXIST-03                    0768                                  5.3027      63.0000     140.0000       0.0000       
 1616666(1)                      0763                            0764                                 17.6778      63.0000     140.0000       0.0000       
 1616666(2)                      0764                            0767                                110.4722      63.0000     140.0000       0.0000       
 P-198                           HID.EXIST-01                    0764                                  3.4300      63.0000     140.0000       0.0000       
 1616652(1)                      0757                            0758                                 58.0136     110.0000     140.0000       0.0000       
 1616652(2)                      0758                            0762                                 68.9384     110.0000     140.0000       0.0000       
 P-199                           HID.EXIST-02                    0758                                 50.2509      63.0000     140.0000     140.0000       
 1616627(1)                      0804                            0803                                  6.2859      63.0000     140.0000       0.0000       
 1616627(2)                      0803                            0800                                126.6951      63.0000     140.0000       0.0000       
 1616684(1)                      0760                            0759                                  4.2479      63.0000     140.0000       0.0000       
 1616684(2)                      0759                            0753                                211.1221      63.0000     140.0000       0.0000       
 P-201                           HID.EXIST-23                    0759                                  2.4169      63.0000     140.0000       0.0000       
 1616689(1)                      0755                            0746                                199.1112      63.0000     140.0000       0.0000       
 1616689(2)                      0746                            0747                                 12.0298      63.0000     140.0000       0.0000       
 P-202                           HID.EXIST-25                    0746                                  8.2036      63.0000     140.0000       0.0000       
 1616691(1)                      0743                            0738                                125.0433      63.0000     140.0000       0.0000       
 1616691(2)                      0738                            0739                                 11.0187      63.0000     140.0000       0.0000       
 P-203                           HID.EXIST-24                    0738                                 16.2492      63.0000     140.0000       0.0000       
 1616694(1)                      0749                            0748                                 24.1588      63.0000     140.0000       0.0000       
 1616694(2)                      0748                            0740                                183.1762      63.0000     140.0000       0.0000       
 P-204                           HID.EXIST-19                    0748                                  2.1409      63.0000     140.0000       0.0000       
 1616698(1)                      0742                            0741                                 24.7925      63.0000     140.0000       0.0000       
 1616698(2)                      0741                            0735                                183.9815      63.0000     140.0000       0.0000       
 P-205                           HID.EXIST-20                    0741                                  2.8631      63.0000     140.0000       0.0000       
 1616720(1)                      0711                            0712                                 17.7335      63.0000     140.0000       0.0000       
 1616720(2)                      0712                            0715                                 65.7115      63.0000     140.0000       0.0000       
 P-207                           HID.EXIST-28                    0712                                  5.4343      63.0000     140.0000       0.0000       
 1616713(1)                      0717                            0729                                183.8037      63.0000     140.0000       0.0000       
 1616713(2)                      0729                            0733                                 23.9303      63.0000     140.0000       0.0000       
 P-208                           HID.EXIST-21                    0729                                  3.6020      63.0000     140.0000       0.0000       
 1616715(1)                      0726                            0723                                 25.5130      63.0000     140.0000       0.0000       
 1616715(2)                      0723                            0708                                183.2580      63.0000     140.0000       0.0000       
 P-209                           HID.EXIST-22                    0723                                  2.6553      63.0000     140.0000       0.0000       
 1616718(2)                      0709                            0716                                125.0511     200.0000     140.0000       0.0000       
 P-210                           HID.EXIST-26                    0709                                  6.4152      63.0000     140.0000       0.0000       
 1616718(1)(1)                   0694                            0703                                211.1938     200.0000     140.0000       0.0000       
 1616718(1)(2)                   0703                            0709                                128.9881     200.0000     140.0000       0.0000       
 P-211                           HID.EXIST-27                    0703                                  6.4118      63.0000     140.0000       0.0000       
 1616727(1)                      0700                            0699                                 12.8192      63.0000     140.0000       0.0000       
 1616727(2)                      0699                            0696                                269.2658      63.0000     140.0000       0.0000       
 P-212                           HID.EXIST-29                    0699                                  3.7448      63.0000     140.0000       0.0000       
 1616736(1)                      0691                            0682                                236.0033      63.0000     140.0000       0.0000       
 1616736(2)                      0682                            0661                                217.4277      63.0000     140.0000       0.0000       
 P-213                           HID.EXIST-08                    0682                                  5.1281      63.0000     140.0000       0.0000       
 1616733(1)                      0685                            0684                                 14.0735      63.0000     140.0000       0.0000       
 1616733(2)                      0684                            0683                                119.1215      63.0000     140.0000       0.0000       
 P-214                           HID.EXIST-11                    0684                                  7.6135      63.0000     140.0000       0.0000       
 1616731(1)                      0685                            0687                                120.2202      63.0000     140.0000       0.0000       
 1616731(2)                      0687                            0688                                 12.5228      63.0000     140.0000       0.0000       
 P-215                           HID.EXIST-12                    0687                                  2.1169      63.0000     140.0000       0.0000       
 1616524(1)                      0680                            0678                                 53.5847      63.0000     140.0000       0.0000       
 1616524(2)                      0678                            0677                                196.5633      63.0000     140.0000       0.0000       
 P-216                           HID.EXIST-13                    0678                                  4.2070      63.0000     140.0000       0.0000       
 1616525(1)                      0669                            0667                                 51.5397      63.0000     140.0000       0.0000       
 1616525(2)                      0667                            0660                                199.6363      63.0000     140.0000       0.0000       
 P-217                           HID.EXIST-18                    0667                                  5.7386      63.0000     140.0000       0.0000       
 1616529(2)                      0650                            0646                                132.1095      63.0000     140.0000       0.0000       
 P-218                           HID.EXIST-07                    0650                                 25.1098      63.0000     140.0000       0.0000       
 1616529(1)(1)                   0657                            0653                                 69.5636      63.0000     140.0000       0.0000       
 1616529(1)(2)                   0653                            0650                                314.4079      63.0000     140.0000       0.0000       
 P-219                           HID.EXIST-14                    0653                                 13.8509      63.0000     140.0000       0.0000       
 1616545(2)                      0567                            0578                                 11.3193      63.0000     140.0000       0.0000       
 P-220                           HID.EXIST-35                    0567                                 13.4124      63.0000     140.0000       0.0000       
 1616545(1)(1)                   0582                            0580                                 14.1902      63.0000     140.0000       0.0000       
 1616545(1)(2)                   0580                            0567                                119.6655      63.0000     140.0000       0.0000       
 P-221                           HID.EXIST-36                    0580                                  1.1055      63.0000     140.0000       0.0000       
 1616546(1)                      0595                            0591                                 15.6755      63.0000     140.0000       0.0000       
 1616546(2)                      0591                            0582                                116.7575      63.0000     140.0000       0.0000       
 P-222                           HID.EXIST-17                    0591                                  2.4477      63.0000     140.0000       0.0000       
 1616547(1)                      0611                            0610                                 14.2759      63.0000     140.0000       0.0000       
 1616547(2)                      0610                            0595                                119.2561      63.0000     140.0000       0.0000       
 P-223                           HID.EXIST-16                    0610                                  4.1560      63.0000     140.0000       0.0000       
 1616553(1)                      0581                            0579                                 36.2303      63.0000     140.0000       0.0000       
 1616553(2)                      0579                            0545                                333.8377      63.0000     140.0000       0.0000       
 P-224                           HID.EXIST-15                    0579                                  4.4539      63.0000     140.0000       0.0000       
 1616557(1)                      0539                            0538                                 31.0868      63.0000     140.0000       0.0000       
 1616557(2)                      0538                            0521                                339.0552      63.0000     140.0000       0.0000       
 P-225                           HID.EXIST-06                    0538                                  1.6785      63.0000     140.0000       0.0000       
 1615638(1)                      0607                            0608                                  2.0977     200.0000     135.0000       0.0000       
 1615638(2)                      0608                            0612                                 28.7183     200.0000     135.0000       0.0000       
 P-226                           HID.EXIST-34                    0608                                  2.0915     200.0000     135.0000       0.0000       
 1616565(1)                      0668                            0642                                270.6213      63.0000     140.0000       0.0000       
 1616565(2)                      0642                            0641                                  9.9481      63.0000     140.0000       0.0000       
 P-227                           HID.EXIST-09                    0642                                  6.2829      63.0000     140.0000       0.0000       
 1616558(1)                      0639                            0638                                126.6850      63.0000     140.0000       0.0000       
 1616558(2)                      0638                            0637                                  6.2308      63.0000     140.0000       0.0000       
 P-228                           HID.EXIST-10                    0638                                  1.7062      63.0000     140.0000       0.0000       
 1614878(1)                      0325                            0332                                  5.1301     100.0000      90.0000       0.0000       
 1614878(2)                      0332                            0335                                  2.4947     100.0000      90.0000       0.0000       
 P-229                           HID.EXIST-05                    0332                                  0.1821     100.0000      90.0000       0.0000       
 1614755(1)                      0085                            0079                                 64.0399     100.0000     135.0000       0.0000       
 1614755(2)                      0079                            0078                                  4.5617     100.0000     135.0000       0.0000       
 P-230                           HID.EXIST-04                    0079                                  0.8311      85.0000     135.0000       0.0000       
 P-233                           0964                            0963                                  0.0970     100.0000      90.0000       0.0000       
 P-234                           0961                            HID.PROJ-03                           9.5806      90.0000     140.0000       0.0000       
 P-236                           0805                            HID.PROJ-06                           1.3029     160.0000     140.0000       0.0000       
 P-238                           0698                            HID.PROJ-08                           7.6688     160.0000     140.0000       0.0000       
 P-239                           0577                            HID.PROJ-09                           2.1259     150.0000     135.0000       0.0000       
 P-244                           0573                            0576                                  4.4585      60.0000     135.0000       0.0000       
 1616725(1)                      0644                            0626                                166.0353     160.0000     140.0000       0.0000       
 1616725(2)                      0626                            0553                                278.2097     160.0000     140.0000       0.0000       
 P-254                           0626                            HID.PROJ-10                           1.9674     160.0000     140.0000       0.0000       
 1616708(1)                      0728                            0720                                 58.2523     160.0000     140.0000       0.0000       
 1616708(2)                      0720                            0701                                278.3467     250.0000     135.0000       0.0000       
 P-259                           0720                            0695                                466.8672      63.0000     140.0000       0.0000       
 VRP.NOVA.018-A                  0575                            0574                                  0.0500     160.0000     140.0000       0.0000       
 VRP.NOVA.018-B                  0574                            0573                                  0.9732     160.0000     140.0000       0.0000       
 P-262                           0377                            0376                                  0.0498      60.0000     135.0000       0.0000       
 P-263                           0376                            0375                                  0.0502      60.0000     135.0000       0.0000       
 P-268                           0308                            0302                                  2.0060     100.0000     135.0000       0.0000       
 1                               0892                            0886                                  5.1500     100.0000     100.0000       0.0000       
 2                               0938                            0939                                  1.0000     100.0000      90.0000       0.0000       
 3                               1004                            0976                                  1.0000     110.0000      90.0000       0.0000       
 5                               6157-A                          6157-B                                1.0000     150.0000      90.0000       0.0000       
 6                               2580-A                          2580-B                                1.0000     500.0000      90.0000       0.0000       
 7                               1010                            1001                                  1.0000     150.0000     135.0000       0.0000       
 8                               0103                            0110                                 12.0000      85.0000     135.0000       0.0000       
 9                               0109                            0110                                  9.0000      85.0000     100.0000       0.0000       
 10                              0150                            2                                     4.0000      85.0000     135.0000       0.0000       
 11                              2                               4                                     5.0000      85.0000     135.0000       0.0000       
 12                              0150                            0151                                  2.0000      85.0000     135.0000       0.0000       
 13                              0137                            3                                     3.0000      85.0000     135.0000       0.0000       
 14                              0241                            0243                                  2.0000      85.0000     100.0000       0.0000 CLOSED
 17                              0274                            5                                     1.0000     100.0000     100.0000       0.0000       
 18                              5                               0282                                  1.0000     100.0000     100.0000       0.0000       
 19                              0268                            6                                     1.0000     100.0000     100.0000       0.0000       
 20                              6                               0279                                  1.0000     100.0000     100.0000       0.0000       
 21                              0199                            0204                                 10.0000      85.0000     100.0000       0.0000       
 22                              0187                            4                                    12.0000      85.0000     100.0000       0.0000       
 23                              0212                            0216                                 23.0000      85.0000     100.0000       0.0000       
 24                              0215                            0217                                 10.0000      85.0000     100.0000       0.0000       
 25                              0201                            0191                                  7.0000      60.0000     135.0000       0.0000       
 27                              0154                            0147                                  5.0000      60.0000     135.0000       0.0000       
 28                              0153                            0146                                  5.0000      60.0000     135.0000       0.0000       
 29                              6105-A                          6105-B                                1.0000      60.0000     135.0000       0.0000       
 30                              0096                            0098                                  1.0000      60.0000     135.0000       0.0000       
 31                              0121                            0131                                  1.0000      60.0000     135.0000       0.0000       
 33                              0303                            0298                                  1.0000      63.0000     140.0000       0.0000       
 34                              6552-A                          6552-B                                1.0000     100.0000      90.0000       0.0000       
 35                              0174                            0180                                  1.0000      60.0000     135.0000       0.0000       
 36                              0173                            0177                                  1.0000      60.0000     135.0000       0.0000       
 37                              0170                            0166                                  1.0000      60.0000     135.0000       0.0000       
 38                              6551-A                          6551-B                                1.0000     160.0000     140.0000       0.0000       
 39                              5932-A                          5932-B                                1.0000      60.0000     135.0000       0.0000       
 40                              5956-A                          5956-B                                1.0000      60.0000     135.0000       0.0000       
 41                              0413                            7                                     1.0000      60.0000     135.0000       0.0000       
 42                              7                               0415                                  1.0000     110.0000     135.0000       0.0000       
 43                              0436                            0434                                  1.0000     110.0000     135.0000       0.0000       
 15                              8                               1010                                  1.0000     150.0000      90.0000       0.0000       
 16                              0812                            0817                                  1.0000      90.0000     100.0000       0.0000       
 44                              5538-A                          5538-B                                1.0000      90.0000     140.0000       0.0000       
 45                              6121-A                          6121-B                                1.0000      60.0000     135.0000       0.0000       
 46                              5872-A                          5872-B                                1.0000     160.0000     140.0000       0.0000       
 4                               0846                            0812                                  3.0000      50.0000      90.0000       0.0000       
 47                              0865                            0863                                  1.0000     150.0000      90.0000       0.0000       
 48                              0955                            0954                                 29.0000     110.0000      90.0000       0.0000       
 49                              5966-A                          5966-B                                1.0000     200.0000     135.0000       0.0000       
 50                              0443                            0442                               1000.0000     110.0000     135.0000       0.0000       
 51                              0342                            0341                                  0.1000      60.0000     135.0000       0.0000       
 52                              0772                            0716                                500.0000     280.0000     140.0000       0.0000       
 54                              0504                            0505                                  0.1000     110.0000     135.0000       0.0000       
 55                              5554-A                          5554-B                                1.0000     160.0000     140.0000       0.0000       
 56                              0200                            0196                                  1.0000      60.0000     135.0000       0.0000       
 26                              5949-A                          5949-B                                2.0000     110.0000     135.0000       0.0000       

[PUMPS]

[VALVES]
 VRP5.1                          2577-A                          2577-B                               50.0000   PRV      12.5000       0.0000
 VRP5.0-2                        2613-A                          2613-B                               40.0000   PRV      11.5000       0.0000
 VRP5.2-3                        5547-A                          5547-B                               40.0000   PRV       5.0000       0.0000
 VRP5.2-8                        6011-A                          6011-B                               20.0000   PRV      10.0000       0.0000
 VRP.NOVA011                     0931                            0930                                 50.0000   PRV      10.0000       0.0000
 VRP.NOVA016                     5                               6                                    50.0000   PRV      10.0000       0.0000
 VRP.NOVA019                     0434                            0426                                 40.0000   PRV      10.0000       0.0000
 VRP.NOVA018                     0570                            0563                                 50.0000   PRV      10.0000       0.0000
 VRP.NOVA.013                    0553                            0551                                 75.0000   PRV      10.0000       0.0000
 VRP5.2.1                        0679                            0675                                100.0000   PRV      10.0000       0.0000

[DEMANDS]
 0124                                  0.001000  RAP.LSL.002                    
 0302                                  0.044000  RAP.LSL.002                    
 0426                                  0.025084  RAP.LSL.002                    
 0573                                  0.001044  RAP.LSL.002                    
 0575                                  0.025556  RAP.LSL.002                    
 0089                                  0.017000  RAP.LSL.002                    
 0492                                  0.004000  RAP.PPL.002_002                
 0493                                  0.003000  RAP.PPL.002_002                
 0663                                  0.008000  RAP.PPL.002_002                
 0664                                  0.194000  RAP.PPL.002_002                
 0553                                  0.000000                                
 0778                                  0.006891  RAP.LSL.002                    
 0779                                  0.007053  RAP.LSL.002                    
 0930                                  0.004140  RAP.LSL.002                    
 0931                                  0.028981  RAP.LSL.002                    
 0966                                  0.025879  RAP.LSL.002                    
 0967                                  0.002453  RAP.LSL.002                    
 0377                                  0.000016  RAP.LSL.002                    
 0375                                  0.036201  RAP.LSL.002                    
 0504                                  0.002312  RAP.LSL.002                    
 0505                                  0.001629  RAP.LSL.002                    
 0603                                  0.000000                                
 0602                                  0.000000                                
 0993                                  0.000000                                
 0992                                  0.000000                                
 0411                                  0.006688  RAP.LSL.002                    
 0510                                  0.000826  RAP.LSL.002                    
 0458                                  0.000956  RAP.LSL.002                    
 0593                                  0.007286  RAP.LSL.002                    
 0774                                  0.000000                                
 0676                                  0.190029  RAP.LSL.002                    
 0805                                  0.000000                                
 1047                                  0.000000                                
 MEDIDOR.004                           0.000000                                
 0563                                  0.072704  RAP.LSL.002                    
 0341                                  0.007215  RAP.LSL.002                    
 0507                                  0.028261  RAP.LSL.002                    
 0570                                  0.004480  RAP.LSL.002                    
 0442                                  0.032950  RAP.LSL.002                    
 0566                                  0.030566  RAP.LSL.002                    
 0569                                  0.001223  RAP.LSL.002                    
 0110                                  0.003000  RAP.LSL.002                    
 0212                                  0.049000  RAP.LSL.002                    
 0233                                  0.048000  RAP.LSL.002                    
 0300                                  0.042000  RAP.LSL.002                    
 0101                                  0.040000  RAP.LSL.002                    
 0154                                  0.079000  RAP.LSL.002                    
 0147                                  0.070000  RAP.LSL.002                    
 0153                                  0.037000  RAP.LSL.002                    
 0146                                  0.041000  RAP.LSL.002                    
 0225                                  0.065000  RAP.LSL.002                    
 0190                                  0.005000  RAP.LSL.002                    
 0191                                  0.040000  RAP.LSL.002                    
 0282                                  0.073000  RAP.LSL.002                    
 0274                                  0.073000  RAP.LSL.002                    
 0268                                  0.001000  RAP.LSL.002                    
 0279                                  0.002000  RAP.LSL.002                    
 0362                                  0.004000  RAP.LSL.002                    
 0359                                  0.008000  RAP.LSL.002                    
 0361                                  0.005000  RAP.LSL.002                    
 0623                                  0.235000  RAP.PPL.002_002                
 0518                                  0.219000  RAP.PPL.002_002                
 0622                                  0.235000  RAP.PPL.002_002                
 0511                                  0.219000  RAP.PPL.002_002                
 0552                                  0.203000  RAP.PPL.002_002                
 0557                                  0.227000  RAP.PPL.002_002                
 0471                                  0.140000  RAP.PPL.002_002                
 0490                                  0.130000  RAP.PPL.002_002                
 0423                                  0.147000  RAP.PPL.002_002                
 0432                                  0.194000  RAP.PPL.002_002                
 0564                                  0.126000  RAP.PPL.002_002                
 0477                                  0.073000  RAP.PPL.002_002                
 0475                                  0.143000  RAP.PPL.002_002                
 0512                                  0.128000  RAP.PPL.002_002                
 0500                                  0.133000  RAP.PPL.002_002                
 0584                                  0.132000  RAP.PPL.002_002                
 0565                                  0.135000  RAP.PPL.002_002                
 0630                                  0.128000  RAP.PPL.002_002                
 0628                                  0.131000  RAP.PPL.002_002                
 0655                                  0.130000  RAP.PPL.002_002                
 0652                                  0.134000  RAP.PPL.002_002                
 0645                                  0.130000  RAP.PPL.002_002                
 0659                                  0.159000  RAP.PPL.002_002                
 0672                                  0.232000  RAP.PPL.002_002                
 0662                                  0.084000  RAP.PPL.002_002                
 0651                                  0.146000  RAP.PPL.002_002                
 0627                                  0.187000  RAP.PPL.002_002                
 0562                                  0.187000  RAP.PPL.002_002                
 0494                                  0.010000  RAP.PPL.002_002                
 0499                                  0.104000  RAP.PPL.002_002                
 0547                                  0.078000  RAP.PPL.002_002                
 0489                                  0.188000  RAP.PPL.002_002                
 0543                                  0.193000  RAP.PPL.002_002                
 0542                                  0.195000  RAP.PPL.002_002                
 0476                                  0.243000  RAP.PPL.002_002                
 0592                                  0.190000  RAP.PPL.002_002                
 0668                                  0.202000  RAP.PPL.002_002                
 0641                                  0.109000  RAP.PPL.002_002                
 0620                                  0.272000  RAP.PPL.002_002                
 0665                                  0.293000  RAP.PPL.002_002                
 0644                                  0.000000                                
 0637                                  0.193000  RAP.PPL.002_002                
 0639                                  0.075000  RAP.PPL.002_002                
 0521                                  0.336640  RAP.LSL.002                    
 0545                                  0.331825  RAP.LSL.002                    
 0581                                  0.199709  RAP.LSL.002                    
 0605                                  0.216451  RAP.LSL.002                    
 0624                                  0.212396  RAP.LSL.002                    
 0578                                  0.217601  RAP.LSL.002                    
 0582                                  0.067220  RAP.LSL.002                    
 0629                                  0.206241  RAP.LSL.002                    
 0590                                  0.212401  RAP.LSL.002                    
 0595                                  0.069850  RAP.LSL.002                    
 0631                                  0.209924  RAP.LSL.002                    
 0611                                  0.064734  RAP.LSL.002                    
 0632                                  0.208648  RAP.LSL.002                    
 0613                                  0.216172  RAP.LSL.002                    
 0636                                  0.350463  RAP.LSL.002                    
 0647                                  0.358438  RAP.LSL.002                    
 0666                                  0.212191  RAP.LSL.002                    
 0649                                  0.218467  RAP.LSL.002                    
 0616                                  0.283205  RAP.LSL.002                    
 0640                                  0.349666  RAP.LSL.002                    
 0646                                  0.133676  RAP.LSL.002                    
 0660                                  0.214435  RAP.LSL.002                    
 0669                                  0.151475  RAP.LSL.002                    
 0677                                  0.213178  RAP.LSL.002                    
 0680                                  0.152043  RAP.LSL.002                    
 0689                                  0.213020  RAP.LSL.002                    
 0693                                  0.207372  RAP.LSL.002                    
 0661                                  0.210217  RAP.LSL.002                    
 0692                                  0.209249  RAP.LSL.002                    
 0686                                  0.215040  RAP.LSL.002                    
 0691                                  0.219608  RAP.LSL.002                    
 0683                                  0.274117  RAP.LSL.002                    
 0685                                  0.069096  RAP.LSL.002                    
 0688                                  0.057811  RAP.LSL.002                    
 0696                                  0.260094  RAP.LSL.002                    
 0700                                  0.147443  RAP.LSL.002                    
 0671                                  0.000000                                
 0424                                  0.011164  RAP.LSL.002                    
 0551                                  0.000000                                
 0732                                  0.319432  RAP.LSL.002                    
 0702                                  0.347390  RAP.LSL.002                    
 0715                                  0.257520  RAP.LSL.002                    
 0695                                  0.152155  RAP.LSL.002                    
 0711                                  0.160410  RAP.LSL.002                    
 0694                                  0.207850  RAP.LSL.002                    
 0708                                  0.187129  RAP.LSL.002                    
 0726                                  0.118322  RAP.LSL.002                    
 0717                                  0.185053  RAP.LSL.002                    
 0733                                  0.117279  RAP.LSL.002                    
 0734                                  0.177925  RAP.LSL.002                    
 0728                                  0.256574  RAP.LSL.002                    
 0701                                  0.365161  RAP.LSL.002                    
 0690                                  0.271501  RAP.LSL.002                    
 0681                                  0.119020  RAP.LSL.002                    
 0670                                  0.139291  RAP.LSL.002                    
 0657                                  0.142010  RAP.LSL.002                    
 0648                                  0.213304  RAP.LSL.002                    
 0614                                  0.247016  RAP.LSL.002                    
 0539                                  0.259377  RAP.LSL.002                    
 0583                                  0.107269  RAP.LSL.002                    
 0735                                  0.187045  RAP.LSL.002                    
 0742                                  0.118033  RAP.LSL.002                    
 0772                                  0.000000                                
 0749                                  0.117307  RAP.LSL.002                    
 0740                                  0.185397  RAP.LSL.002                    
 0752                                  0.272460  RAP.LSL.002                    
 0739                                  0.277604  RAP.LSL.002                    
 0755                                  0.194513  RAP.LSL.002                    
 0747                                  0.111771  RAP.LSL.002                    
 0743                                  0.162109  RAP.LSL.002                    
 0753                                  0.290818  RAP.LSL.002                    
 0769                                  0.290603  RAP.LSL.002                    
 0760                                  0.141503  RAP.LSL.002                    
 0761                                  0.191194  RAP.LSL.002                    
 0754                                  0.215981  RAP.LSL.002                    
 0697                                  0.219077  RAP.LSL.002                    
 0706                                  0.222611  RAP.LSL.002                    
 0704                                  0.166099  RAP.LSL.002                    
 0713                                  0.170140  RAP.LSL.002                    
 0710                                  0.164712  RAP.LSL.002                    
 0725                                  0.167072  RAP.LSL.002                    
 0736                                  0.180974  RAP.LSL.002                    
 0722                                  0.185551  RAP.LSL.002                    
 0767                                  0.113577  RAP.LSL.002                    
 0763                                  0.073435  RAP.LSL.002                    
 0719                                  0.025001  RAP.LSL.002                    
 0707                                  0.090471  RAP.LSL.002                    
 0714                                  0.094512  RAP.LSL.002                    
 0721                                  0.066996  RAP.LSL.002                    
 0727                                  0.124695  RAP.LSL.002                    
 0718                                  0.190667  RAP.LSL.002                    
 0705                                  0.212726  RAP.LSL.002                    
 0731                                  0.196049  RAP.LSL.002                    
 0751                                  0.275547  RAP.LSL.002                    
 0757                                  0.084777  RAP.LSL.002                    
 0762                                  0.115547  RAP.LSL.002                    
 0773                                  0.261077  RAP.LSL.002                    
 0788                                  0.262864  RAP.LSL.002                    
 0770                                  0.259703  RAP.LSL.002                    
 0785                                  0.263335  RAP.LSL.002                    
 0780                                  0.228519  RAP.LSL.002                    
 0784                                  0.224273  RAP.LSL.002                    
 0787                                  0.181910  RAP.LSL.002                    
 0791                                  0.115905  RAP.LSL.002                    
 0790                                  0.228835  RAP.LSL.002                    
 0794                                  0.234162  RAP.LSL.002                    
 0793                                  0.220734  RAP.LSL.002                    
 0799                                  0.129058  RAP.LSL.002                    
 0796                                  0.221726  RAP.LSL.002                    
 0777                                  0.126362  RAP.LSL.002                    
 0781                                  0.007053  RAP.LSL.002                    
 0776                                  0.047168  RAP.LSL.002                    
 0804                                  0.133737  RAP.LSL.002                    
 0800                                  0.126651  RAP.LSL.002                    
 0795                                  0.173581  RAP.LSL.002                    
 0792                                  0.251774  RAP.LSL.002                    
 0775                                  0.082924  RAP.LSL.002                    
 0786                                  0.288010  RAP.LSL.002                    
 0782                                  0.000000                                
 0802                                  0.000000                                
 0771                                  0.119518  RAP.LSL.002                    
 0766                                  0.237528  RAP.LSL.002                    
 0756                                  0.259098  RAP.LSL.002                    
 0744                                  0.178451  RAP.LSL.002                    
 0750                                  0.106366  RAP.LSL.002                    
 0737                                  0.268409  RAP.LSL.002                    
 0745                                  0.181919  RAP.LSL.002                    
 0886                                  0.001823  RAP.LSL.002                    
 0925                                  0.043433  RAP.LSL.002                    
 0541                                  0.163265  RAP.LSL.002                    
 0955                                  0.000360  RAP.LSL.002                    
 0821                                  0.309483  RAP.LSL.002                    
 1612043                               0.000000                                
 0986                                  0.000860  RAP.LSL.002                    
 0954                                  0.000203  RAP.LSL.002                    
 0407                                  0.044115  RAP.LSL.002                    
 0406                                  0.001961  RAP.LSL.002                    
 0387                                  0.011077  RAP.LSL.002                    
 0388                                  0.001879  RAP.LSL.002                    
 0498                                  0.000000                                
 0378                                  0.062323  RAP.LSL.002                    
 0372                                  0.000930  RAP.LSL.002                    
 0452                                  0.067596  RAP.LSL.002                    
 0371                                  0.016390  RAP.LSL.002                    
 0454                                  0.003271  RAP.LSL.002                    
 0455                                  0.116605  RAP.LSL.002                    
 0502                                  0.131301  RAP.LSL.002                    
 0343                                  0.099424  RAP.LSL.002                    
 0196                                  0.060603  RAP.LSL.002                    
 0333                                  0.123003  RAP.LSL.002                    
 0365                                  0.112017  RAP.LSL.002                    
 0384                                  0.081834  RAP.LSL.002                    
 0205                                  0.114494  RAP.LSL.002                    
 0456                                  0.103736  RAP.LSL.002                    
 0364                                  0.075026  RAP.LSL.002                    
 0358                                  0.099990  RAP.LSL.002                    
 0340                                  0.094176  RAP.LSL.002                    
 0391                                  0.012667  RAP.LSL.002                    
 0404                                  0.004679  RAP.LSL.002                    
 0399                                  0.001626  RAP.LSL.002                    
 0401                                  0.044674  RAP.LSL.002                    
 0418                                  0.044642  RAP.LSL.002                    
 0599                                  0.000000                                
 0443                                  0.037576  RAP.LSL.002                    
 0450                                  0.133788  RAP.LSL.002                    
 0447                                  0.003297  RAP.LSL.002                    
 0441                                  0.002956  RAP.LSL.002                    
 0444                                  0.010642  RAP.LSL.002                    
 0612                                  0.000000                                
 0437                                  0.005023  RAP.LSL.002                    
 0440                                  0.089277  RAP.LSL.002                    
 0601                                  0.001005  RAP.LSL.002                    
 0429                                  0.096768  RAP.LSL.002                    
 0439                                  0.065301  RAP.LSL.002                    
 0619                                  0.000000                                
 0618                                  0.000000                                
 0517                                  0.031187  RAP.LSL.002                    
 0497                                  0.089472  RAP.LSL.002                    
 0634                                  0.000000                                
 0621                                  0.000000                                
 0633                                  0.000000                                
 0635                                  0.000000                                
 0606                                  0.000000                                
 0607                                  0.000000                                
 0554                                  0.032933  RAP.LSL.002                    
 0585                                  0.000000                                
 0587                                  0.000000                                
 0609                                  0.000000                                
 0525                                  0.000000                                
 0597                                  0.025540  RAP.LSL.002                    
 0588                                  0.000000                                
 0615                                  0.000000                                
 0617                                  0.000000                                
 0506                                  0.090831  RAP.LSL.002                    
 0524                                  0.069879  RAP.LSL.002                    
 0523                                  0.095357  RAP.LSL.002                    
 0347                                  0.099879  RAP.LSL.002                    
 0402                                  0.002575  RAP.LSL.002                    
 0400                                  0.084123  RAP.LSL.002                    
 0369                                  0.140044  RAP.LSL.002                    
 0508                                  0.066013  RAP.LSL.002                    
 0478                                  0.015457  RAP.LSL.002                    
 0480                                  0.003157  RAP.LSL.002                    
 0488                                  0.092512  RAP.LSL.002                    
 0515                                  0.062628  RAP.LSL.002                    
 0516                                  0.001128  RAP.LSL.002                    
 0393                                  0.001268  RAP.LSL.002                    
 0392                                  0.000634  RAP.LSL.002                    
 0390                                  0.003580  RAP.LSL.002                    
 0389                                  0.025016  RAP.LSL.002                    
 0382                                  0.039895  RAP.LSL.002                    
 0438                                  0.066436  RAP.LSL.002                    
 0434                                  0.008340  RAP.LSL.002                    
 0556                                  0.003469  RAP.LSL.002                    
 0555                                  0.001421  RAP.LSL.002                    
 0459                                  0.004461  RAP.LSL.002                    
 0464                                  0.067079  RAP.LSL.002                    
 0457                                  0.052630  RAP.LSL.002                    
 0410                                  0.023072  RAP.LSL.002                    
 0395                                  0.005131  RAP.LSL.002                    
 0414                                  0.049473  RAP.LSL.002                    
 0398                                  0.058076  RAP.LSL.002                    
 0421                                  0.072405  RAP.LSL.002                    
 0403                                  0.007335  RAP.LSL.002                    
 0415                                  0.055735  RAP.LSL.002                    
 0479                                  0.094391  RAP.LSL.002                    
 0491                                  0.092031  RAP.LSL.002                    
 0528                                  0.063148  RAP.LSL.002                    
 0529                                  0.001522  RAP.LSL.002                    
 0530                                  0.030199  RAP.LSL.002                    
 0501                                  0.044508  RAP.LSL.002                    
 0470                                  0.008857  RAP.LSL.002                    
 0435                                  0.039882  RAP.LSL.002                    
 0472                                  0.062030  RAP.LSL.002                    
 0537                                  0.132318  RAP.LSL.002                    
 0561                                  0.067925  RAP.LSL.002                    
 0568                                  0.096927  RAP.LSL.002                    
 0571                                  0.000732  RAP.LSL.002                    
 0572                                  0.025923  RAP.LSL.002                    
 0546                                  0.065857  RAP.LSL.002                    
 0548                                  0.000940  RAP.LSL.002                    
 0549                                  0.028846  RAP.LSL.002                    
 0604                                  0.010908  RAP.LSL.002                    
 0600                                  0.009140  RAP.LSL.002                    
 0589                                  0.016224  RAP.LSL.002                    
 0532                                  0.116517  RAP.LSL.002                    
 0481                                  0.002546  RAP.LSL.002                    
 0482                                  0.028788  RAP.LSL.002                    
 0344                                  0.001837  RAP.LSL.002                    
 0345                                  0.001870  RAP.LSL.002                    
 0346                                  0.001444  RAP.LSL.002                    
 0496                                  0.000000                                
 0461                                  0.000988  RAP.LSL.002                    
 0462                                  0.000283  RAP.LSL.002                    
 0463                                  0.017662  RAP.LSL.002                    
 0586                                  0.025653  RAP.LSL.002                    
 0559                                  0.017301  RAP.LSL.002                    
 0558                                  0.001320  RAP.LSL.002                    
 0379                                  0.000514  RAP.LSL.002                    
 0509                                  0.009081  RAP.LSL.002                    
 0380                                  0.001210  RAP.LSL.002                    
 0381                                  0.015177  RAP.LSL.002                    
 0177                                  0.073000  RAP.LSL.002                    
 0139                                  0.001000  RAP.LSL.002                    
 0835                                  0.008212  RAP.LSL.002                    
 0185                                  0.054000  RAP.LSL.002                    
 1052                                  0.116037  RAP.LSL.002                    
 0356                                  0.007000  RAP.LSL.002                    
 0353                                  0.004000  RAP.LSL.002                    
 0351                                  0.067000  RAP.LSL.002                    
 0352                                  0.003000  RAP.LSL.002                    
 0328                                  0.034000  RAP.LSL.002                    
 0330                                  0.014000  RAP.LSL.002                    
 0218                                  0.018000  RAP.LSL.002                    
 0245                                  0.019000  RAP.LSL.002                    
 0237                                  0.013000  RAP.LSL.002                    
 0248                                  0.030000  RAP.LSL.002                    
 0109                                  0.084000  RAP.LSL.002                    
 0290                                  0.080000  RAP.LSL.002                    
 0323                                  0.094000  RAP.LSL.002                    
 0285                                  0.018000  RAP.LSL.002                    
 0873                                  0.000035                                
 0874                                  0.001648                                
 0211                                  0.020000  RAP.LSL.002                    
 0186                                  0.023000  RAP.LSL.002                    
 0854                                  0.193507  RAP.LSL.002                    
 0360                                  0.092000  RAP.LSL.002                    
 0321                                  0.098000  RAP.LSL.002                    
 0291                                  0.002000  RAP.LSL.002                    
 0280                                  0.019000  RAP.LSL.002                    
 0255                                  0.043000  RAP.LSL.002                    
 0950                                  0.002492                                
 0949                                  0.075744  RAP.LSL.002                    
 0181                                  0.031000  RAP.LSL.002                    
 0234                                  0.047000  RAP.LSL.002                    
 0243                                  0.040000  RAP.LSL.002                    
 0267                                  0.009000  RAP.LSL.002                    
 0238                                  0.080000  RAP.LSL.002                    
 1007                                  0.044809  RAP.LSL.002                    
 0112                                  0.028000  RAP.LSL.002                    
 0120                                  0.061000  RAP.LSL.002                    
 0698                                  0.000000                                
 1057                                  0.018803  RAP.LSL.002                    
 1022                                  0.120246  RAP.LSL.002                    
 1029                                  0.101095  RAP.LSL.002                    
 1032                                  0.077581  RAP.LSL.002                    
 1010                                  0.123064  RAP.LSL.002                    
 0944                                  0.021986  RAP.LSL.002                    
 0860                                  0.125916  RAP.LSL.002                    
 0845                                  0.135231  RAP.LSL.002                    
 0847                                  0.052142  RAP.LSL.002                    
 0283                                  0.025000  RAP.LSL.002                    
 0284                                  0.009000  RAP.LSL.002                    
 0294                                  0.018000  RAP.LSL.002                    
 0836                                  0.052993  RAP.LSL.002                    
 0261                                  0.064000  RAP.LSL.002                    
 0262                                  0.003000  RAP.LSL.002                    
 0278                                  0.042000  RAP.LSL.002                    
 0276                                  0.014000  RAP.LSL.002                    
 0273                                  0.005000  RAP.LSL.002                    
 1023                                  0.000000                                
 0815                                  0.000000                                
 0270                                  0.002000  RAP.LSL.002                    
 0269                                  0.001000  RAP.LSL.002                    
 0260                                  0.040000  RAP.LSL.002                    
 0867                                  0.001158                                
 0265                                  0.004000  RAP.LSL.002                    
 0266                                  0.053000  RAP.LSL.002                    
 0309                                  0.054000  RAP.LSL.002                    
 0271                                  0.001000  RAP.LSL.002                    
 0272                                  0.127000  RAP.LSL.002                    
 0251                                  0.056000  RAP.LSL.002                    
 0531                                  0.000000                                
 0577                                  0.000000                                
 1064                                  0.046166  RAP.LSL.002                    
 1063                                  0.047684  RAP.LSL.002                    
 0990                                  0.167818  RAP.LSL.002                    
 0656                                  0.018320  RAP.LSL.002                    
 0866                                  0.197957  RAP.LSL.002                    
 0869                                  0.124218  RAP.LSL.002                    
 0922                                  0.107972  RAP.LSL.002                    
 0289                                  0.005000  RAP.LSL.002                    
 0924                                  0.015740  RAP.LSL.002                    
 0933                                  0.045334  RAP.LSL.002                    
 0947                                  0.073122  RAP.LSL.002                    
 0959                                  0.000000                                
 0961                                  0.000000                                
 0923                                  0.195447  RAP.LSL.002                    
 0943                                  0.267726  RAP.LSL.002                    
 0936                                  0.041194  RAP.LSL.002                    
 0972                                  0.043118  RAP.LSL.002                    
 0952                                  0.007648  RAP.LSL.002                    
 1018                                  0.000310  RAP.LSL.002                    
 1016                                  0.000316  RAP.LSL.002                    
 0100                                  0.157000  RAP.LSL.002                    
 0131                                  0.095000  RAP.LSL.002                    
 0114                                  0.116000  RAP.LSL.002                    
 0142                                  0.082000  RAP.LSL.002                    
 0143                                  0.038000  RAP.LSL.002                    
 1049                                  0.001545                                
 1036                                  0.005742  RAP.LSL.002                     ;  
 1036                                  0.005742  RAP.LSL.002                     ;  
 1036                                  0.005742                                 ;  
 0315                                  0.005000  RAP.LSL.002                    
 0316                                  0.001000  RAP.LSL.002                    
 0324                                  0.117000  RAP.LSL.002                    
 0206                                  0.024000  RAP.LSL.002                    
 0173                                  0.115000  RAP.LSL.002                    
 0220                                  0.002000  RAP.LSL.002                    
 0219                                  0.036000  RAP.LSL.002                    
 0167                                  0.039000  RAP.LSL.002                    
 0168                                  0.004000  RAP.LSL.002                    
 0976                                  0.000000                                
 0977                                  0.000000                                
 0121                                  0.129000  RAP.LSL.002                    
 0797                                  0.442514  RAP.LSL.002                    
 1050                                  0.001545  RAP.LSL.002                    
 0816                                  0.000635  RAP.LSL.002                    
 1031                                  0.000000                                
 1030                                  0.000000                                
 1024                                  0.002085  RAP.LSL.002                    
 1027                                  0.004144  RAP.LSL.002                    
 1026                                  0.002664  RAP.LSL.002                    
 1025                                  0.002124  RAP.LSL.002                    
 0322                                  0.002000  RAP.LSL.002                    
 0320                                  0.001000  RAP.LSL.002                    
 0319                                  0.072000  RAP.LSL.002                    
 0314                                  0.008000  RAP.LSL.002                    
 0311                                  0.001000  RAP.LSL.002                    
 0310                                  0.072000  RAP.LSL.002                    
 0256                                  0.027000  RAP.LSL.002                    
 0257                                  0.002000  RAP.LSL.002                    
 0928                                  0.000000                                
 0927                                  0.000000                                
 0999                                  0.009074  RAP.LSL.002                     ;  
 0999                                  0.009074  RAP.LSL.002                     ;  
 0998                                  0.005643  RAP.LSL.002                    
 0926                                  0.001037  RAP.LSL.002                    
 0895                                  0.099977  RAP.LSL.002                    
 0868                                  0.001158  RAP.LSL.002                    
 0957                                  0.002300  RAP.LSL.002                    
 0958                                  0.002480  RAP.LSL.002                    
 0960                                  0.004738  RAP.LSL.002                    
 0658                                  0.018320  RAP.LSL.002                    
 0654                                  0.000000                                
 0837                                  0.021187  RAP.LSL.002                    
 0838                                  0.001434  RAP.LSL.002                    
 0299                                  0.084000  RAP.LSL.002                    
 0231                                  0.037000  RAP.LSL.002                    
 0229                                  0.059000  RAP.LSL.002                    
 0834                                  0.046802  RAP.LSL.002                    
 0827                                  0.123248  RAP.LSL.002                    
 0824                                  0.132280  RAP.LSL.002                    
 0929                                  0.085596  RAP.LSL.002                    
 0130                                  0.022000  RAP.LSL.002                    
 0134                                  0.010000  RAP.LSL.002                    
 0183                                  0.017000  RAP.LSL.002                    
 0182                                  0.022000  RAP.LSL.002                    
 1040                                  0.112515  RAP.LSL.002                    
 0099                                  0.038000  RAP.LSL.002                    
 0092                                  0.137000  RAP.LSL.002                    
 0825                                  0.168091  RAP.LSL.002                    
 0881                                  0.114608  RAP.LSL.002                    
 0879                                  0.024645  RAP.LSL.002                    
 0861                                  0.118054  RAP.LSL.002                    
 0878                                  0.155418  RAP.LSL.002                    
 0872                                  0.077630  RAP.LSL.002                    
 0864                                  0.180726  RAP.LSL.002                    
 0853                                  0.087402  RAP.LSL.002                    
 0870                                  0.117931  RAP.LSL.002                    
 0814                                  0.000000                                
 0806                                  0.000000                                
 0303                                  0.073000  RAP.LSL.002                    
 0942                                  0.003860  RAP.LSL.002                    
 0823                                  0.000969  RAP.LSL.002                    
 1060                                  0.003454  RAP.LSL.002                    
 1059                                  0.001303  RAP.LSL.002                    
 1046                                  0.000000                                
 1051                                  0.000000                                
 1048                                  0.000000                                
 0964                                  0.076105  RAP.LSL.002                    
 0209                                  0.040000  RAP.LSL.002                    
 0210                                  0.031000  RAP.LSL.002                    
 0221                                  0.036000  RAP.LSL.002                    
 0819                                  0.060499  RAP.LSL.002                    
 0349                                  0.058000  RAP.LSL.002                    
 0350                                  0.006000  RAP.LSL.002                    
 0809                                  0.103464  RAP.LSL.002                    
 0995                                  0.016135  RAP.LSL.002                    
 0988                                  0.010569  RAP.LSL.002                    
 0987                                  0.001181  RAP.LSL.002                    
 0906                                  0.043946  RAP.LSL.002                    
 0899                                  0.001786  RAP.LSL.002                    
 0900                                  0.043985  RAP.LSL.002                    
 0876                                  0.001901  RAP.LSL.002                    
 0877                                  0.153712  RAP.LSL.002                    
 0945                                  0.032066  RAP.LSL.002                    
 0973                                  0.121669  RAP.LSL.002                    
 0971                                  0.080003  RAP.LSL.002                    
 1001                                  0.013888  RAP.LSL.002                    
 0902                                  0.156940  RAP.LSL.002                    
 0903                                  0.003255  RAP.LSL.002                    
 0904                                  0.001775  RAP.LSL.002                    
 0905                                  0.001208  RAP.LSL.002                    
 0897                                  0.003626  RAP.LSL.002                    
 0901                                  0.021843  RAP.LSL.002                    
 0896                                  0.003159  RAP.LSL.002                    
 0812                                  0.095969  RAP.LSL.002                    
 0808                                  0.458415  RAP.LSL.002                    
 0829                                  0.285957  RAP.LSL.002                    
 0833                                  0.027072  RAP.LSL.002                    
 0871                                  0.046541  RAP.LSL.002                    
 0880                                  0.089886  RAP.LSL.002                    
 0849                                  0.007241  RAP.LSL.002                    
 0882                                  0.206241  RAP.LSL.002                    
 0919                                  0.014598  RAP.LSL.002                    
 0859                                  0.158489  RAP.LSL.002                    
 0913                                  0.175241  RAP.LSL.002                    
 0863                                  0.000035  RAP.LSL.002                    
 0862                                  0.067549  RAP.LSL.002                    
 0916                                  0.001691  RAP.LSL.002                    
 0917                                  0.073809  RAP.LSL.002                    
 0907                                  0.114956  RAP.LSL.002                    
 0915                                  0.099730  RAP.LSL.002                    
 0914                                  0.035708  RAP.LSL.002                    
 0875                                  0.003477  RAP.LSL.002                    
 0894                                  0.003017  RAP.LSL.002                    
 0846                                  0.079723  RAP.LSL.002                    
 0855                                  0.079762  RAP.LSL.002                    
 0856                                  0.001951  RAP.LSL.002                    
 0975                                  0.049527  RAP.LSL.002                    
 1003                                  0.023158  RAP.LSL.002                    
 0258                                  0.153000  RAP.LSL.002                    
 0259                                  0.001000  RAP.LSL.002                    
 0989                                  0.089664  RAP.LSL.002                    
 0841                                  0.002637  RAP.LSL.002                    
 0858                                  0.001192  RAP.LSL.002                    
 0857                                  0.000038  RAP.LSL.002                    
 0968                                  0.069162  RAP.LSL.002                    
 0295                                  0.002000  RAP.LSL.002                    
 0304                                  0.030000  RAP.LSL.002                    
 1020                                  0.223323  RAP.LSL.002                    
 0306                                  0.009000  RAP.LSL.002                    
 0307                                  0.005000  RAP.LSL.002                    
 1002                                  0.163283  RAP.LSL.002                    
 1019                                  0.225735  RAP.LSL.002                    
 0335                                  0.001000  RAP.LSL.002                    
 0325                                  0.018000  RAP.LSL.002                    
 1062                                  0.005202  RAP.LSL.002                    
 1058                                  0.004953  RAP.LSL.002                    
 0963                                  0.001156                                
 0962                                  0.004933  RAP.LSL.002                    
 0946                                  0.067322  RAP.LSL.002                    
 0956                                  0.007455  RAP.LSL.002                    
 0932                                  0.010795  RAP.LSL.002                    
 0934                                  0.005750  RAP.LSL.002                    
 1033                                  0.049505  RAP.LSL.002                    
 1028                                  0.051023  RAP.LSL.002                    
 1041                                  0.002001  RAP.LSL.002                    
 1045                                  0.050245  RAP.LSL.002                    
 1053                                  0.048727  RAP.LSL.002                    
 1042                                  0.002039  RAP.LSL.002                    
 1043                                  0.002124  RAP.LSL.002                    
 1044                                  0.003603  RAP.LSL.002                    
 1011                                  0.124693  RAP.LSL.002                    
 0326                                  0.064000  RAP.LSL.002                    
 0337                                  0.076000  RAP.LSL.002                    
 0889                                  0.043916  RAP.LSL.002                    
 0890                                  0.001104  RAP.LSL.002                    
 0892                                  0.002902  RAP.LSL.002                    
 0891                                  0.002591  RAP.LSL.002                    
 0938                                  0.244399  RAP.LSL.002                    
 0939                                  0.027610  RAP.LSL.002                    
 0941                                  0.002551  RAP.LSL.002                    
 0940                                  0.001251  RAP.LSL.002                    
 0912                                  0.024806  RAP.LSL.002                    
 0918                                  0.240110  RAP.LSL.002                    
 0885                                  0.000374  RAP.LSL.002                    
 0828                                  0.002986                                
 0831                                  0.003025  RAP.LSL.002                    
 0832                                  0.001361  RAP.LSL.002                    
 0817                                  0.022050  RAP.LSL.002                    
 1015                                  0.097476  RAP.LSL.002                    
 1008                                  0.042815  RAP.LSL.002                    
 1039                                  0.038599  RAP.LSL.002                    
 1034                                  0.061772  RAP.LSL.002                    
 0951                                  0.089043  RAP.LSL.002                    
 0969                                  0.068158  RAP.LSL.002                    
 1000                                  0.038108  RAP.LSL.002                    
 0991                                  0.063366  RAP.LSL.002                    
 0842                                  0.027735  RAP.LSL.002                    
 0830                                  0.100297  RAP.LSL.002                    
 1009                                  0.068507  RAP.LSL.002                    
 0820                                  0.078267  RAP.LSL.002                    
 0818                                  0.029145  RAP.LSL.002                    
 1021                                  0.040443  RAP.LSL.002                    
 1017                                  0.077381  RAP.LSL.002                    
 1013                                  0.000399  RAP.LSL.002                    
 0981                                  0.002223  RAP.LSL.002                    
 0980                                  0.002377  RAP.LSL.002                    
 0850                                  0.074234  RAP.LSL.002                    
 0844                                  0.134219  RAP.LSL.002                    
 0994                                  0.036981  RAP.LSL.002                    
 0979                                  0.015410  RAP.LSL.002                    
 0982                                  0.025968  RAP.LSL.002                    
 0108                                  0.049000  RAP.LSL.002                    
 0107                                  0.001000  RAP.LSL.002                    
 0175                                  0.038000  RAP.LSL.002                    
 0985                                  0.004888  RAP.LSL.002                    
 0984                                  0.001595  RAP.LSL.002                    
 0983                                  0.073843  RAP.LSL.002                    
 0103                                  0.041000  RAP.LSL.002                    
 0164                                  0.067000  RAP.LSL.002                    
 0165                                  0.015000  RAP.LSL.002                    
 0150                                  0.090000  RAP.LSL.002                    
 0166                                  0.052000  RAP.LSL.002                    
 0170                                  0.009000  RAP.LSL.002                    
 0171                                  0.000000                                
 0192                                  0.048000  RAP.LSL.002                    
 0151                                  0.105000  RAP.LSL.002                    
 0288                                  0.060000  RAP.LSL.002                    
 0203                                  0.057000  RAP.LSL.002                    
 0202                                  0.014000  RAP.LSL.002                    
 0199                                  0.044000  RAP.LSL.002                    
 0160                                  0.127000  RAP.LSL.002                    
 0161                                  0.001000  RAP.LSL.002                    
 0888                                  0.001608  RAP.LSL.002                    
 0887                                  0.000360  RAP.LSL.002                    
 0978                                  0.002070  RAP.LSL.002                    
 0126                                  0.106000  RAP.LSL.002                    
 0125                                  0.001000  RAP.LSL.002                    
 0227                                  0.173000  RAP.LSL.002                    
 0253                                  0.002000  RAP.LSL.002                    
 0254                                  0.001000  RAP.LSL.002                    
 0263                                  0.004000  RAP.LSL.002                    
 0133                                  0.054000  RAP.LSL.002                    
 0111                                  0.021000  RAP.LSL.002                    
 0119                                  0.057000  RAP.LSL.002                    
 0334                                  0.054000  RAP.LSL.002                    
 0215                                  0.047000  RAP.LSL.002                    
 0035                                  0.148000  RAP.LSL.002                    
 0116                                  0.301000  RAP.LSL.002                    
 0162                                  0.078000  RAP.LSL.002                    
 0226                                  0.134000  RAP.LSL.002                    
 0145                                  0.022000  RAP.LSL.002                    
 0158                                  0.022000  RAP.LSL.002                    
 0159                                  0.002000  RAP.LSL.002                    
 0193                                  0.070000  RAP.LSL.002                    
 0232                                  0.031000  RAP.LSL.002                    
 0072                                  0.017000  RAP.LSL.002                    
 1054                                  0.030732  RAP.LSL.002                    
 1056                                  0.078428  RAP.LSL.002                    
 1055                                  0.075476  RAP.LSL.002                    
 0086                                  0.049000  RAP.LSL.002                    
 0077                                  0.029000  RAP.LSL.002                    
 0083                                  0.070000  RAP.LSL.002                    
 0094                                  0.099000  RAP.LSL.002                    
 0090                                  0.053000  RAP.LSL.002                    
 0081                                  0.003000  RAP.LSL.002                    
 0078                                  0.009000  RAP.LSL.002                    
 0075                                  0.012000  RAP.LSL.002                    
 0074                                  0.033000  RAP.LSL.002                    
 0063                                  0.032000  RAP.LSL.002                    
 0059                                  0.013000  RAP.LSL.002                    
 0312                                  0.003000  RAP.LSL.002                    
 0313                                  0.001000  RAP.LSL.002                    
 0318                                  0.110000  RAP.LSL.002                    
 0329                                  0.034000  RAP.LSL.002                    
 0239                                  0.055000  RAP.LSL.002                    
 0057                                  0.021000  RAP.LSL.002                    
 0061                                  0.002000  RAP.LSL.002                    
 0062                                  0.005000  RAP.LSL.002                    
 0054                                  0.029000  RAP.LSL.002                    
 0049                                  0.032000  RAP.LSL.002                    
 0852                                  0.067552  RAP.LSL.002                    
 0851                                  0.015521  RAP.LSL.002                    
 0848                                  0.186277  RAP.LSL.002                    
 0046                                  0.028000  RAP.LSL.002                    
 0893                                  0.170583  RAP.LSL.002                    
 0898                                  0.018657  RAP.LSL.002                    
 0041                                  0.017000  RAP.LSL.002                    
 0911                                  0.186078  RAP.LSL.002                    
 0921                                  0.079605  RAP.LSL.002                    
 0036                                  0.012000  RAP.LSL.002                    
 0037                                  0.011000  RAP.LSL.002                    
 0027                                  0.018000  RAP.LSL.002                    
 0022                                  0.022000  RAP.LSL.002                    
 0020                                  0.022000  RAP.LSL.002                    
 0015                                  0.022000  RAP.LSL.002                    
 0013                                  0.022000  RAP.LSL.002                    
 0009                                  0.022000  RAP.LSL.002                    
 0104                                  0.001000  RAP.LSL.002                    
 0105                                  0.001000  RAP.LSL.002                    
 0106                                  0.001000  RAP.LSL.002                    
 0002                                  0.023000  RAP.LSL.002                    
 0974                                  0.163246  RAP.LSL.002                    
 0965                                  0.241260  RAP.LSL.002                    
 0001                                  0.017000  RAP.LSL.002                    
 0006                                  0.011000  RAP.LSL.002                    
 0136                                  0.010000  RAP.LSL.002                    
 0129                                  0.010000  RAP.LSL.002                    
 0127                                  0.001000  RAP.LSL.002                    
 0003                                  0.019000  RAP.LSL.002                    
 0115                                  0.035000  RAP.LSL.002                    
 0117                                  0.021000  RAP.LSL.002                    
 0011                                  0.023000  RAP.LSL.002                    
 0008                                  0.017000  RAP.LSL.002                    
 0137                                  0.079000  RAP.LSL.002                    
 0118                                  0.103000  RAP.LSL.002                    
 0004                                  0.010000  RAP.LSL.002                    
 0909                                  0.156074  RAP.LSL.002                    
 0908                                  0.141928  RAP.LSL.002                    
 0005                                  0.007000  RAP.LSL.002                    
 0007                                  0.009000  RAP.LSL.002                    
 0010                                  0.012000  RAP.LSL.002                    
 0012                                  0.013000  RAP.LSL.002                    
 0724                                  0.080140  RAP.LSL.002                    
 0014                                  0.019000  RAP.LSL.002                    
 0017                                  0.026000  RAP.LSL.002                    
 0021                                  0.026000  RAP.LSL.002                    
 0025                                  0.022000  RAP.LSL.002                    
 0028                                  0.012000  RAP.LSL.002                    
 0031                                  0.006000  RAP.LSL.002                    
 0033                                  0.008000  RAP.LSL.002                    
 0354                                  0.129000  RAP.LSL.002                    
 0355                                  0.009000  RAP.LSL.002                    
 0034                                  0.010000  RAP.LSL.002                    
 0339                                  0.126000  RAP.LSL.002                    
 0338                                  0.126000  RAP.LSL.002                    
 0032                                  0.011000  RAP.LSL.002                    
 0144                                  0.009000  RAP.LSL.002                    
 0029                                  0.014000  RAP.LSL.002                    
 0122                                  0.064000  RAP.LSL.002                    
 0123                                  0.001000  RAP.LSL.002                    
 0026                                  0.021000  RAP.LSL.002                    
 0155                                  0.041000  RAP.LSL.002                    
 0156                                  0.045000  RAP.LSL.002                    
 0157                                  0.039000  RAP.LSL.002                    
 0039                                  0.035000  RAP.LSL.002                    
 0087                                  0.026000  RAP.LSL.002                    
 0088                                  0.128000  RAP.LSL.002                    
 0038                                  0.032000  RAP.LSL.002                    
 0045                                  0.015000  RAP.LSL.002                    
 0048                                  0.011000  RAP.LSL.002                    
 0051                                  0.017000  RAP.LSL.002                    
 0052                                  0.011000  RAP.LSL.002                    
 0050                                  0.011000  RAP.LSL.002                    
 0047                                  0.022000  RAP.LSL.002                    
 0040                                  0.022000  RAP.LSL.002                    
 0030                                  0.022000  RAP.LSL.002                    
 0023                                  0.033000  RAP.LSL.002                    
 0826                                  0.128243  RAP.LSL.002                    
 0019                                  0.025000  RAP.LSL.002                    
 0018                                  0.008000  RAP.LSL.002                    
 0016                                  0.041000  RAP.LSL.002                    
 0024                                  0.053000  RAP.LSL.002                    
 0042                                  0.023000  RAP.LSL.002                    
 0043                                  0.029000  RAP.LSL.002                    
 0044                                  0.040000  RAP.LSL.002                    
 1006                                  0.017162  RAP.LSL.002                    
 0997                                  0.039956  RAP.LSL.002                    
 0730                                  0.058756  RAP.LSL.002                    
 0053                                  0.029000  RAP.LSL.002                    
 0055                                  0.019000  RAP.LSL.002                    
 0056                                  0.015000  RAP.LSL.002                    
 0058                                  0.015000  RAP.LSL.002                    
 0060                                  0.018000  RAP.LSL.002                    
 0069                                  0.012000  RAP.LSL.002                    
 0066                                  0.031000  RAP.LSL.002                    
 0085                                  0.047000  RAP.LSL.002                    
 1061                                  0.520631  RAP.LSL.002                    
 1038                                  0.135902  RAP.LSL.002                    
 1037                                  0.002576  RAP.LSL.002                    
 0082                                  0.011000  RAP.LSL.002                    
 0080                                  0.011000  RAP.LSL.002                    
 0076                                  0.011000  RAP.LSL.002                    
 0084                                  0.097000  RAP.LSL.002                    
 0093                                  0.114000  RAP.LSL.002                    
 0073                                  0.014000  RAP.LSL.002                    
 0071                                  0.034000  RAP.LSL.002                    
 0810                                  0.001284  RAP.LSL.002                    
 0811                                  0.293229  RAP.LSL.002                    
 0839                                  0.293229  RAP.LSL.002                    
 0840                                  0.001280  RAP.LSL.002                    
 0070                                  0.038000  RAP.LSL.002                    
 0064                                  0.009000  RAP.LSL.002                    
 0068                                  0.017000  RAP.LSL.002                    
 0065                                  0.021000  RAP.LSL.002                    
 0067                                  0.007000  RAP.LSL.002                    
 0135                                  0.003000  RAP.LSL.002                    
 0140                                  0.005000  RAP.LSL.002                    
 0138                                  0.001000  RAP.LSL.002                    
 0174                                  0.034000  RAP.LSL.002                    
 0148                                  0.064000  RAP.LSL.002                    
 1609264                               0.000000                                
 1609263                               0.000000                                
 1609262                               0.000000                                
 1609261                               0.000000                                
 1609259                               0.000000                                
 1609258                               0.000000                                
 1609256                               0.000000                                
 1609255                               0.000000                                
 1609253                               0.000000                                
 1609252                               0.000000                                
 1609251                               0.000000                                
 1609250                               0.000000                                
 1609249                               0.000000                                
 1609247                               0.000000                                
 1609246                               0.000000                                
 1609244                               0.000000                                
 1609243                               0.000000                                
 1609223                               0.000000                                
 1609222                               0.000000                                
 1609221                               0.000000                                
 1609220                               0.000000                                
 1609219                               0.000000                                
 1609218                               0.000000                                
 1609217                               0.000000                                
 1609216                               0.000000                                
 1609215                               0.000000                                
 1609204                               0.000000                                
 1609203                               0.000000                                
 1609202                               0.000000                                
 1609122                               0.000000                                
 1609121                               0.000000                                
 1609120                               0.000000                                
 1609119                               0.000000                                
 1609118                               0.000000                                
 1609117                               0.000000                                
 1609115                               0.000000                                
 1609110                               0.000000                                
 1609108                               0.000000                                
 1609107                               0.000000                                
 1609106                               0.000000                                
 1609105                               0.000000                                
 1609104                               0.000000                                
 1609103                               0.000000                                
 1609078                               0.000000                                
 1608983                               0.000000                                
 1608981                               0.000000                                
 1608976                               0.000000                                
 1608975                               0.000000                                
 1608952_n2a_2                         0.000000                                
 1608952_n2a_1                         0.000000                                
 1608951                               0.020593  RAP.PPL.002_002                
 1608934                               0.000000                                
 1608916                               0.000000                                
 1608879                               0.000000                                
 1608878                               0.000000                                
 1608877                               0.000000                                
 1608873                               0.000000                                
 1608872                               0.000000                                
 1608871                               0.000000                                
 1608870                               0.000000                                
 1608868                               0.000000                                
 1608867                               0.000000                                
 1608866                               0.000000                                
 1608865                               0.000000                                
 1608861                               0.000000                                
 1608844                               0.000000                                
 1608421                               0.000000                                
 1607061                               0.000000                                
 1607056                               0.000000                                
 1607041                               0.000000                                
 1607019                               0.000000                                
 1607018                               0.000000                                
 1607016                               0.000000                                
 0884                                  0.004754  RAP.LSL.002                    
 0883                                  0.024000  RAP.LSL.002                    
 1606627_n2a_2                         0.000000                                
 1606627_n2a_1                         0.000000                                
 1606626                               0.000000                                
 1606625                               0.000000                                
 1606624                               0.000000                                
 1606623                               0.000000                                
 1606182                               0.000000                                
 1606181                               0.000000                                
 1606176                               0.000000                                
 1606175                               0.000000                                
 1606174                               0.000000                                
 1606173                               0.000000                                
 1606172                               0.000000                                
 1606171                               0.000000                                
 1606170                               0.000000                                
 1606166                               0.000000                                
 1606165                               0.000000                                
 1606162                               0.000000                                
 1606161                               0.000000                                
 1606160                               0.000000                                
 1606159                               0.000000                                
 1606158                               0.000000                                
 1606157                               0.000000                                
 1606156                               0.000000                                
 1606155                               0.000000                                
 1606143                               0.000000                                
 1606142                               0.000000                                
 1606141                               0.000000                                
 1606139                               0.000000                                
 1606138                               0.000000                                
 1606137                               0.000000                                
 1606131                               0.000000                                
 1606130                               0.000000                                
 1606128                               0.000000                                
 1606127                               0.000000                                
 1606126                               0.000000                                
 1606114_n2a_2                         0.000000                                
 1606114_n2a_1                         0.000000                                
 1606112                               0.000000                                
 1606111                               0.000000                                
 1606110                               0.000000                                
 1604966                               0.000000                                
 1604964                               0.000000                                
 1604963                               0.000000                                
 1600597                               0.000000                                
 J-5                                   0.000000                                
 J-6                                   0.000000                                
 J-7                                   0.000000                                
 J-8                                   0.000000                                
 J-9                                   0.000000                                
 J-10                                  0.000000                                
 J-11                                  0.000000                                
 J-12                                  0.000000                                
 J-13                                  0.000000                                
 J-14                                  0.000000                                
 J-15                                  0.000000                                
 J-16                                  0.000000                                
 J-17                                  0.000000                                
 J-18                                  0.000000                                
 J-19                                  0.000000                                
 J-20                                  0.000000                                
 J-21                                  0.000000                                
 0679                                  0.000000                                
 0675                                  0.035000  RAP.PPL.002_002                
 0643                                  0.086000  RAP.PPL.002_002                
 0550                                  0.131000  RAP.PPL.002_002                
 0223                                  0.018000  RAP.LSL.002                    
 0301                                  0.063000  RAP.LSL.002                    
 0287                                  0.023000  RAP.LSL.002                    
 0331                                  0.054000  RAP.LSL.002                    
 0178                                  0.042000  RAP.LSL.002                    
 0249                                  0.019000  RAP.LSL.002                    
 0252                                  0.017000  RAP.LSL.002                    
 0298                                  0.014000  RAP.LSL.002                    
 0305                                  0.121000  RAP.LSL.002                    
 0240                                  0.015000  RAP.LSL.002                    
 0244                                  0.048000  RAP.LSL.002                    
 0222                                  0.078000  RAP.LSL.002                    
 0201                                  0.036000  RAP.LSL.002                    
 0163                                  0.022000  RAP.LSL.002                    
 0264                                  0.067000  RAP.LSL.002                    
 0213                                  0.036000  RAP.LSL.002                    
 0241                                  0.084000  RAP.LSL.002                    
 0207                                  0.032000  RAP.LSL.002                    
 0217                                  0.100000  RAP.LSL.002                    
 0216                                  0.096000  RAP.LSL.002                    
 0204                                  0.125000  RAP.LSL.002                    
 0187                                  0.171000  RAP.LSL.002                    
 0236                                  0.056000  RAP.LSL.002                    
 0184                                  0.042000  RAP.LSL.002                    
 0242                                  0.056000  RAP.LSL.002                    
 0246                                  0.056000  RAP.LSL.002                    
 0910                                  0.230190  RAP.LSL.002                    
 0843                                  0.020946  RAP.LSL.002                    
 0560                                  0.061474  RAP.LSL.002                    
 0596                                  0.189718  RAP.LSL.002                    
 0544                                  0.115782  RAP.LSL.002                    
 0503                                  0.093650  RAP.LSL.002                    
 0533                                  0.066097  RAP.LSL.002                    
 0487                                  0.068396  RAP.LSL.002                    
 0445                                  0.075933  RAP.LSL.002                    
 0413                                  0.045695  RAP.LSL.002                    
 0367                                  0.084185  RAP.LSL.002                    
 0397                                  0.088773  RAP.LSL.002                    
 0466                                  0.096986  RAP.LSL.002                    
 0436                                  0.026717  RAP.LSL.002                    
 0673                                  0.041000  RAP.PPL.002_002                
 0674                                  0.035000  RAP.PPL.002_002                
 0598                                  0.003947  RAP.LSL.002                    
 0594                                  0.025891  RAP.LSL.002                    
 0405                                  0.000341  RAP.LSL.002                    
 0396                                  0.002991  RAP.LSL.002                    
 0200                                  0.026801  RAP.LSL.002                    
 0342                                  0.039654  RAP.LSL.002                    
 0574                                  0.000332  RAP.LSL.002                    
 0394                                  0.001096  RAP.LSL.002                    
 0097                                  0.105000  RAP.LSL.002                    
 0098                                  0.036000  RAP.LSL.002                    
 0096                                  0.041000  RAP.LSL.002                    
 0113                                  0.041000  RAP.LSL.002                    
 0169                                  0.086000  RAP.LSL.002                    
 0132                                  0.038000  RAP.LSL.002                    
 0180                                  0.014000  RAP.LSL.002                    
 0308                                  0.004000  RAP.LSL.002                    
 0935                                  0.234923  RAP.LSL.002                    
 0716                                  0.000000                                
 1004                                  0.025117                                
 1005                                  0.252580                                
 0865                                  0.171212                                
 1035                                  0.255482                                
 0953                                  0.197448                                
 0937                                  0.192767                                
 0625                                  0.168000                                
 0188                                  0.084000                                
 0102                                  0.004000                                
 0408                                  0.031174  RAP.LSL.002                    
 0801                                  0.117511                                
 0798                                  0.114588                                
 0789                                  0.097990                                
 0783                                  0.058206                                
 0768                                  0.152020                                
 0764                                  0.060865                                
 0758                                  0.060031                                
 0803                                  0.061912                                
 0759                                  0.100895                                
 0746                                  0.099573                                
 0738                                  0.063523                                
 0748                                  0.098381                                
 0741                                  0.099591                                
 0712                                  0.038848                                
 0729                                  0.097808                                
 0723                                  0.099773                                
 0709                                  0.000000                                
 0703                                  0.000000                                
 0699                                  0.132610                                
 0682                                  0.210990                                
 0684                                  0.061815                                
 0687                                  0.056772                                
 0678                                  0.119662                                
 0667                                  0.119229                                
 0650                                  0.205966                                
 0653                                  0.177115                                
 0567                                  0.060208                                
 0580                                  0.061526                                
 0591                                  0.061861                                
 0610                                  0.062704                                
 0579                                  0.174526                                
 0538                                  0.175546                                
 0608                                  0.000000                                
 0642                                  0.103000                                
 0638                                  0.049000                                
 0332                                  0.003000                                
 0079                                  0.025000                                
 0576                                  0.000000                                
 0626                                  0.000000                                
 1065                                  0.381348                                
 0720                                  0.000000                                
 0376                                  0.000000                                
 0296                                  0.001000  RAP.LSL.002                    
 0297                                  0.005000  RAP.LSL.002                    
 HID.PROJ-01                           0.000000                                
 HID.PROJ-10                           0.000000                                
 HID.PROJ-02                           0.000000                                
 HID.PROJ-03                           0.000000                                
 HID.PROJ-06                           0.000000                                
 HID.PROJ-08                           0.000000                                
 HID.PROJ-09                           0.000000                                
 HID.EXIST-01                          0.000000                                
 HID.EXIST-10                          0.000000                                
 HID.EXIST-11                          0.000000                                
 HID.EXIST-12                          0.000000                                
 HID.EXIST-13                          0.000000                                
 HID.EXIST-14                          0.000000                                
 HID.EXIST-15                          0.000000                                
 HID.EXIST-16                          0.000000                                
 HID.EXIST-17                          0.000000                                
 HID.EXIST-18                          0.000000                                
 HID.EXIST-19                          0.000000                                
 HID.EXIST-02                          0.000000                                
 HID.EXIST-20                          0.000000                                
 HID.EXIST-21                          0.000000                                
 HID.EXIST-22                          0.000000                                
 HID.EXIST-23                          0.000000                                
 HID.EXIST-24                          0.000000                                
 HID.EXIST-25                          0.000000                                
 HID.EXIST-26                          0.000000                                
 HID.EXIST-27                          0.000000                                
 HID.EXIST-28                          0.000000                                
 HID.EXIST-29                          0.000000                                
 HID.EXIST-03                          0.000000                                
 HID.EXIST-30                          0.000000                                
 HID.EXIST-31                          0.000000                                
 HID.EXIST-32                          0.000000                                
 HID.EXIST-33                          0.000000                                
 HID.EXIST-34                          0.000000                                
 HID.EXIST-35                          0.000000                                
 HID.EXIST-36                          0.000000                                
 HID.EXIST-04                          0.000000                                
 HID.EXIST-05                          0.000000                                
 HID.EXIST-06                          0.000000                                
 HID.EXIST-07                          0.000000                                
 HID.EXIST-08                          0.000000                                
 HID.EXIST-09                          0.000000                                
 2577-A                                0.000000                                
 2577-B                                0.000000                                
 2580-A                                0.000000                                
 2580-B                                0.000000                                
 2613-A                                0.000000                                
 2613-B                                0.000000                                
 5538-A                                0.000000                                
 5538-B                                0.000000                                
 5547-A                                0.000000                                
 5547-B                                0.000000                                
 5554-A                                0.000000                                
 5554-B                                0.000000                                
 5872-A                                0.000000                                
 5872-B                                0.000000                                
 5932-A                                0.000000                                
 5932-B                                0.000000                                
 5949-A                                0.000000                                
 5949-B                                0.000000                                
 5956-A                                0.000000                                
 5956-B                                0.000000                                
 5966-A                                0.000000                                
 5966-B                                0.000000                                
 6011-A                                0.000000                                
 6011-B                                0.000000                                
 6105-A                                0.000000                                
 6105-B                                0.000000                                
 6121-A                                0.000000                                
 6121-B                                0.000000                                
 6157-A                                0.000000                                
 6157-B                                0.000000                                
 6551-A                                0.000000                                
 6551-B                                0.000000                                
 6552-A                                0.000000                                
 6552-B                                0.000000                                
 2                                     0.000000                                
 3                                     0.000000                                
 4                                     0.000000                                
 5                                     0.000000                                
 6                                     0.000000                                
 7                                     0.000000                                
 8                                     0.000000                                

[EMITTERS]

[STATUS]
 1614929                         closed
 14                              closed

[PATTERNS]
 RAP.PPL.002_002                       0.3438       0.3134       0.3015       0.1452       0.2614       0.3225
 RAP.PPL.002_002                       0.4221       0.5219       0.7198       0.9296       1.0000       0.6890
 RAP.PPL.002_002                       0.7608       0.8211       0.8677       0.8702       0.6873       0.5297
 RAP.PPL.002_002                       0.5071       0.4519       0.3722       0.3655       0.3366       0.3544
 RAP.LSL.002                           0.7143       0.7143       0.7143       0.7143       0.7143       0.7143
 RAP.LSL.002                           0.7143       0.8697       0.8697       1.0000       1.0000       1.0000
 RAP.LSL.002                           1.0000       1.0000       1.0000       1.0000       1.0000       0.7143
 RAP.LSL.002                           0.7143       0.7143       0.7143       0.7143       0.5102       0.5102
 ADT_LSL                               0.9979       0.9985       1.0000       0.9985       0.9984       0.9984
 ADT_LSL                               0.9979       0.9920       0.9910       0.9880       0.9905       0.9950
 ADT_LSL                               0.9948       0.9942       0.9941       0.9948       0.9957       0.9964
 ADT_LSL                               0.9964       0.9965       0.9938       0.9957       0.9968       0.9977
 EAT.LSL.002                           0.9951       1.0000       0.9809       0.0831       0.0067       0.0002
 EAT.LSL.002                           0.0002       0.0873       0.9593       0.9099       0.8794       0.1030
 EAT.LSL.002                           0.0150       0.0004       0.0004       0.0005       0.0004       0.0005
 EAT.LSL.002                           0.0005       0.0004       0.8645       0.9619       0.9710       0.9768

[CURVES]

[CONTROLS]

[RULES]

[QUALITY]

[SOURCES]

[MIXING]

[REACTIONS]
 ORDER  BULK            1.00
 ORDER  WALL            1
 ORDER  TANK            1.00
 GLOBAL BULK            0.000000
 GLOBAL WALL            0.000000

[ENERGY]
 GLOBAL EFFIC        75.0000
 DEMAND CHARGE       0.0000

[TIMES]
 DURATION            23:00:00
 HYDRAULIC TIMESTEP  1:00:00
 QUALITY TIMESTEP    1:00:00
 REPORT TIMESTEP     1:00:00
 REPORT START        0:00:00
 PATTERN TIMESTEP    1:00:00
 PATTERN START       0:00:00
 RULE TIMESTEP       0:06:00
 START CLOCKTIME     0:00:00
 STATISTIC           NONE

[OPTIONS]
 UNITS               LPS
 PRESSURE            METERS
 HEADLOSS            H-W
 UNBALANCED          CONTINUE 10
 QUALITY             NONE
 DEMAND MULTIPLIER   1.0000
 EMITTER EXPONENT    0.5000
 VISCOSITY           0.985218
 DIFFUSIVITY         1.000000
 SPECIFIC GRAVITY    1.000000
 TRIALS              40
 ACCURACY            0.00100000
 TOLERANCE           0.01000000
 CHECKFREQ           2
 MAXCHECK            10
 DAMPLIMIT           0.00000000

[REPORT]
 PAGESIZE            0
 STATUS              NO
 SUMMARY             NO
 ENERGY              NO
 MESSAGES            YES
 NODES               NONE
 LINKS               NONE
 Elevation           NO
 Demand              PRECISION 2
 Head                PRECISION 2
 Pressure            PRECISION 2
 Quality             NO
 Length              NO
 Diameter            NO
 Flow                PRECISION 2
 Velocity            PRECISION 2
 Headloss            PRECISION 2
 Quality             NO
 State               NO
 Setting             NO
 Reaction            NO

[COORDINATES]
 0124                             199475.183000 8251126.679000
 0302                             199695.456000 8250805.581000
 0426                             202584.956000 8250163.675000
 0573                             202411.865000 8249685.580000
 0575                             202410.192000 8249684.347000
 0089                             199240.079000 8251325.384000
 0492                             198907.852000 8249964.838000
 0493                             198906.994000 8249960.430000
 0663                             198737.499000 8249054.546000
 0664                             198743.842000 8249049.495000
 0553                             199447.108000 8249716.430000
 0778                             198924.185000 8247322.961000
 0779                             198929.018000 8247319.352000
 0930                             196966.800000 8245074.448000
 0931                             196963.840000 8245073.060000
 0966                             196280.159000 8244781.807000
 0967                             196284.762000 8244779.568000
 0377                             202599.620000 8250446.130000
 0375                             202599.560000 8250446.210000
 0504                             202381.728000 8249920.892000
 0505                             202380.985000 8249920.222000
 0603                             202340.453000 8249637.838000
 0602                             202344.030000 8249638.930000
 0993                             196732.825000 8244664.904000
 0992                             196662.649000 8244698.425000
 0411                             202563.660000 8250253.750000
 0510                             202407.490000 8249911.630000
 0458                             201774.960000 8250101.300000
 0593                             202304.780000 8249645.420000
 0774                             198956.939000 8247346.708000
 0676                             199469.229000 8248946.024000
 0805                             198184.619000 8246607.947000
 1047                             197854.229000 8244189.694000
 MEDIDOR.004                      197529.700000 8247363.510000
 0563                             202421.781000 8249692.627000
 0341                             202765.597000 8250668.922000
 0507                             202378.305000 8249915.528000
 0570                             202413.692000 8249686.845000
 0442                             202033.560000 8250142.390000
 0566                             202422.490000 8249691.480000
 0569                             202412.753000 8249687.699000
 0110                             198659.440000 8251198.520000
 0212                             198691.262000 8250933.676000
 0233                             199135.389000 8250889.804000
 0300                             199338.859000 8250805.714000
 0101                             199066.100000 8251204.700000
 0154                             199086.049000 8251070.924000
 0147                             199092.189000 8251093.924000
 0153                             199079.070000 8251072.220000
 0146                             199085.210000 8251095.140000
 0225                             199110.379000 8250906.004000
 0190                             199068.670000 8250969.670000
 0191                             199075.059000 8250968.494000
 0282                             198958.036000 8250831.014000
 0274                             198960.032000 8250835.322000
 0268                             198952.455000 8250837.223000
 0279                             198951.062000 8250832.707000
 0362                             199815.779000 8250564.454000
 0359                             199819.974000 8250574.501000
 0361                             199821.769000 8250567.704000
 0623                             198739.780000 8249482.260000
 0518                             198814.080000 8249886.180000
 0622                             198606.930000 8249506.500000
 0511                             198681.010000 8249911.220000
 0552                             198651.510000 8249729.670000
 0557                             198784.400000 8249704.190000
 0471                             198716.940000 8250066.690000
 0490                             198899.280000 8249966.370000
 0423                             198740.820000 8250194.460000
 0432                             198934.000000 8250155.400000
 0564                             198849.080000 8249691.790000
 0477                             198910.840000 8250029.310000
 0475                             198902.550000 8250030.810000
 0512                             199078.810000 8249909.980000
 0500                             198909.780000 8249937.930000
 0584                             199033.950000 8249664.120000
 0565                             198860.600000 8249691.600000
 0630                             198983.870000 8249419.660000
 0628                             198815.640000 8249445.010000
 0655                             198944.680000 8249169.530000
 0652                             198774.750000 8249197.200000
 0645                             198699.540000 8249266.660000
 0659                             198672.200000 8249096.220000
 0672                             199257.090000 8248955.164000
 0662                             198737.260000 8249067.710000
 0651                             198761.510000 8249199.740000
 0627                             198806.860000 8249446.630000
 0562                             198852.150000 8249693.170000
 0494                             198901.170000 8249960.020000
 0499                             198897.560000 8249940.370000
 0547                             199385.610000 8249742.450000
 0489                             199429.590000 8250006.060000
 0543                             199388.160000 8249756.410000
 0542                             199254.860000 8249766.190000
 0476                             199299.250000 8250030.560000
 0592                             199228.500000 8249646.030000
 0668                             199249.050000 8249021.450000
 0641                             199303.910000 8249291.740000
 0620                             199211.710000 8249549.190000
 0665                             199119.280000 8249045.260000
 0644                             199377.069000 8249287.114000
 0637                             199174.680000 8249323.900000
 0639                             199305.400000 8249299.840000
 0521                             199906.898000 8249874.209000
 0545                             199884.560000 8249743.049000
 0581                             200242.364000 8249668.230000
 0605                             200005.610000 8249629.988000
 0624                             199695.645000 8249466.123000
 0578                             199745.008000 8249678.090000
 0582                             199878.001000 8249666.900000
 0629                             199829.800000 8249441.960000
 0590                             199874.723000 8249654.081000
 0595                             200008.820000 8249643.636000
 0631                             199957.423000 8249419.233000
 0611                             200141.545000 8249620.797000
 0632                             200089.792000 8249395.353000
 0613                             200138.026000 8249605.028000
 0636                             199807.450000 8249325.628000
 0647                             200167.719000 8249252.684000
 0666                             199614.185000 8249032.689000
 0649                             199663.465000 8249245.287000
 0616                             199584.390000 8249584.942000
 0640                             199538.549000 8249293.668000
 0646                             199666.366000 8249258.454000
 0660                             199884.427000 8249073.962000
 0669                             200126.362000 8249020.496000
 0677                             199860.438000 8248942.418000
 0680                             200103.079000 8248891.367000
 0689                             199984.542000 8248788.457000
 0693                             199937.715000 8248579.118000
 0661                             199755.939000 8249071.862000
 0692                             199805.942000 8248601.900000
 0686                             199852.204000 8248812.416000
 0691                             199674.755000 8248626.018000
 0683                             199723.817000 8248848.218000
 0685                             199854.469000 8248824.650000
 0688                             199986.897000 8248800.360000
 0696                             199695.327000 8248500.980000
 0700                             199968.098000 8248443.056000
 0671                             199465.889000 8248958.514000
 0424                             199927.369000 8250192.234000
 0551                             199462.974000 8249741.073000
 0732                             199180.099000 8248043.865000
 0702                             199519.212000 8248372.781000
 0715                             199322.730000 8248192.220000
 0695                             199458.820000 8248493.842000
 0711                             199264.670000 8248252.160000
 0694                             199444.508000 8248533.702000
 0708                             199591.778000 8248281.983000
 0726                             199729.835000 8248129.283000
 0717                             199497.739000 8248187.702000
 0733                             199633.291000 8248037.613000
 0734                             199645.398000 8248026.978000
 0728                             199739.707000 8248119.167000
 0701                             199984.631000 8248439.134000
 0690                             200097.341000 8248781.497000
 0681                             200118.354000 8248888.271000
 0670                             200141.810000 8249017.370000
 0657                             200169.438000 8249167.052000
 0648                             200184.563000 8249249.570000
 0614                             200248.203000 8249600.985000
 0539                             200265.465000 8249797.351000
 0583                             200259.734000 8249664.900000
 0735                             199330.025000 8248026.201000
 0742                             199467.157000 8247874.344000
 0772                             198950.187000 8247354.135000
 0749                             199370.150000 8247781.348000
 0740                             199234.813000 8247933.455000
 0752                             198869.810000 8247751.550000
 0739                             199079.589000 8247946.267000
 0755                             199014.570000 8247717.500000
 0747                             199168.266000 8247857.359000
 0743                             199176.973000 8247865.284000
 0753                             199216.650000 8247742.430000
 0769                             198921.612000 8247454.588000
 0760                             199072.879000 8247591.377000
 0761                             198881.178000 8247580.793000
 0754                             198737.263000 8247718.173000
 0697                             198567.990000 8248475.424000
 0706                             198718.812000 8248306.459000
 0704                             198499.170000 8248344.887000
 0713                             198613.116000 8248217.965000
 0710                             198398.441000 8248259.589000
 0725                             198511.486000 8248132.674000
 0736                             198692.499000 8248020.509000
 0722                             198581.123000 8248168.126000
 0767                             198602.700000 8247492.570000
 0763                             198696.666000 8247573.474000
 0719                             198885.087000 8248178.557000
 0707                             198723.614000 8248300.584000
 0714                             198619.083000 8248211.659000
 0721                             198574.796000 8248175.655000
 0727                             198514.075000 8248128.314000
 0718                             198886.829000 8248179.752000
 0705                             198761.862000 8248331.996000
 0731                             199001.140000 8248043.958000
 0751                             198700.785000 8247756.953000
 0757                             198612.230000 8247671.350000
 0762                             198702.653000 8247579.437000
 0773                             198819.326000 8247356.067000
 0788                             198555.337000 8247097.756000
 0770                             198733.872000 8247444.210000
 0785                             198468.215000 8247186.965000
 0780                             198608.101000 8247314.049000
 0784                             198694.143000 8247223.341000
 0787                             198374.702000 8247098.372000
 0791                             198522.630000 8246959.700000
 0790                             198184.370000 8246967.853000
 0794                             198356.920000 8246804.350000
 0793                             198089.043000 8246875.431000
 0799                             198260.920000 8246710.530000
 0796                             197997.150000 8246785.920000
 0777                             198916.310000 8247331.780000
 0781                             198937.191000 8247313.119000
 0776                             198964.703000 8247338.606000
 0804                             198173.220000 8246609.960000
 0800                             198268.600000 8246702.610000
 0795                             198364.940000 8246796.190000
 0792                             198527.830000 8246954.410000
 0775                             198931.590000 8247346.620000
 0786                             198747.520000 8247167.820000
 0782                             198851.784000 8247253.368000
 0802                             198146.420000 8246622.271000
 0771                             199022.789000 8247420.344000
 0766                             199134.189000 8247528.694000
 0756                             199325.357000 8247715.234000
 0744                             199477.569000 8247863.708000
 0750                             199381.300000 8247770.130000
 0737                             198388.141000 8248009.073000
 0745                             198498.904000 8247861.429000
 0886                             197411.149000 8245320.940000
 0925                             196962.900000 8245090.520000
 0541                             202243.095000 8249786.641000
 0955                             196388.980000 8244816.898000
 0821                             196712.326000 8246164.253000
 1612043                          196778.450000 8247344.580000
 0986                             196633.009000 8244711.174000
 0954                             196425.659000 8244807.374000
 0407                             202698.483000 8250291.559000
 0406                             202697.690000 8250292.340000
 0387                             202884.290000 8250329.860000
 0388                             202884.290000 8250329.760000
 0498                             200286.029000 8249919.570000
 0378                             202938.274000 8250413.632000
 0372                             202512.410000 8250478.400000
 0452                             201926.042000 8250125.077000
 0371                             202514.820000 8250479.940000
 0454                             201927.918000 8250118.437000
 0455                             201929.835000 8250116.117000
 0502                             201945.851000 8249927.475000
 0343                             202549.380000 8250642.390000
 0196                             202707.879000 8250963.131000
 0333                             202688.644000 8250785.649000
 0365                             202750.570000 8250533.710000
 0384                             202886.640000 8250363.750000
 0205                             202797.838000 8250955.289000
 0456                             202147.358000 8250114.919000
 0364                             202535.610000 8250537.290000
 0358                             202849.310000 8250581.929000
 0340                             202760.857000 8250685.563000
 0391                             202884.580000 8250324.090000
 0404                             202871.641000 8250297.035000
 0399                             202701.840000 8250302.560000
 0401                             202701.910000 8250302.490000
 0418                             202809.485000 8250217.388000
 0599                             202352.670000 8249641.690000
 0443                             202026.085000 8250142.338000
 0450                             202027.445000 8250132.887000
 0447                             202025.736000 8250136.016000
 0441                             202130.547000 8250142.997000
 0444                             202131.431000 8250141.522000
 0612                             202288.350000 8249605.830000
 0437                             202231.264000 8250150.890000
 0440                             202232.738000 8250148.063000
 0601                             202346.020000 8249639.610000
 0429                             202225.987000 8250161.925000
 0439                             202127.154000 8250149.511000
 0619                             201129.451000 8249557.204000
 0618                             201065.180000 8249577.250000
 0517                             202617.830000 8249886.330000
 0497                             202411.910000 8249942.720000
 0634                             201738.570000 8249373.190000
 0621                             201179.830000 8249536.330000
 0633                             201784.590000 8249378.950000
 0635                             201753.080000 8249373.070000
 0606                             202308.560000 8249628.660000
 0607                             202310.260000 8249627.500000
 0554                             202292.660000 8249706.499000
 0585                             200759.850000 8249662.290000
 0587                             200738.940000 8249659.440000
 0609                             200692.240000 8249625.440000
 0525                             200437.080000 8249856.080000
 0597                             202345.299000 8249642.759000
 0588                             200789.710000 8249658.430000
 0615                             200997.100000 8249594.320000
 0617                             201029.880000 8249584.190000
 0506                             202377.000000 8249917.190000
 0524                             202301.656000 8249865.519000
 0523                             202299.193000 8249870.149000
 0347                             202661.020000 8250623.470000
 0402                             202869.363000 8250299.525000
 0400                             202865.966000 8250303.260000
 0369                             202688.137000 8250485.004000
 0508                             202379.935000 8249913.413000
 0478                             202452.063000 8250028.543000
 0480                             202456.976000 8250024.041000
 0488                             202464.300000 8250008.160000
 0515                             202615.100000 8249888.480000
 0516                             202615.371000 8249888.261000
 0393                             202693.643000 8250312.064000
 0392                             202691.910000 8250312.959000
 0390                             202894.240000 8250329.170000
 0389                             202894.330000 8250329.210000
 0382                             202958.990000 8250370.334000
 0438                             202584.203000 8250149.833000
 0434                             202578.205000 8250154.392000
 0556                             202288.650000 8249704.827000
 0555                             202289.720000 8249705.510000
 0459                             201831.994000 8250099.072000
 0464                             201833.779000 8250094.696000
 0457                             201828.349000 8250107.097000
 0410                             202584.190000 8250255.080000
 0395                             202696.675000 8250309.070000
 0414                             202624.274000 8250224.549000
 0398                             202687.729000 8250303.922000
 0421                             202804.940000 8250209.230000
 0403                             202694.396000 8250296.242000
 0415                             202633.103000 8250223.242000
 0479                             202737.670000 8250025.350000
 0491                             202683.628000 8249962.036000
 0528                             202562.092000 8249824.142000
 0529                             202564.203000 8249822.204000
 0530                             202565.494000 8249820.935000
 0501                             202391.204000 8249933.728000
 0470                             202399.980000 8250072.450000
 0435                             202496.530000 8250151.610000
 0472                             202420.920000 8250055.020000
 0537                             202106.944000 8249805.194000
 0561                             202272.681000 8249694.499000
 0568                             202413.955000 8249688.775000
 0571                             202411.000000 8249686.310000
 0572                             202410.246000 8249686.015000
 0546                             202484.647000 8249742.588000
 0548                             202483.085000 8249741.050000
 0549                             202483.562000 8249740.534000
 0604                             202336.670000 8249637.800000
 0600                             202338.430000 8249641.090000
 0589                             202323.160000 8249658.240000
 0532                             202119.885000 8249815.536000
 0481                             202459.548000 8250022.407000
 0482                             202462.759000 8250018.879000
 0344                             202653.760000 8250630.470000
 0345                             202657.830000 8250626.550000
 0346                             202657.900000 8250626.480000
 0496                             200291.221000 8249982.222000
 0461                             201775.510000 8250098.410000
 0462                             201775.530000 8250098.310000
 0463                             201775.660000 8250097.550000
 0586                             202325.610000 8249659.950000
 0559                             202297.372000 8249702.325000
 0558                             202295.680000 8249703.940000
 0379                             202940.430000 8250412.810000
 0509                             202405.100000 8249912.480000
 0380                             202938.888000 8250412.461000
 0381                             202939.175000 8250411.687000
 0177                             199302.816000 8251013.800000
 0139                             199450.079000 8251109.064000
 0835                             197590.562000 8245872.066000
 0185                             200114.179000 8250990.854000
 1052                             195642.418000 8244139.279000
 0356                             199830.207000 8250585.156000
 0353                             199834.839000 8250591.404000
 0351                             199831.935000 8250600.184000
 0352                             199832.189000 8250599.434000
 0328                             198779.429000 8250790.024000
 0330                             198897.934000 8250788.432000
 0218                             199065.969000 8250925.494000
 0245                             199107.749000 8250855.884000
 0237                             199132.179000 8250883.464000
 0248                             199118.729000 8250851.794000
 0109                             198650.740000 8251200.530000
 0290                             199374.429000 8250811.394000
 0323                             199170.209000 8250791.814000
 0285                             199260.450000 8250824.030000
 0873                             196804.980000 8245406.840000
 0874                             196805.030000 8245406.760000
 0211                             198699.199000 8250937.264000
 0186                             198712.719000 8250983.904000
 0854                             197993.520000 8245683.300000
 0360                             199814.529000 8250568.784000
 0321                             199715.819000 8250792.194000
 0291                             199375.569000 8250811.224000
 0280                             199212.790000 8250832.630000
 0255                             198913.202000 8250841.987000
 0950                             196516.830000 8244819.990000
 0949                             196522.370000 8244823.390000
 0181                             198716.699000 8250996.634000
 0234                             198803.632000 8250886.549000
 0243                             198866.342000 8250858.041000
 0267                             198951.008000 8250837.595000
 0238                             198802.714000 8250880.572000
 1007                             195996.810000 8244647.300000
 0112                             198685.040000 8251187.520000
 0120                             198626.832000 8251094.006000
 0698                             199986.695000 8248453.265000
 1057                             195397.263000 8243994.615000
 1022                             196256.754000 8244511.176000
 1029                             196127.720000 8244432.034000
 1032                             196030.809000 8244375.288000
 1010                             196743.619000 8244673.245000
 0944                             196152.140000 8244908.000000
 0860                             197883.874000 8245651.365000
 0845                             198121.710000 8245826.030000
 0847                             198136.840000 8245804.860000
 0283                             199177.352000 8250827.909000
 0284                             199177.442000 8250827.879000
 0294                             199189.749000 8250809.394000
 0836                             198224.490000 8245871.330000
 0261                             199245.839000 8250844.606000
 0262                             199244.459000 8250839.744000
 0278                             199242.249000 8250832.834000
 0276                             198948.529000 8250833.294000
 0273                             199234.669000 8250835.794000
 1023                             197087.339000 8244506.224000
 0815                             197886.999000 8246283.914000
 0270                             199213.460000 8250836.860000
 0269                             199213.470000 8250836.960000
 0260                             199214.319000 8250840.564000
 0867                             197306.040000 8245476.870000
 0265                             199221.588000 8250838.762000
 0266                             199224.159000 8250838.104000
 0309                             199362.596000 8250800.378000
 0271                             200081.801000 8250837.834000
 0272                             200079.888000 8250835.921000
 0251                             200088.879000 8250845.574000
 0531                             200273.710000 8249819.180000
 0577                             200252.278000 8249678.398000
 1064                             195757.720000 8243905.840000
 1063                             195861.370000 8243967.160000
 0990                             196057.466000 8244703.529000
 0656                             200119.920000 8249168.300000
 0866                             197803.040000 8245540.810000
 0869                             197701.960000 8245467.930000
 0922                             197802.515000 8245103.770000
 0289                             199372.819000 8250812.444000
 0924                             197801.265000 8245090.804000
 0933                             197792.892000 8245064.050000
 0947                             196593.470000 8244858.490000
 0959                             196435.309000 8244802.854000
 0961                             196438.889000 8244801.154000
 0923                             197059.820000 8245093.890000
 0943                             196693.290000 8244908.080000
 0936                             197713.029000 8245022.051000
 0972                             196594.480000 8244737.950000
 0952                             197255.200000 8244809.080000
 1018                             197017.129000 8244538.944000
 1016                             196899.996000 8244592.048000
 0100                             199067.884000 8251210.265000
 0131                             199388.209000 8251124.954000
 0114                             199209.919000 8251169.474000
 0142                             198962.887000 8251103.248000
 0143                             198980.200000 8251098.640000
 1049                             197806.620000 8244174.640000
 1036                             195985.750000 8244318.870000
 0315                             199375.654000 8250795.154000
 0316                             199375.479000 8250792.944000
 0324                             199416.989000 8250791.154000
 0206                             198695.749000 8250951.394000
 0173                             199295.009000 8251015.939000
 0220                             199263.485000 8250920.866000
 0219                             199264.269000 8250923.734000
 0167                             198834.410000 8251032.190000
 0168                             198834.510000 8251032.170000
 0976                             196606.039000 8244723.184000
 0977                             196606.469000 8244722.986000
 0121                             199388.719000 8251130.797000
 0797                             197139.765000 8246769.355000
 1050                             197804.829000 8244170.454000
 0816                             197874.202000 8246266.849000
 1031                             197296.220000 8244407.461000
 1030                             197282.219000 8244415.414000
 1024                             197130.319000 8244486.214000
 1027                             197125.030000 8244475.000000
 1026                             197125.116000 8244476.821000
 1025                             197127.960000 8244481.310000
 0322                             199153.909000 8250791.934000
 0320                             199151.029000 8250792.304000
 0319                             199150.929000 8250792.314000
 0314                             199154.069000 8250793.844000
 0311                             199152.715000 8250796.209000
 0310                             199152.615000 8250796.219000
 0256                             199237.695000 8250844.482000
 0257                             199236.629000 8250841.694000
 0928                             196951.668000 8245081.563000
 0927                             196961.379000 8245083.914000
 0999                             196576.508000 8244676.417000
 0998                             196576.850000 8244676.600000
 0926                             196965.769000 8245086.114000
 0895                             197415.823000 8245312.436000
 0868                             197308.220000 8245474.515000
 0957                             196438.323000 8244805.962000
 0958                             196437.230000 8244805.570000
 0960                             196431.800000 8244802.240000
 0658                             200158.159000 8249162.948000
 0654                             200162.547000 8249183.203000
 0837                             197057.589000 8245864.145000
 0838                             197057.940000 8245863.420000
 0299                             199577.569000 8250805.914000
 0231                             199495.347000 8250892.780000
 0229                             199492.592000 8250893.858000
 0834                             198208.050000 8245894.290000
 0827                             198151.760000 8245969.380000
 0824                             198014.600000 8246151.070000
 0929                             196973.560000 8245077.770000
 0130                             199422.900000 8251125.491000
 0134                             199444.177000 8251113.748000
 0183                             198707.714000 8250991.878000
 0182                             198708.949000 8250995.844000
 1040                             195869.383000 8244273.895000
 0099                             198663.140000 8251210.570000
 0092                             198690.900000 8251302.470000
 0825                             196654.930000 8246130.710000
 0881                             197855.260000 8245366.870000
 0879                             197854.250000 8245396.240000
 0861                             197857.880000 8245630.360000
 0878                             197896.090000 8245401.500000
 0872                             197885.030000 8245410.560000
 0864                             198394.780000 8245594.820000
 0853                             198322.740000 8245687.730000
 0870                             197616.710000 8245441.630000
 0814                             197898.559000 8246299.014000
 0806                             198111.312000 8246587.838000
 0303                             199463.903000 8250805.474000
 0942                             196153.830000 8244911.580000
 0823                             197796.269000 8246161.524000
 1060                             195876.410000 8243973.510000
 1059                             195876.320000 8243973.530000
 1046                             197864.869000 8244194.814000
 1051                             197809.489000 8244168.164000
 1048                             197881.649000 8244186.714000
 0964                             196429.320000 8244796.901000
 0209                             199172.541000 8250942.337000
 0210                             199181.139000 8250940.164000
 0221                             199262.589000 8250918.514000
 0819                             197926.720000 8246228.210000
 0349                             199828.079000 8250605.254000
 0350                             199828.495000 8250604.133000
 0809                             197507.356000 8246489.818000
 0995                             196589.360000 8244684.160000
 0988                             196601.519000 8244708.635000
 0987                             196601.630000 8244708.850000
 0906                             196251.350000 8245280.020000
 0899                             196364.843000 8245306.294000
 0900                             196363.140000 8245305.440000
 0876                             196802.380000 8245402.100000
 0877                             196802.280000 8245402.080000
 0945                             196227.570000 8244888.160000
 0973                             196599.540000 8244735.665000
 0971                             196775.830000 8244752.630000
 1001                             196738.762000 8244699.804000
 0902                             197356.085000 8245303.394000
 0903                             197364.403000 8245284.769000
 0904                             197365.656000 8245282.263000
 0905                             197366.030000 8245281.380000
 0897                             197410.640000 8245307.460000
 0901                             197413.100000 8245302.550000
 0896                             197408.850000 8245311.000000
 0812                             197697.220000 8246383.250000
 0808                             197467.760000 8246517.540000
 0829                             197038.900000 8245921.910000
 0833                             197031.890000 8245912.170000
 0871                             197615.590000 8245440.790000
 0880                             197519.500000 8245368.900000
 0849                             196811.240000 8245793.130000
 0882                             197544.880000 8245345.060000
 0919                             197262.510000 8245155.250000
 0859                             197175.930000 8245648.770000
 0913                             197143.650000 8245177.710000
 0863                             196930.347000 8245596.709000
 0862                             196925.700000 8245608.090000
 0916                             197144.520000 8245166.350000
 0917                             197143.824000 8245166.006000
 0907                             197367.470000 8245278.690000
 0915                             197148.360000 8245168.310000
 0914                             196921.870000 8245174.150000
 0875                             196807.130000 8245403.110000
 0894                             197406.900000 8245314.800000
 0846                             197297.260000 8245823.860000
 0855                             197180.256000 8245654.307000
 0856                             197179.080000 8245652.640000
 0975                             195356.347000 8244721.327000
 1003                             196515.650000 8244668.580000
 0258                             200078.037000 8250843.634000
 0259                             200080.710000 8250841.580000
 0989                             196444.840000 8244703.830000
 0841                             197059.830000 8245860.310000
 0858                             197175.057000 8245650.270000
 0857                             197174.400000 8245651.480000
 0968                             196287.510000 8244778.180000
 0295                             199378.840000 8250809.360000
 0304                             199379.349000 8250804.954000
 1020                             195751.693000 8244518.135000
 0306                             199362.639000 8250803.934000
 0307                             199366.079000 8250803.894000
 1002                             195472.790000 8244670.100000
 1019                             195782.179000 8244526.712000
 0335                             199374.890000 8250783.410000
 0325                             199375.449000 8250791.014000
 1062                             195864.780000 8243969.180000
 1058                             195873.050000 8243974.070000
 0963                             196426.734000 8244798.954000
 0962                             196423.730000 8244800.340000
 0946                             196243.920000 8244881.120000
 0956                             196410.670000 8244806.490000
 0932                             196881.760000 8245064.300000
 0934                             196890.659000 8245048.374000
 1033                             197068.940000 8244354.300000
 1028                             197123.360000 8244471.410000
 1041                             197614.109000 8244260.734000
 1045                             197610.030000 8244246.600000
 1053                             197578.510000 8244123.465000
 1042                             197612.853000 8244256.733000
 1043                             197612.380000 8244255.700000
 1044                             197611.020000 8244250.430000
 1011                             196884.249000 8244603.041000
 0326                             198536.899000 8250790.574000
 0337                             198471.689000 8250781.784000
 0889                             197417.979000 8245320.244000
 0890                             197416.120000 8245319.520000
 0892                             197410.136000 8245316.130000
 0891                             197413.650000 8245318.230000
 0938                             196157.365000 8244922.186000
 0939                             196158.580000 8244921.610000
 0941                             196156.526000 8244917.321000
 0940                             196157.050000 8244918.370000
 0912                             195589.730000 8245186.350000
 0918                             195648.350000 8245158.950000
 0885                             196409.190000 8245321.450000
 0828                             197026.620000 8245922.210000
 0831                             197028.940000 8245917.494000
 0832                             197030.250000 8245915.200000
 0817                             197892.940000 8246250.390000
 1015                             196396.879000 8244592.975000
 1008                             196476.236000 8244639.561000
 1039                             195893.521000 8244291.034000
 1034                             195954.273000 8244327.792000
 0951                             196220.530000 8244809.650000
 0969                             196171.860000 8244773.090000
 1000                             196041.703000 8244671.536000
 0991                             196082.050000 8244698.210000
 0842                             197610.790000 8245858.790000
 0830                             197652.910000 8245917.610000
 1009                             195941.870000 8244611.222000
 0820                             197845.260000 8246191.290000
 0818                             197881.140000 8246238.000000
 1021                             195766.763000 8244511.427000
 1017                             195845.011000 8244553.378000
 1013                             196880.699000 8244601.274000
 0981                             196604.963000 8244715.132000
 0980                             196605.600000 8244716.680000
 0850                             198256.180000 8245775.850000
 0844                             198207.260000 8245843.170000
 0994                             196748.811000 8244707.157000
 0979                             196765.840000 8244721.490000
 0982                             196763.510000 8244714.360000
 0108                             199081.319000 8251201.242000
 0107                             199080.959000 8251201.304000
 0175                             199403.666000 8251014.895000
 0985                             196604.411000 8244714.048000
 0984                             196600.064000 8244713.285000
 0983                             196599.248000 8244713.714000
 0103                             198660.710000 8251202.630000
 0164                             199255.588000 8251051.915000
 0165                             199270.119000 8251048.464000
 0150                             198617.262000 8251089.924000
 0166                             199310.539000 8251038.084000
 0170                             199307.292000 8251027.975000
 0171                             199303.590000 8251028.963000
 0192                             198593.297000 8250980.420000
 0151                             198624.504000 8251088.125000
 0288                             199341.399000 8250812.534000
 0203                             199387.747000 8250950.481000
 0202                             199391.459000 8250960.744000
 0199                             198587.083000 8250962.403000
 0160                             199536.226000 8251061.015000
 0161                             199538.719000 8251057.674000
 0888                             196409.540000 8245320.450000
 0887                             196409.510000 8245320.540000
 0978                             196608.369000 8244722.114000
 0126                             199478.399000 8251125.290000
 0125                             199477.630000 8251126.384000
 0227                             199656.619000 8250897.374000
 0253                             200087.169000 8250843.510000
 0254                             200086.059000 8250842.414000
 0263                             200083.449000 8250839.604000
 0133                             198745.210000 8251119.080000
 0111                             198657.150000 8251191.110000
 0119                             198642.210000 8251145.000000
 0334                             198652.839000 8250785.494000
 0215                             198697.605000 8250931.317000
 0035                             199789.770000 8251569.210000
 0116                             199818.010000 8251166.890000
 0162                             199540.889000 8251055.074000
 0226                             199668.549000 8250897.554000
 0145                             199592.990000 8251096.530000
 0158                             199547.456000 8251060.213000
 0159                             199545.599000 8251058.794000
 0193                             198828.074000 8250966.733000
 0232                             198805.800000 8250891.942000
 0072                             199342.060000 8251375.140000
 1054                             195609.695000 8244118.424000
 1056                             195439.704000 8244019.199000
 1055                             195574.027000 8244097.518000
 0086                             199303.689000 8251333.684000
 0077                             199114.194000 8251369.555000
 0083                             199193.139000 8251350.404000
 0094                             199371.169000 8251264.084000
 0090                             199284.869000 8251311.544000
 0081                             199109.590000 8251353.360000
 0078                             199111.639000 8251360.764000
 0075                             199099.019000 8251363.874000
 0074                             199078.539000 8251368.504000
 0063                             199071.389000 8251438.634000
 0059                             199081.469000 8251452.084000
 0312                             199695.348000 8250797.375000
 0313                             199695.411000 8250795.373000
 0318                             199695.369000 8250792.419000
 0329                             198785.420000 8250788.880000
 0239                             198810.302000 8250877.293000
 0057                             199094.389000 8251465.454000
 0061                             198835.400000 8251442.750000
 0062                             198830.680000 8251439.040000
 0054                             199123.729000 8251492.414000
 0049                             199158.499000 8251511.654000
 0852                             196847.040000 8245765.670000
 0851                             196846.990000 8245765.760000
 0848                             196828.180000 8245801.500000
 0046                             199202.899000 8251529.884000
 0893                             196410.760000 8245315.970000
 0898                             196367.680000 8245306.490000
 0041                             199227.299000 8251546.574000
 0911                             197244.510000 8245188.810000
 0921                             197148.040000 8245138.620000
 0036                             199246.949000 8251565.604000
 0037                             199234.419000 8251561.464000
 0027                             199260.009000 8251579.674000
 0022                             199276.329000 8251604.844000
 0020                             199287.239000 8251632.794000
 0015                             199292.359000 8251662.354000
 0013                             199291.489000 8251692.324000
 0009                             199283.399000 8251720.924000
 0104                             199077.149000 8251202.284000
 0105                             199077.586000 8251202.106000
 0106                             199079.129000 8251201.764000
 0002                             199263.699000 8251744.084000
 0974                             197154.840000 8244737.317000
 0965                             197265.796000 8244792.174000
 0001                             199231.479000 8251748.534000
 0006                             199230.189000 8251733.614000
 0136                             199452.670000 8251110.020000
 0129                             199472.651000 8251124.401000
 0127                             199474.086000 8251125.793000
 0003                             199183.499000 8251742.944000
 0115                             198758.940000 8251168.050000
 0117                             198756.320000 8251158.290000
 0011                             199191.899000 8251711.684000
 0008                             199220.759000 8251721.954000
 0137                             198749.372000 8251113.923000
 0118                             198763.476000 8251156.063000
 0004                             199164.999000 8251742.714000
 0909                             198256.830000 8245251.240000
 0908                             198263.030000 8245266.380000
 0005                             199158.489000 8251735.774000
 0007                             199153.509000 8251726.234000
 0010                             199150.659000 8251712.274000
 0012                             199153.279000 8251694.884000
 0724                             198920.135000 8248140.730000
 0014                             199161.279000 8251679.434000
 0017                             199185.959000 8251654.694000
 0021                             199204.169000 8251624.764000
 0025                             199207.609000 8251589.934000
 0028                             199185.259000 8251578.754000
 0031                             199178.759000 8251575.904000
 0033                             199168.909000 8251574.004000
 0354                             199835.566000 8250590.283000
 0355                             199834.173000 8250588.679000
 0034                             199156.109000 8251573.554000
 0339                             199771.599000 8250754.344000
 0338                             199771.039000 8250771.104000
 0032                             199141.049000 8251574.384000
 0144                             199459.109000 8251098.544000
 0029                             199126.429000 8251577.914000
 0122                             199476.364000 8251127.819000
 0123                             199476.849000 8251127.224000
 0026                             199104.349000 8251587.494000
 0155                             198728.105000 8251064.300000
 0156                             198734.971000 8251061.416000
 0157                             198740.595000 8251057.210000
 0039                             199088.979000 8251557.164000
 0087                             199324.589000 8251331.624000
 0088                             199323.379000 8251328.634000
 0038                             199027.709000 8251557.334000
 0045                             199020.819000 8251532.274000
 0048                             199014.059000 8251519.904000
 0051                             198972.639000 8251506.774000
 0052                             198987.339000 8251506.504000
 0050                             199001.979000 8251511.004000
 0047                             198946.729000 8251522.104000
 0040                             198936.499000 8251550.304000
 0030                             198945.539000 8251577.854000
 0023                             198965.709000 8251601.364000
 0826                             197761.009000 8246073.002000
 0019                             199011.299000 8251640.374000
 0018                             199008.499000 8251648.924000
 0016                             198997.239000 8251655.664000
 0024                             198923.759000 8251591.204000
 0042                             198925.139000 8251545.454000
 0043                             198912.029000 8251532.884000
 0044                             198850.089000 8251532.884000
 1006                             196489.233000 8244654.328000
 0997                             196498.640000 8244677.595000
 0730                             198997.369000 8248048.182000
 0053                             198811.969000 8251502.994000
 0055                             198783.929000 8251492.334000
 0056                             198766.909000 8251480.024000
 0058                             198756.189000 8251463.534000
 0060                             198751.449000 8251444.104000
 0069                             198754.569000 8251416.214000
 0066                             198804.329000 8251431.114000
 0085                             199178.249000 8251344.354000
 1061                             195885.200000 8243972.010000
 1038                             195983.930000 8244311.601000
 1037                             195984.110000 8244312.460000
 0082                             198908.479000 8251351.584000
 0080                             198894.349000 8251356.594000
 0076                             198881.169000 8251363.804000
 0084                             198922.649000 8251346.664000
 0093                             199163.109000 8251282.694000
 0073                             198869.379000 8251372.854000
 0071                             198803.249000 8251388.664000
 0810                             197505.000000 8246486.450000
 0811                             197504.785000 8246486.189000
 0839                             197061.760000 8245863.030000
 0840                             197061.451000 8245862.435000
 0070                             198853.699000 8251390.954000
 0064                             198834.100000 8251432.930000
 0068                             198840.430000 8251416.740000
 0065                             198762.559000 8251432.174000
 0067                             198758.959000 8251417.204000
 0135                             199448.723000 8251110.576000
 0140                             199450.677000 8251108.408000
 0138                             199451.605000 8251109.263000
 0174                             199409.709000 8251012.594000
 0148                             199451.119000 8251091.124000
 1609264                          194483.120000 8246258.670000
 1609263                          194519.940000 8246274.310000
 1609262                          194550.970000 8246283.640000
 1609261                          194601.650000 8246295.300000
 1609259                          194781.820000 8246335.760000
 1609258                          194786.660000 8246317.650000
 1609256                          194864.860000 8246334.540000
 1609255                          194943.160000 8246350.960000
 1609253                          195021.280000 8246368.180000
 1609252                          195094.560000 8246384.170000
 1609251                          195126.130000 8246390.970000
 1609250                          195122.480000 8246406.970000
 1609249                          195176.480000 8246417.450000
 1609247                          195244.860000 8246432.400000
 1609246                          195307.440000 8246449.980000
 1609244                          195395.470000 8246468.710000
 1609243                          194421.090000 8246226.230000
 1609223                          194308.630000 8246134.000000
 1609222                          194240.220000 8246061.060000
 1609221                          194093.040000 8245729.240000
 1609220                          194097.240000 8245751.330000
 1609219                          194121.930000 8245745.100000
 1609218                          194089.890000 8245568.110000
 1609217                          194074.000000 8245631.070000
 1609216                          194098.730000 8245627.280000
 1609215                          194074.650000 8245479.400000
 1609204                          194055.520000 8245381.250000
 1609203                          194045.030000 8245332.360000
 1609202                          193970.320000 8245130.980000
 1609122                          196369.460000 8247247.180000
 1609121                          196410.280000 8247276.050000
 1609120                          196146.140000 8246937.830000
 1609119                          196186.340000 8247001.150000
 1609118                          196205.110000 8247027.870000
 1609117                          196182.230000 8247041.920000
 1609115                          196207.090000 8247085.300000
 1609110                          195855.590000 8246613.550000
 1609108                          195917.990000 8246659.540000
 1609107                          195969.310000 8246714.330000
 1609106                          196000.890000 8246758.040000
 1609105                          196020.700000 8246745.080000
 1609104                          196092.320000 8246853.550000
 1609103                          196046.200000 8246782.150000
 1609078                          192990.970000 8244602.480000
 1608983                          193843.370000 8244984.980000
 1608981                          193861.460000 8245000.760000
 1608976                          193933.460000 8245083.640000
 1608975                          193876.460000 8245013.990000
 1608952_n2a_2                    194223.450000 8246033.690000
 1608952_n2a_1                    194223.390000 8246033.600000
 1608951                          194218.080000 8246024.200000
 1608934                          196721.980000 8247346.590000
 1608916                          193362.750000 8244784.630000
 1608879                          197384.640000 8247430.040000
 1608878                          197383.710000 8247444.340000
 1608877                          197446.490000 8247447.550000
 1608873                          197456.840000 8247435.980000
 1608872                          193993.960000 8245175.040000
 1608871                          194026.670000 8245253.470000
 1608870                          194008.290000 8245206.970000
 1608868                          194382.480000 8246201.230000
 1608867                          194351.260000 8246176.220000
 1608866                          195540.510000 8246511.190000
 1608865                          195466.100000 8246486.680000
 1608861                          196243.410000 8247134.310000
 1608844                          196778.270000 8247344.610000
 1608421                          192942.150000 8244584.620000
 1607061                          194208.040000 8246007.730000
 1607056                          194182.160000 8245951.390000
 1607041                          194627.340000 8246303.600000
 1607019                          194690.670000 8246315.340000
 1607018                          194688.980000 8246315.050000
 1607016                          194701.430000 8246317.520000
 0884                             196409.150000 8245321.580000
 0883                             196404.620000 8245334.690000
 1606627_n2a_2                    196719.320000 8247346.690000
 1606627_n2a_1                    196719.220000 8247346.690000
 1606626                          196717.140000 8247346.620000
 1606625                          193130.740000 8244656.850000
 1606624                          193084.610000 8244637.570000
 1606623                          193188.670000 8244683.510000
 1606182                          194152.750000 8245855.820000
 1606181                          194136.060000 8245803.410000
 1606176                          196305.030000 8247199.750000
 1606175                          196269.170000 8247164.900000
 1606174                          196454.940000 8247298.540000
 1606173                          196501.520000 8247316.700000
 1606172                          193270.350000 8244746.370000
 1606171                          193177.980000 8244708.060000
 1606170                          193840.700000 8244982.790000
 1606166                          193554.120000 8244830.580000
 1606165                          193608.280000 8244856.420000
 1606162                          193672.470000 8244884.340000
 1606161                          193771.770000 8244931.460000
 1606160                          193736.590000 8244912.430000
 1606159                          193427.390000 8244811.490000
 1606158                          193470.870000 8244796.370000
 1606157                          193458.630000 8244824.490000
 1606156                          196618.360000 8247343.550000
 1606155                          196549.590000 8247330.460000
 1606143                          196951.340000 8247327.470000
 1606142                          196877.490000 8247332.200000
 1606141                          197117.470000 8247320.170000
 1606139                          197051.200000 8247322.200000
 1606138                          197131.600000 8247334.520000
 1606137                          197270.980000 8247348.090000
 1606131                          197185.570000 8247332.790000
 1606130                          197533.150000 8247360.780000
 1606128                          197502.060000 8247388.490000
 1606127                          197344.240000 8247391.660000
 1606126                          197319.010000 8247372.780000
 1606114_n2a_2                    195578.410000 8246519.560000
 1606114_n2a_1                    195578.310000 8246519.540000
 1606112                          195636.290000 8246532.350000
 1606111                          195777.780000 8246569.760000
 1606110                          195729.100000 8246550.180000
 1604966                          192906.200000 8244565.500000
 1604964                          192891.730000 8244561.040000
 1604963                          192855.640000 8244549.900000
 1600597                          192689.600000 8244517.250000
 J-5                              197570.972000 8247321.207000
 J-6                              197580.146000 8247321.789000
 J-7                              197584.409000 8247316.121000
 J-8                              197609.455000 8247304.666000
 J-9                              197917.658000 8247283.953000
 J-10                             197981.893000 8247285.609000
 J-11                             198131.042000 8247310.976000
 J-12                             198240.371000 8247359.337000
 J-13                             198333.676000 8247413.646000
 J-14                             198399.195000 8247468.888000
 J-15                             199286.450000 8248324.617000
 J-16                             199356.379000 8248397.399000
 J-17                             199393.348000 8248446.119000
 J-18                             199428.105000 8248508.666000
 J-19                             199469.503000 8248634.089000
 J-20                             199484.846000 8248735.803000
 J-21                             199482.531000 8248847.480000
 0679                             199478.153000 8248900.659000
 0675                             199463.770000 8248949.631000
 0643                             199372.994000 8249287.456000
 0550                             199449.376000 8249730.777000
 0223                             199601.813000 8250909.286000
 0301                             199572.313000 8250805.694000
 0287                             198907.382000 8250820.073000
 0331                             198647.019000 8250786.882000
 0178                             199528.959000 8251001.875000
 0249                             199478.378000 8250851.163000
 0252                             199475.932000 8250843.632000
 0298                             199464.490000 8250807.338000
 0305                             199346.307000 8250804.441000
 0240                             199070.049000 8250870.592000
 0244                             199120.884000 8250857.671000
 0222                             199259.581000 8250910.495000
 0201                             199073.097000 8250961.123000
 0163                             198726.163000 8251054.687000
 0264                             198946.453000 8250838.634000
 0213                             198970.561000 8250932.845000
 0241                             198868.913000 8250863.282000
 0207                             198890.021000 8250947.636000
 0217                             198696.608000 8250926.424000
 0216                             198687.257000 8250929.247000
 0204                             198585.779000 8250958.513000
 0187                             198528.935000 8250974.842000
 0236                             198810.196000 8250884.062000
 0184                             198722.684000 8250994.825000
 0242                             199588.242000 8250861.431000
 0246                             199586.274000 8250855.288000
 0910                             197191.366000 8245199.229000
 0843                             196856.425000 8245848.274000
 0560                             202280.777000 8249699.686000
 0596                             202343.122000 8249643.580000
 0544                             202495.932000 8249747.940000
 0503                             202385.446000 8249926.054000
 0533                             202560.581000 8249815.527000
 0487                             202456.901000 8250011.636000
 0445                             202750.413000 8250141.293000
 0413                             202641.977000 8250230.702000
 0367                             202530.631000 8250524.783000
 0397                             202877.625000 8250304.183000
 0466                             202526.298000 8250085.209000
 0436                             202576.496000 8250150.259000
 0673                             199357.845000 8248950.912000
 0674                             199382.376000 8248949.931000
 0598                             202344.361000 8249642.200000
 0594                             202343.583000 8249643.854000
 0405                             202870.764000 8250296.202000
 0396                             202698.773000 8250306.382000
 0200                             202718.255000 8250962.344000
 0342                             202766.617000 8250664.936000
 0574                             202410.710000 8249684.790000
 0394                             202695.036000 8250310.696000
 0097                             198961.387000 8251232.423000
 0098                             198970.405000 8251230.746000
 0096                             198972.299000 8251236.087000
 0113                             198761.359000 8251177.152000
 0169                             198845.902000 8251029.121000
 0132                             198983.689000 8251121.254000
 0180                             199404.416000 8250997.803000
 0308                             199695.411000 8250803.306000
 0935                             196895.974000 8245039.995000
 0716                             199793.124000 8248179.380000
 1004                             196556.104000 8244665.333000
 1005                             196555.922000 8244663.938000
 0865                             196940.076000 8245575.250000
 1035                             195992.880000 8244323.237000
 0953                             196442.574000 8244808.300000
 0937                             197697.874000 8245013.860000
 0625                             199364.213000 8249452.824000
 0188                             199054.867000 8250973.421000
 0102                             199075.355000 8251202.655000
 0408                             202689.685000 8250291.667000
 0801                             198153.327000 8246630.453000
 0798                             198247.614000 8246724.223000
 0789                             198500.770000 8246970.130000
 0783                             198681.744000 8247236.405000
 0768                             198821.761000 8247458.549000
 0764                             198683.958000 8247570.669000
 0758                             198653.178000 8247628.985000
 0803                             198177.710000 8246614.358000
 0759                             199075.953000 8247594.347000
 0746                             199159.291000 8247857.966000
 0738                             199087.838000 8247953.478000
 0748                             199353.048000 8247799.061000
 0741                             199449.343000 8247892.453000
 0712                             199277.007000 8248239.420000
 0729                             199616.376000 8248054.920000
 0723                             199711.465000 8248147.947000
 0709                             199707.422000 8248267.805000
 0703                             199613.476000 8248355.646000
 0699                             199955.370000 8248445.411000
 0682                             199717.827000 8248857.923000
 0684                             199840.606000 8248826.793000
 0687                             199974.391000 8248802.581000
 0678                             200048.848000 8248900.870000
 0667                             200074.735000 8249030.285000
 0650                             199795.162000 8249235.145000
 0653                             200101.579000 8249179.098000
 0567                             199747.760000 8249688.922000
 0580                             199864.197000 8249669.296000
 0591                             199993.339000 8249646.407000
 0610                             200127.349000 8249623.197000
 0579                             200206.258000 8249674.805000
 0538                             200234.330000 8249803.131000
 0608                             202308.774000 8249626.019000
 0642                             199298.133000 8249287.583000
 0638                             199180.805000 8249322.755000
 0332                             199375.077000 8250785.898000
 0079                             199116.071000 8251359.684000
 0576                             202414.743000 8249682.276000
 0626                             199367.142000 8249452.407000
 1065                             195602.500000 8243018.220000
 0720                             199789.811000 8248168.194000
 0376                             202599.590000 8250446.170000
 0296                             199375.619000 8250808.710000
 0297                             199375.642000 8250806.062000
 HID.PROJ-01                      195339.750000 8244732.280000
 HID.PROJ-10                      199365.190000 8249452.650000
 HID.PROJ-02                      195992.070000 8244324.370000
 HID.PROJ-03                      196447.910000 8244804.380000
 HID.PROJ-06                      198187.030000 8246605.450000
 HID.PROJ-08                      199979.200000 8248454.890000
 HID.PROJ-09                      200250.210000 8249678.890000
 HID.EXIST-01                     198681.559000 8247573.120000
 HID.EXIST-10                     199181.152000 8249324.426000
 HID.EXIST-11                     199841.761000 8248834.318000
 HID.EXIST-12                     199974.754000 8248804.666000
 HID.EXIST-13                     200048.166000 8248896.719000
 HID.EXIST-14                     200102.932000 8249192.883000
 HID.EXIST-15                     200205.682000 8249670.389000
 HID.EXIST-16                     200126.778000 8249619.080000
 HID.EXIST-17                     199993.041000 8249643.977000
 HID.EXIST-18                     200074.074000 8249024.585000
 HID.EXIST-19                     199351.551000 8247797.530000
 HID.EXIST-02                     198688.642000 8247664.587000
 HID.EXIST-20                     199447.220000 8247890.532000
 HID.EXIST-21                     199613.602000 8248052.623000
 HID.EXIST-22                     199709.539000 8248146.120000
 HID.EXIST-23                     199077.848000 8247592.847000
 HID.EXIST-24                     199077.231000 8247965.787000
 HID.EXIST-25                     199153.645000 8247863.918000
 HID.EXIST-26                     199702.020000 8248263.417000
 HID.EXIST-27                     199608.665000 8248351.408000
 HID.EXIST-28                     199281.370000 8248242.659000
 HID.EXIST-29                     199954.534000 8248441.761000
 HID.EXIST-03                     198804.889000 8247449.971000
 HID.EXIST-30                     198680.368000 8247235.167000
 HID.EXIST-31                     198499.755000 8246969.106000
 HID.EXIST-32                     198157.165000 8246634.183000
 HID.EXIST-33                     198251.337000 8246727.488000
 HID.EXIST-34                     202310.505000 8249624.845000
 HID.EXIST-35                     199734.563000 8249691.317000
 HID.EXIST-36                     199864.042000 8249668.201000
 HID.EXIST-04                     199115.873000 8251358.877000
 HID.EXIST-05                     199373.374000 8250785.898000
 HID.EXIST-06                     200234.675000 8249804.773000
 HID.EXIST-07                     199791.052000 8249210.374000
 HID.EXIST-08                     199712.720000 8248858.383000
 HID.EXIST-09                     199291.892000 8249288.304000
 2577-A                           198927.488000 8247320.698000
 2577-B                           198926.650000 8247321.120000
 2580-A                           196673.858000 8244693.375000
 2580-B                           196666.008000 8244694.847000
 2613-A                           196282.691000 8244780.297000
 2613-B                           196281.044000 8244781.242000
 5538-A                           199379.923000 8248950.421000
 5538-B                           199368.887000 8248950.528000
 5547-A                           198907.729000 8249964.104000
 5547-B                           198907.836000 8249964.514000
 5554-A                           199458.423000 8248971.028000
 5554-B                           199457.226000 8248979.940000
 5872-A                           202344.667000 8249642.326000
 5872-B                           202344.951000 8249642.516000
 5932-A                           202870.155000 8250295.366000
 5932-B                           202870.326000 8250295.649000
 5949-A                           202458.292000 8250013.575000
 5949-B                           202461.331000 8250017.119000
 5956-A                           202651.554000 8250367.523000
 5956-B                           202647.291000 8250376.728000
 5966-A                           201792.348000 8249382.213000
 5966-B                           201798.523000 8249384.757000
 6011-A                           199182.630000 8251342.990000
 6011-B                           199181.898000 8251343.189000
 6105-A                           199451.299000 8251108.988000
 6105-B                           199450.975000 8251108.770000
 6121-A                           198766.736000 8251175.479000
 6121-B                           198765.422000 8251175.840000
 6157-A                           196919.868000 8245177.200000
 6157-B                           196919.340000 8245178.883000
 6551-A                           199822.324000 8250565.416000
 6551-B                           199822.186000 8250565.944000
 6552-A                           199375.642000 8250806.776000
 6552-B                           199375.619000 8250807.664000
 2                                198567.081000 8251102.108000
 3                                198705.150000 8251123.375000
 4                                198531.636000 8250982.269000
 5                                198959.555000 8250833.166000
 6                                198951.927000 8250835.260000
 7                                202640.414000 8250231.986000
 8                                196725.168000 8244653.001000
 RAP.LSL.002                      197937.259000 8244208.483000
 ENTRADA                          192129.550000 8244640.340000

[VERTICES]
 1615540                          197801.779000 8245108.051000
 1614537                          194028.252000 8245254.370000
 1614537                          194028.712000 8245256.180000
 1614537                          194031.332000 8245266.500000
 1614537                          194038.212000 8245293.570000
 1615727                          201775.250000 8250099.590000
 1615727                          201775.130000 8250100.370000
 1615727                          201775.020000 8250101.010000
 1616594                          199077.680000 8249904.320000
 1616583                          198668.390000 8249096.940000
 1616555                          200244.121000 8249677.045000
 1615642                          202320.600000 8249631.000000
 1616610                          198684.640000 8249910.530000
 1614810                          196765.740000 8244721.280000
 1616876                          198901.580000 8248161.907000
 1616876                          198886.653000 8248176.956000
 1612571                          197208.002000 8247331.690000
 1612571                          197231.252000 8247333.040000
 1612571                          197238.182000 8247334.020000
 1612571                          197248.792000 8247337.450000
 1612571                          197251.372000 8247338.620000
 1616600                          198934.700000 8250159.200000
 1614634                          199122.429000 8251292.454000
 1614634                          199039.089000 8251313.734000
 1614634                          199022.709000 8251317.764000
 1614634                          198934.429000 8251343.054000
 1616935                          199135.129000 8250952.504000
 1616935                          199122.789000 8250955.664000
 1616935                          199088.699000 8250964.774000
 1615355                          198210.030000 8245891.530000
 1616596                          198907.570000 8249964.830000
 1614671                          198953.219000 8251587.714000
 1614473                          193154.832000 8244667.310000
 1616581                          198704.280000 8249265.820000
 1616611                          198610.500000 8249505.850000
 1616657                          198379.991000 8248018.427000
 1615093                          198110.290000 8246024.010000
 1615093                          198086.710000 8246056.020000
 1615093                          198026.060000 8246136.500000
 1614819                          195783.035000 8244517.371000
 1614364                          197367.112000 8247411.120000
 1612563                          195680.172000 8246535.900000
 1616630                          198894.379000 8247269.194000
 1615088                          195884.261000 8244283.774000
 1616385                          197412.769000 8245318.074000
 1616662                          198891.670000 8248183.240000
 1616662                          198767.544000 8248336.516000
 1616646                          198472.974000 8247181.998000
 1614954                          199227.559000 8250927.744000
 1614954                          199200.669000 8250934.874000
 1614821                          195911.884000 8244591.835000
 1614821                          195874.576000 8244569.575000
 1614636                          198885.919000 8251360.934000
 1615670                          202713.350000 8250571.950000
 1615670                          202691.250000 8250594.230000
 1616628                          198995.559000 8247366.084000
 1615578                          199287.119000 8250991.884000
 1615578                          199273.179000 8250951.334000
 1615550                          198787.089000 8250819.724000
 1615550                          198790.359000 8250832.244000
 1615550                          198795.929000 8250854.244000
 1614825                          196128.950000 8244737.560000
 1616561                          199124.110000 8249044.450000
 1614685                          199093.589000 8251566.264000
 1616573                          199232.800000 8249645.220000
 1612589                          193793.752000 8244945.870000
 1612589                          193806.832000 8244955.000000
 1612589                          193830.982000 8244973.240000
 1616707                          199998.230000 8248465.150000
 1616707                          200013.030000 8248496.490000
 1616707                          200036.030000 8248551.150000
 1616707                          200051.640000 8248594.440000
 1616707                          200069.450000 8248649.980000
 1616707                          200084.860000 8248709.010000
 1616707                          200093.410000 8248750.960000
 1614882                          196125.770000 8244936.470000
 1614882                          196069.840000 8244962.480000
 1614882                          196018.860000 8244986.630000
 1614882                          195954.090000 8245015.970000
 1614882                          195893.880000 8245044.080000
 1614882                          195838.580000 8245070.330000
 1614882                          195781.030000 8245096.860000
 1614882                          195727.580000 8245121.880000
 1614882                          195685.550000 8245141.270000
 1616532                          199529.984000 8249294.866000
 1616672                          198506.415000 8248128.441000
 1614727                          199275.119000 8251733.244000
 1614787                          199605.579000 8250963.204000
 1615107                          197661.100000 8245929.280000
 1616693                          199375.970000 8247787.200000
 1616592                          198861.320000 8249695.480000
 1615761                          202141.056000 8249782.663000
 1614775                          198708.760000 8251128.300000
 1614775                          198686.070000 8251133.890000
 1614775                          198657.390000 8251141.210000
 1616685                          198927.114000 8247448.734000
 1614501                          196227.002000 8247111.910000
 1616384                          196966.360000 8245092.330000
 1614550                          194272.372000 8246095.550000
 1613059                          194192.292000 8245970.490000
 1613059                          194193.032000 8245972.090000
 1613059                          194193.552000 8245973.220000
 1613059                          194193.942000 8245974.090000
 1616612                          198743.850000 8249481.520000
 1614363                          197385.812000 8247432.750000
 1615611                          202300.189000 8249868.281000
 1614820                          197850.260000 8246197.010000
 1615647                          202714.040000 8250290.350000
 1615430                          198709.360000 8251181.080000
 1615594                          201828.489000 8250105.011000
 1615594                          201829.410000 8250103.676000
 1615594                          201830.272000 8250102.004000
 1615376                          197124.280000 8244473.400000
 1614677                          198995.899000 8251508.354000
 1612570                          197529.322000 8247364.890000
 1616681                          198876.594000 8247576.452000
 1616677                          198713.339000 8248301.149000
 1614563                          195256.762000 8246435.360000
 1616665                          198608.502000 8247487.207000
 1616683                          199071.070000 8247598.020000
 1616536                          199805.405000 8249317.308000
 1615387                          196138.702000 8244440.125000
 1614773                          198646.940000 8251159.590000
 1615199                          197602.880000 8246427.350000
 1614728                          199288.739000 8251706.714000
 1614475                          193008.642000 8244608.590000
 1616586                          198943.950000 8249164.820000
 1616643                          198380.570000 8247104.190000
 1615379                          197610.580000 8244248.740000
 1615389                          196347.349000 8244563.200000
 1616723                          199174.524000 8248048.806000
 1616671                          198404.366000 8248264.319000
 1614647                          198754.059000 8251457.904000
 1614647                          198752.509000 8251451.744000
 1616992                          198176.359000 8246597.144000
 1615464                          195973.040000 8244634.050000
 1615464                          195958.496000 8244623.189000
 1614638                          198902.129000 8251353.494000
 1614739                          199214.819000 8251536.324000
 1615356                          199182.656000 8250826.156000
 1615356                          199185.356000 8250823.638000
 1615356                          199186.938000 8250817.357000
 1615356                          199187.929000 8250813.344000
 1614640                          198915.979000 8251349.364000
 1614640                          198911.049000 8251350.814000
 1614640                          198909.429000 8251351.234000
 1615717                          201919.154000 8249959.764000
 1615717                          201882.116000 8250020.312000
 1616588                          198816.390000 8249449.120000
 1616982                          202344.970000 8249643.690000
 1616982                          202379.430000 8249663.400000
 1616519                          199945.592000 8248577.347000
 1615557                          199782.359000 8250737.294000
 1616544                          199706.219000 8249463.513000
 1616530                          199593.632000 8249583.667000
 1615348                          198958.369000 8250830.974000
 1615348                          199047.609000 8250809.634000
 1615348                          199063.219000 8250806.654000
 1615348                          199086.839000 8250802.604000
 1615348                          199111.319000 8250798.434000
 1615348                          199126.459000 8250795.484000
 1615048                          197886.930000 8245407.350000
 1615048                          197889.850000 8245405.070000
 1615048                          197893.970000 8245402.360000
 1616732                          199721.633000 8248836.349000
 1616732                          199682.344000 8248624.043000
 1616989                          194663.542000 8246310.450000
 1616989                          194665.322000 8246310.800000
 1616989                          194688.982000 8246314.820000
 1616700                          200281.790000 8249794.153000
 1614846                          197412.430000 8245317.600000
 1616639                          198190.530000 8246973.360000
 1614678                          198965.279000 8251508.924000
 1614678                          198958.309000 8251512.294000
 1614678                          198952.039000 8251516.814000
 1616640                          198350.521000 8246798.383000
 1614745                          198796.820000 8250829.220000
 1615517                          199455.229000 8250805.154000
 1615517                          199401.369000 8250804.444000
 1612576                          197285.032000 8247354.620000
 1615748                          202462.111000 8250019.675000
 1615748                          202460.284000 8250021.765000
 1614762                          195480.559000 8244040.942000
 1616729                          199969.390000 8248451.160000
 1616735                          199814.776000 8248600.251000
 1614818                          196792.682000 8244637.920000
 1614818                          196818.685000 8244626.635000
 1615581                          199266.519000 8251023.154000
 1615581                          199254.999000 8251026.264000
 1615581                          199176.449000 8251046.844000
 1615581                          199124.449000 8251060.654000
 1616941                          199019.510000 8251088.130000
 1615287                          196575.129000 8244737.604000
 1615287                          196509.219000 8244768.344000
 1615287                          196507.209000 8244769.284000
 1615287                          196506.489000 8244769.634000
 1615287                          196505.629000 8244770.024000
 1616957                          199119.699000 8250901.514000
 1616518                          199976.572000 8248790.096000
 1614926                          197318.640000 8245369.280000
 1614926                          197262.950000 8245494.630000
 1614703                          199169.979000 8251669.864000
 1614662                          198989.579000 8251650.534000
 1614662                          198977.399000 8251642.884000
 1614662                          198972.779000 8251639.474000
 1614662                          198969.039000 8251635.754000
 1614662                          198947.799000 8251613.214000
 1615058                          197858.220000 8245384.810000
 1615058                          197857.680000 8245377.310000
 1615058                          197856.470000 8245372.090000
 1615058                          197855.790000 8245369.060000
 1615668                          202223.275000 8249819.202000
 1616617                          198506.638000 8247867.245000
 1614500                          195807.832000 8246580.700000
 1614500                          195828.102000 8246593.930000
 1614798                          198619.069000 8251068.894000
 1614798                          198614.719000 8251054.384000
 1614798                          198610.299000 8251039.084000
 1614798                          198603.629000 8251015.224000
 1616533                          199653.267000 8249247.375000
 1614903                          197244.480000 8245749.920000
 1616711                          199581.869000 8247964.084000
 1614646                          198751.569000 8251434.584000
 1614646                          198752.689000 8251424.924000
 1616570                          199433.690000 8250005.410000
 1616737                          199842.993000 8248814.299000
 1616616                          198379.098000 8248002.458000
 1616994                          199468.889000 8248947.284000
 1614748                          198979.739000 8251505.864000
 1616537                          200169.932000 8249260.174000
 1614498                          195921.562000 8246661.910000
 1616724                          199470.449000 8249752.314000
 1616724                          199503.069000 8249795.944000
 1616724                          199564.249000 8249859.004000
 1616724                          199616.709000 8249907.674000
 1616724                          199768.289000 8250046.434000
 1616556                          200267.763000 8249807.870000
 1616550                          199868.580000 8249655.170000
 1616690                          198874.364000 8247747.154000
 1616674                          198505.040000 8248349.505000
 1614980                          196447.460000 8244788.780000
 1614980                          196480.600000 8244772.750000
 1614980                          196482.330000 8244771.900000
 1614980                          196483.370000 8244771.390000
 1614980                          196484.160000 8244771.000000
 1614980                          196519.300000 8244753.900000
 1614980                          196552.560000 8244737.840000
 1614980                          196584.790000 8244722.210000
 1614980                          196592.810000 8244717.500000
 1616572                          199384.260000 8249757.130000
 1616710                          199672.629000 8248052.264000
 1616597                          198906.500000 8249959.040000
 1614648                          198763.229000 8251475.534000
 1614648                          198757.479000 8251466.384000
 1616650                          198825.702000 8247349.950000
 1616699                          199473.436000 8247880.069000
 1615276                          196607.390000 8244720.220000
 1615421                          200148.760000 8249107.170000
 1615421                          200138.030000 8249048.100000
 1615421                          200126.990000 8248988.840000
 1615421                          200119.790000 8248949.390000
 1615421                          200108.780000 8248890.330000
 1615421                          200097.820000 8248831.360000
 1615421                          200090.550000 8248791.960000
 1615421                          200086.890000 8248772.280000
 1615421                          200074.950000 8248713.420000
 1615421                          200065.380000 8248674.660000
 1615421                          200060.370000 8248655.310000
 1615421                          200054.210000 8248636.300000
 1615421                          200048.410000 8248617.150000
 1615421                          200041.970000 8248598.140000
 1615421                          200008.262000 8248499.823000
 1615421                          199999.677000 8248479.597000
 1615421                          199989.702000 8248458.543000
 1616636                          198254.295000 8246704.236000
 1616680                          198742.072000 8247722.902000
 1615563                          195622.322000 8244127.110000
 1616590                          199033.100000 8249659.500000
 1616668                          198700.191000 8248026.200000
 1614628                          198838.580000 8251422.740000
 1614628                          198836.440000 8251428.090000
 1616569                          199302.940000 8250029.890000
 1614570                          194910.442000 8246343.820000
 1615264                          198705.440000 8251066.840000
 1615264                          198660.480000 8251078.600000
 1616534                          199622.810000 8249030.799000
 1616603                          198740.240000 8250191.310000
 1614639                          195905.210000 8244040.880000
 1615249                          196430.699000 8244807.894000
 1616589                          198982.870000 8249414.220000
 1615573                          199455.489000 8251154.444000
 1614568                          195037.722000 8246371.470000
 1615235                          199665.419000 8250792.544000
 1615235                          199605.419000 8250792.204000
 1615235                          199545.429000 8250792.704000
 1615235                          199455.429000 8250792.134000
 1615110                          196433.300000 8244803.160000
 1604927                          192138.612000 8244635.040000
 1604927                          192146.362000 8244628.930000
 1604927                          192179.342000 8244606.150000
 1604927                          192195.902000 8244594.840000
 1604927                          192197.872000 8244593.660000
 1604927                          192199.722000 8244592.560000
 1604927                          192200.992000 8244591.790000
 1604927                          192213.092000 8244584.550000
 1604927                          192228.892000 8244572.260000
 1604927                          192247.452000 8244564.950000
 1604927                          192266.092000 8244557.560000
 1604927                          192284.722000 8244550.210000
 1604927                          192303.322000 8244542.940000
 1604927                          192321.962000 8244535.610000
 1604927                          192340.692000 8244529.940000
 1604927                          192361.202000 8244527.410000
 1604927                          192380.822000 8244523.350000
 1604927                          192400.442000 8244519.210000
 1604927                          192419.972000 8244515.150000
 1604927                          192439.552000 8244511.030000
 1604927                          192459.182000 8244506.990000
 1604927                          192479.192000 8244506.630000
 1604927                          192499.062000 8244506.300000
 1604927                          192519.092000 8244505.980000
 1604927                          192539.022000 8244505.610000
 1604927                          192559.102000 8244505.220000
 1604927                          192579.042000 8244506.480000
 1604927                          192599.082000 8244507.620000
 1604927                          192619.142000 8244508.760000
 1604927                          192638.982000 8244511.040000
 1604927                          192658.892000 8244513.440000
 1604927                          192678.832000 8244515.820000
 1615805                          199808.019000 8250660.104000
 1616726                          199455.289000 8248570.614000
 1616726                          199465.309000 8248600.634000
 1616726                          199476.229000 8248643.514000
 1616726                          199485.719000 8248691.974000
 1616726                          199490.629000 8248730.944000
 1616726                          199492.349000 8248766.854000
 1616726                          199490.989000 8248816.904000
 1616726                          199489.639000 8248839.104000
 1616726                          199481.439000 8248897.124000
 1616726                          199475.449000 8248922.804000
 1616560                          199169.410000 8249318.540000
 1615362                          196152.510000 8244908.790000
 1615362                          196152.940000 8244909.700000
 1615362                          196153.420000 8244910.710000
 1614742                          199140.339000 8251503.524000
 1610581_n2a                      200264.956000 8249750.653000
 1610581_n2a                      200265.206000 8249752.055000
 1616692                          199075.339000 8247951.128000
 1616523                          200104.921000 8248898.701000
 1614701                          199196.619000 8251642.824000
 1614701                          199201.029000 8251634.714000
 1615231                          198707.059000 8250989.754000
 1615231                          198699.109000 8250963.104000
 1614575                          194700.002000 8246316.960000
 1614575                          194700.002000 8246316.960000
 1615612                          202377.119000 8249917.054000
 1616675                          198606.221000 8248212.502000
 1614797                          199379.679000 8250923.884000
 1614797                          199362.849000 8250874.634000
 1615598                          202924.050000 8250344.770000
 1616585                          198775.640000 8249201.850000
 1614744                          199107.959000 8251478.004000
 1616714                          199640.088000 8248044.687000
 1616552                          200128.885000 8249606.778000
 1616613                          198817.430000 8249885.550000
 1614890                          196387.250000 8244730.610000
 1616563                          199253.900000 8249020.560000
 1614808                          199377.369000 8251021.024000
 1614808                          199348.689000 8251028.484000
 1616579                          199223.380000 8248960.273000
 1616579                          199070.327000 8248989.696000
 1616579                          198980.213000 8249006.411000
 1616579                          198762.253000 8249045.229000
 1615718                          201926.588000 8250120.846000
 1615718                          201926.172000 8250122.103000
 1615718                          201926.112000 8250123.220000
 1616551                          199997.304000 8249631.785000
 1615259                          199232.589000 8251164.084000
 1615259                          199250.829000 8251159.204000
 1615259                          199267.199000 8251154.824000
 1615259                          199281.629000 8251150.974000
 1615259                          199290.759000 8251148.534000
 1615259                          199311.869000 8251143.124000
 1615259                          199334.459000 8251137.454000
 1615259                          199367.209000 8251128.944000
 1615259                          199379.079000 8251126.724000
 1616688                          199020.524000 8247711.466000
 1614687                          199107.169000 8251586.104000
 1615674                          202659.990000 8250623.450000
 1615674                          202659.040000 8250623.260000
 1615674                          202657.420000 8250622.700000
 1615674                          202656.280000 8250622.240000
 1615674                          202655.960000 8250622.130000
 1615674                          202655.630000 8250622.000000
 1615674                          202655.190000 8250621.790000
 1615674                          202654.740000 8250621.570000
 1615674                          202652.160000 8250619.780000
 1615674                          202646.870000 8250615.510000
 1615674                          202635.720000 8250603.730000
 1615674                          202629.130000 8250597.390000
 1615674                          202625.860000 8250593.870000
 1615674                          202624.900000 8250592.580000
 1615674                          202624.120000 8250591.010000
 1615674                          202623.090000 8250588.400000
 1615674                          202622.860000 8250587.680000
 1615674                          202622.640000 8250586.310000
 1615674                          202622.710000 8250584.990000
 1615674                          202622.860000 8250584.070000
 1615674                          202623.100000 8250582.890000
 1615674                          202623.150000 8250582.650000
 1615674                          202650.680000 8250539.960000
 1616604                          198716.540000 8250064.500000
 1615217                          199419.386000 8251126.748000
 1615539                          199149.359000 8250840.394000
 1616647                          198738.809000 8247438.916000
 1615290                          196433.639000 8244803.634000
 1616542                          199833.030000 8249441.380000
 1616889                          199459.719000 8248981.564000
 1616889                          199423.089000 8249119.354000
 1616889                          199390.919000 8249240.374000
 1614829                          195905.162000 8244299.422000
 1616528                          199536.726000 8249283.019000
 1616562                          199215.320000 8249548.470000
 1615575                          199258.829000 8250884.364000
 1615575                          199274.629000 8250930.324000
 1615575                          199298.289000 8251000.874000
 1615584                          199384.600000 8251131.636000
 1615584                          199380.770000 8251131.796000
 1615584                          199377.360000 8251132.136000
 1615584                          199371.960000 8251133.296000
 1615584                          199360.840000 8251135.956000
 1615584                          199336.420000 8251142.266000
 1615584                          199311.760000 8251148.746000
 1615584                          199281.030000 8251156.536000
 1615584                          199249.600000 8251164.586000
 1615584                          199226.470000 8251170.566000
 1615584                          199206.350000 8251175.736000
 1615584                          199183.070000 8251181.706000
 1615584                          199159.650000 8251187.626000
 1615584                          199133.990000 8251193.946000
 1615584                          199111.930000 8251199.706000
 1615584                          199082.370000 8251207.096000
 1616540                          199966.875000 8249417.055000
 1614767                          198817.577000 8250929.427000
 1616719                          199328.290000 8248314.350000
 1616719                          199348.390000 8248335.010000
 1616719                          199379.280000 8248367.620000
 1616719                          199401.030000 8248394.390000
 1616719                          199410.390000 8248407.120000
 1616719                          199426.520000 8248431.860000
 1616719                          199447.920000 8248468.590000
 1616593                          198910.220000 8249940.110000
 1612586                          193680.802000 8244887.420000
 1612586                          193702.462000 8244896.990000
 1615639                          202129.154000 8250145.593000
 1615639                          202128.340000 8250147.567000
 1615639                          202127.464000 8250148.844000
 1616884                          198736.647000 8249059.887000
 1616884                          198736.132000 8249064.527000
 1616884                          198736.883000 8249066.113000
 1616884                          198737.110000 8249066.930000
 1614765                          195582.867000 8244102.963000
 1616940                          199215.239000 8251062.834000
 1616940                          199163.799000 8251075.524000
 1616940                          199129.999000 8251084.264000
 1614360                          197469.242000 8247423.520000
 1614360                          197483.472000 8247407.480000
 1614360                          197487.542000 8247403.520000
 1614835                          197799.560000 8246127.230000
 1614835                          197794.710000 8246119.260000
 1615544                          198967.975000 8250833.429000
 1615544                          199016.315000 8250822.159000
 1615544                          199028.795000 8250818.939000
 1615544                          199041.665000 8250816.019000
 1615544                          199068.685000 8250809.789000
 1615544                          199086.735000 8250806.579000
 1615544                          199114.315000 8250801.229000
 1615544                          199126.315000 8250799.159000
 1615544                          199139.035000 8250797.889000
 1615641                          202025.715000 8250136.329000
 1615641                          202025.088000 8250139.588000
 1615641                          202025.804000 8250141.845000
 1614675                          198942.159000 8251529.024000
 1614675                          198938.599000 8251537.504000
 1614675                          198937.039000 8251544.874000
 1616549                          199735.760000 8249680.163000
 1615487                          199979.520000 8248438.100000
 1615487                          199968.740000 8248418.180000
 1615487                          199957.380000 8248398.590000
 1615487                          199945.430000 8248379.340000
 1615487                          199932.910000 8248360.470000
 1615487                          199919.830000 8248341.980000
 1615487                          199806.856000 8248194.285000
 1615579                          198749.320000 8251133.770000
 1616633                          198170.710000 8246607.520000
 1615543                          199197.639000 8250844.794000
 1615543                          199184.529000 8250848.114000
 1615543                          199181.859000 8250851.274000
 1615543                          199168.339000 8250863.664000
 1615543                          199153.629000 8250875.714000
 1615543                          199139.909000 8250886.424000
 1616582                          198681.910000 8249076.350000
 1616582                          198677.380000 8249078.050000
 1616582                          198673.860000 8249080.350000
 1616582                          198672.380000 8249083.630000
 1616582                          198671.640000 8249087.850000
 1616582                          198671.790000 8249094.030000
 1615465                          196020.417000 8244659.209000
 1614352                          196251.552000 8247142.370000
 1614887                          196255.840000 8244793.280000
 1615383                          195967.666000 8244335.547000
 1615511                          199693.824000 8250805.615000
 1615511                          199686.492000 8250806.041000
 1615511                          199646.642000 8250805.841000
 1615254                          198958.610000 8251104.440000
 1615254                          198918.660000 8251115.110000
 1615254                          198866.140000 8251129.040000
 1615254                          198823.800000 8251140.440000
 1615254                          198802.340000 8251146.090000
 1616706                          200108.870000 8248834.770000
 1616605                          198903.060000 8250033.660000
 1615300                          197409.870000 8245308.970000
 1615504                          198917.469000 8250840.644000
 1616527                          200128.405000 8249029.258000
 1614635                          198874.609000 8251368.504000
 1615637                          202229.343000 8250153.996000
 1615637                          202228.605000 8250155.648000
 1615637                          202227.975000 8250157.095000
 1616988                          192894.062000 8244561.340000
 1616988                          192899.612000 8244563.050000
 1614730                          199292.619000 8251677.334000
 1615087                          198681.600000 8251271.160000
 1615087                          198675.530000 8251250.930000
 1614620                          199444.949000 8251085.394000
 1614620                          199440.879000 8251081.734000
 1614620                          199436.049000 8251076.494000
 1614620                          199431.419000 8251069.864000
 1614620                          199429.009000 8251066.344000
 1614620                          199426.139000 8251061.504000
 1614620                          199422.059000 8251048.734000
 1614620                          199413.059000 8251022.734000
 1614880                          195770.110000 8244532.860000
 1615385                          196077.496000 8244402.455000
 1614673                          198938.199000 8251561.734000
 1614673                          198942.939000 8251572.984000
 1616521                          199764.321000 8249070.218000
 1616937                          199107.189000 8250907.544000
 1616937                          199097.559000 8250912.694000
 1616937                          199088.029000 8250917.264000
 1615509                          199805.989000 8250598.264000
 1615509                          199789.269000 8250655.884000
 1615509                          199766.389000 8250711.354000
 1615509                          199734.569000 8250762.224000
 1616717                          199735.641000 8248135.480000
 1614653                          198822.869000 8251510.774000
 1614733                          199281.959000 8251617.474000
 1614632                          198861.069000 8251381.294000
 1614632                          198856.739000 8251386.344000
 1614339                          196792.542000 8247342.990000
 1614649                          198776.259000 8251487.814000
 1614649                          198771.209000 8251483.954000
 1615595                          201779.970000 8250098.320000
 1616722                          199513.690000 8248377.790000
 1616669                          198574.147000 8248162.941000
 1612573                          197060.542000 8247321.950000
 1614629                          198848.550000 8251397.930000
 1614629                          198843.620000 8251408.110000
 1615226                          198805.930000 8251039.940000
 1615226                          198751.970000 8251054.390000
 1607391                          192698.762000 8244518.180000
 1607391                          192718.612000 8244520.490000
 1607391                          192738.282000 8244524.520000
 1607391                          192757.852000 8244528.690000
 1607391                          192777.732000 8244532.360000
 1607391                          192797.482000 8244536.250000
 1607391                          192817.102000 8244540.140000
 1607391                          192836.872000 8244544.210000
 1616538                          200097.912000 8249393.336000
 1616678                          198575.577000 8248481.567000
 1614772                          198679.609000 8250872.854000
 1614772                          198657.409000 8250800.054000
 1615373                          195862.800000 8243968.010000
 1614975                          197363.670000 8245285.760000
 1616649                          198560.979000 8247091.886000
 1615514(1)                       199566.327000 8250867.718000
 1615098(1)                       199576.419000 8250805.894000
 1616954(1)                       199348.369000 8250804.084000
 1615541(2)                       199121.169000 8250858.454000
 1616939(2)                       199123.729000 8250947.754000
 1616939(2)                       199125.469000 8250947.304000
 1616939(2)                       199124.559000 8250944.834000
 1615089(2)                       198721.520000 8251038.220000
 1615089(2)                       198717.160000 8251023.610000
 1615546(1)(2)                    198879.057000 8250858.524000
 1615546(1)(2)                    198911.247000 8250847.704000
 1615546(1)(2)                    198934.777000 8250841.894000
 1614849(2)                       198577.779000 8250930.244000
 1614849(2)                       198564.579000 8250885.454000
 1614849(2)                       198545.099000 8250819.134000
 1614848(2)                       198523.770000 8250959.830000
 1614848(2)                       198518.960000 8250943.840000
 1614848(2)                       198507.140000 8250904.370000
 1614848(2)                       198493.030000 8250855.570000
 1614848(2)                       198474.670000 8250792.460000
 1615546(1)(1)(2)                 198864.957000 8250864.601000
 1615481(1)                       198779.909000 8250979.804000
 1615534(2)                       198621.460000 8251104.230000
 1615534(2)                       198627.150000 8251122.870000
 1615534(2)                       198644.630000 8251180.040000
 1615324(1)                       197410.209000 8245309.444000
 1615324(1)                       197364.009000 8245286.234000
 1615324(2)                       197144.989000 8245176.174000
 1615615(2)                       202492.810000 8249744.770000
 1615615(2)                       202424.220000 8249692.660000
 1615795(2)                       202503.350000 8250071.119000
 1615795(2)                       202500.111000 8250066.907000
 1615795(2)                       202496.279000 8250063.298000
 1615657(1)                       202884.080000 8250311.460000
 1616580(2)(2)(2)(2)(2)(2)        199319.299000 8248951.945000
 1616580(2)(2)(2)(2)(2)(2)        199284.093000 8248952.250000
 1615608(2)(2)                    202377.970000 8249663.630000
 1615600(1)                       202694.795000 8250310.949000
 1615326(2)                       199347.874000 8250800.040000
 1615326(2)                       199331.169000 8250803.742000
 1615326(2)                       199318.052000 8250805.390000
 1615326(2)                       199307.016000 8250808.780000
 1615326(2)                       199281.201000 8250815.623000
 1615326(2)                       199265.568000 8250823.212000
 1615326(2)                       199257.723000 8250825.822000
 1615326(2)                       199237.159000 8250831.574000
 1615533(2)(2)                    199183.819000 8250790.114000
 1615533(2)(2)                    199242.499000 8250784.284000
 1615533(2)(2)                    199317.189000 8250785.744000
 1615533(2)(2)                    199349.659000 8250787.604000
 1615533(2)(2)                    199359.839000 8250795.204000
 1615533(2)(2)                    199368.429000 8250803.794000
 1615574(1)                       199450.479000 8251108.594000
 1615571(1)                       199411.529000 8251123.374000
 1615571(1)                       199412.429000 8251122.924000
 1615571(1)                       199426.089000 8251111.674000
 1615583(2)                       198775.620000 8251279.410000
 1615583(2)                       198728.670000 8251292.320000
 1615583(1)(1)                    199047.372000 8251208.739000
 1615583(1)(1)                    199015.012000 8251217.339000
 1614804(2)                       198745.010000 8251181.170000
 1614804(2)                       198733.560000 8251184.180000
 1614804(2)                       198694.100000 8251194.280000
 1614804(2)                       198664.520000 8251201.480000
 1614804(1)(1)(1)                 199072.950000 8251098.270000
 1614804(1)(1)(1)                 199035.700000 8251107.480000
 1614804(1)(1)(1)                 199007.040000 8251114.940000
 1615582(2)                       199399.499000 8250983.284000
 1615520(2)(1)                    199317.929000 8250810.174000
 1615520(2)(1)                    199301.849000 8250814.654000
 1615520(2)(1)                    199289.109000 8250818.674000
 1615520(2)(1)                    199275.899000 8250823.494000
 1615520(2)(1)                    199267.399000 8250826.484000
 1614804(1)(1)(2)(2)(1)           198961.610000 8251126.490000
 1614804(1)(1)(2)(2)(1)           198919.500000 8251137.390000
 1614804(1)(1)(2)(2)(1)           198874.940000 8251148.140000
 1614804(1)(1)(2)(2)(1)           198864.790000 8251150.720000
 1614804(1)(1)(2)(2)(1)           198840.260000 8251156.950000
 1614804(1)(1)(2)(2)(1)           198813.750000 8251163.780000
 1614804(1)(1)(2)(2)(1)           198782.350000 8251171.860000
 1615092(1)                       197999.790000 8246168.290000
 1615092(1)                       197984.140000 8246184.110000
 1615092(1)                       197975.390000 8246192.020000
 1615092(1)                       197970.050000 8246196.210000
 1615255(2)                       196900.150000 8245042.210000
 1615328(1)                       197340.839000 8245520.594000
 1614931(2)                       196680.819000 8244704.154000
 1615250(1)                       196556.610000 8244664.350000
 1615565(2)                       196554.910000 8244664.590000
 1615565(2)                       196535.710000 8244666.620000
 1614892(2)                       196498.600000 8244677.620000
 1614892(2)                       196469.090000 8244691.000000
 1615255(1)(2)                    196558.360000 8244867.290000
 1615255(1)(2)                    196624.650000 8244900.850000
 1615255(1)(2)                    196690.150000 8244934.540000
 1615255(1)(2)                    196749.690000 8244964.500000
 1615255(1)(2)                    196827.840000 8245004.980000
 1615282(1)                       197708.712000 8245019.474000
 P-50(1)                          199370.993000 8249296.723000
 P-50(1)                          199364.545000 8249378.794000
 P-50(1)                          199363.860000 8249449.333000
 P-50(2)                          199370.580000 8249511.981000
 P-50(2)                          199383.037000 8249573.082000
 P-50(2)                          199400.858000 8249625.831000
 P-50(2)                          199429.397000 8249694.260000
 1615577(1)(1)(2)                 199051.630000 8250974.320000
 1615577(1)(1)(2)                 198977.930000 8250993.950000
 1615577(1)(1)(2)                 198899.630000 8251014.840000
 1616634(1)                       197999.660000 8246788.360000
 1616637(1)                       198095.380000 8246881.050000
 1616642(1)                       198516.430000 8246954.188000
 1616666(1)                       198692.018000 8247578.466000
 1616684(2)                       199222.465000 8247736.615000
 1616689(2)                       199163.200000 8247861.780000
 1616691(2)                       199087.743000 8247953.549000
 1616694(2)                       199229.146000 8247927.986000
 1616698(2)                       199323.286000 8248020.543000
 1616713(1)                       199492.021000 8248181.994000
 1616715(2)                       199585.643000 8248276.457000
 1616727(2)                       199693.993000 8248495.351000
 1616736(1)                       199714.252000 8248837.655000
 1616524(2)                       199858.639000 8248933.651000
 1616525(2)                       199882.524000 8249066.189000
 1616545(1)(2)                    199747.770000 8249688.984000
 1616553(2)                       199882.575000 8249734.193000
 1616557(2)                       199904.739000 8249864.273000
 1616565(2)                       199299.190000 8249292.620000
 1616725(1)                       199373.989000 8249297.534000
 1616725(1)                       199367.329000 8249378.664000
 1616725(1)                       199366.809000 8249449.864000
 1616725(2)                       199374.449000 8249512.474000
 1616725(2)                       199387.239000 8249571.714000
 1616725(2)                       199404.559000 8249623.634000
 1616725(2)                       199433.279000 8249689.904000
 1616708(2)                       199804.470000 8248183.230000
 1616708(2)                       199832.330000 8248214.160000
 1616708(2)                       199864.050000 8248251.340000
 1616708(2)                       199895.520000 8248293.250000
 1616708(2)                       199915.640000 8248322.840000
 1616708(2)                       199956.930000 8248388.760000
 1616708(2)                       199979.420000 8248429.250000
 1                                197408.268000 8245319.343000
 3                                196599.694000 8244708.860000
 48                               196394.372000 8244821.800000
 52                               199216.356000 8247619.100000
 52                               199771.415000 8248158.292000

[TAGS]

[LABELS]
;X-Coord             Y-Coord             Label & Anchor Node
198958.036        	8250820.211       	"VRP.NOVA.016"	0282
199178.249        	8251344.354       	"VRP.NOVA.017"	0085
198901.170        	8249960.020       	"VRP.NOVA.015"	0494
199487.354        	8249709.609       	"VRP NOVA 013"	0553
199458.094        	8248977.332       	"VRP 5.2.1"	0679
202576.496        	8250150.259       	"VRP.NOVA.019"	0436
202420.156        	8249687.344       	"VRP.NOVA.018 NO ARQUIVO"	0563
198939.108        	8247333.648       	"VRP.NOVA.012"	0778
195599.097        	8244493.838       	"VRP.NOVA.010 - verificar essa posicao"	0966
196966.800        	8245063.646       	"VRP.NOVA.011"	0930
192339.245        	8244449.786       	"DERIVACAO"	
197906.243        	8244096.165       	"RAP.LSL.002"	
197881.399        	8246272.750       	"LIMITE DMC 5.0"	
197537.387        	8246531.245       	"TRECHO FICARIA SEM CONEXAO POIS E FORA DA POLIGONAL"	0809
199795.054        	8248172.184       	"Confirmar se esse ponto esta interligado na de 160"	0716
199828.093        	8250584.033       	"Revisar esta conexao"	0356
199482.891        	8248873.905       	"Macromedidor 5.2"	

[BACKDROP]
  DIMENSIONS  	191588.078        	8242581.704       	203500.462        	8252185.050       
 UNITS          	None
 FILE           	
 OFFSET         	0.00            	0.00            

[END]
