[TITLE]
Scenario: Alternativa 1 
Date: 27/01/2025 14:57:18 

[JUNCTIONS]
;ID              	Elev        	Demand      	Pattern         
 0492            	1052.77612304688	0.004       	RAP.PPL.002_002 	;
 0493            	1052.77709960938	0.003       	RAP.PPL.002_002 	;
 0663            	1050.72973632813	0.008       	RAP.PPL.002_002 	;
 0664            	1050.39965820313	0.194       	RAP.PPL.002_002 	;
 0623            	1041.21044921875	0.235       	RAP.PPL.002_002 	;
 0518            	1045.53674316406	0.219       	RAP.PPL.002_002 	;
 0622            	1035.89465332031	0.235       	RAP.PPL.002_002 	;
 0511            	1036.6689453125	0.219       	RAP.PPL.002_002 	;
 0552            	1035.07690429688	0.203       	RAP.PPL.002_002 	;
 0557            	1040        	0.227       	RAP.PPL.002_002 	;
 0471            	1040        	0.14        	RAP.PPL.002_002 	;
 0490            	1052.12170410156	0.13        	RAP.PPL.002_002 	;
 0423            	1032.5029296875	0.147       	RAP.PPL.002_002 	;
 0432            	1037.74633789063	0.194       	RAP.PPL.002_002 	;
 0564            	1049.17236328125	0.126       	RAP.PPL.002_002 	;
 0477            	1050.03454589844	0.073       	RAP.PPL.002_002 	;
 0475            	1049.92895507813	0.143       	RAP.PPL.002_002 	;
 0512            	1064.31591796875	0.128       	RAP.PPL.002_002 	;
 0500            	1053.54833984375	0.133       	RAP.PPL.002_002 	;
 0584            	1065.9091796875	0.132       	RAP.PPL.002_002 	;
 0565            	1050.37829589844	0.135       	RAP.PPL.002_002 	;
 0630            	1069.33386230469	0.128       	RAP.PPL.002_002 	;
 0628            	1052.8232421875	0.131       	RAP.PPL.002_002 	;
 0655            	1069.70874023438	0.13        	RAP.PPL.002_002 	;
 0652            	1061.71569824219	0.134       	RAP.PPL.002_002 	;
 0645            	1060.05224609375	0.13        	RAP.PPL.002_002 	;
 0659            	1052.54541015625	0.159       	RAP.PPL.002_002 	;
 0672            	1074.04919433594	0.232       	RAP.PPL.002_002 	;
 0662            	1052.04138183594	0.084       	RAP.PPL.002_002 	;
 0651            	1060.82763671875	0.146       	RAP.PPL.002_002 	;
 0627            	1051.77954101563	0.187       	RAP.PPL.002_002 	;
 0562            	1049.69738769531	0.187       	RAP.PPL.002_002 	;
 0494            	1052.40637207031	0.01        	RAP.PPL.002_002 	;
 0499            	1052.62524414063	0.104       	RAP.PPL.002_002 	;
 0547            	1078.03918457031	0.078       	RAP.PPL.002_002 	;
 0489            	1061.59362792969	0.188       	RAP.PPL.002_002 	;
 0543            	1077.46545410156	0.193       	RAP.PPL.002_002 	;
 0542            	1075.54992675781	0.195       	RAP.PPL.002_002 	;
 0476            	1060.74987792969	0.243       	RAP.PPL.002_002 	;
 0592            	1078.57153320313	0.19        	RAP.PPL.002_002 	;
 0668            	1078.75805664063	0.202       	RAP.PPL.002_002 	;
 0641            	1084.68530273438	0.109       	RAP.PPL.002_002 	;
 0620            	1079.96228027344	0.272       	RAP.PPL.002_002 	;
 0665            	1073.98474121094	0.293       	RAP.PPL.002_002 	;
 0637            	1081.21728515625	0.193       	RAP.PPL.002_002 	;
 0639            	1084.77502441406	0.075       	RAP.PPL.002_002 	;
 0675            	1083.20654296875	0.035       	RAP.PPL.002_002 	;
 0643            	1086.54504394531	0.086       	RAP.PPL.002_002 	;
 0550            	1080.04821777344	0.131       	RAP.PPL.002_002 	;
 0673            	1078.30249023438	0.041       	RAP.PPL.002_002 	;
 0674            	1078.30456542969	0.035       	RAP.PPL.002_002 	;
 0625            	1085.00061035156	0.168       	                	;
 0642            	1084.50122070313	0.103       	                	;
 0638            	1081.38989257813	0.049       	                	;
 HID.EXIST-10    	1081.39404296875	0           	                	;
 HID.EXIST-09    	1084.33337402344	0           	                	;
 5538-A          	1078.30285644531	0           	                	;
 5538-B          	1078.30285644531	0           	                	;
 5547-A          	1052.77661132813	0           	                	;
 5547-B          	1052.77661132813	0           	                	;
 5554-A          	1083.52221679688	0           	                	;
 5554-B          	1083.52221679688	0           	                	;

[RESERVOIRS]
;ID              	Head        	Pattern         

[TANKS]
;ID              	Elevation   	InitLevel   	MinLevel    	MaxLevel    	Diameter    	MinVol      	VolCurve        	Overflow

[PIPES]
;ID              	Node1           	Node2           	Length      	Diameter    	Roughness   	MinorLoss   	Status
 1616884(1)      	0664            	0663            	8.10871565126984	110         	140         	0           	Open  	;
 1616594         	0500            	0512            	177.002659468106	63          	140         	0           	Open  	;
 1616583         	0645            	0659            	176.432356120697	63          	140         	0           	Open  	;
 1616610         	0511            	0552            	187.564342893295	63          	140         	0           	Open  	;
 1616600         	0432            	0423            	200.924134741858	63          	140         	0           	Open  	;
 1616574         	0499            	0494            	19.9788538199761	90          	140         	0           	Open  	;
 1616596         	0492            	0490            	11.2993691138106	90          	140         	0           	Open  	;
 1616577         	0651            	0627            	251.020506332928	110         	140         	0           	Open  	;
 1616581         	0659            	0645            	177.421173505889	63          	140         	0           	Open  	;
 1616611         	0552            	0622            	231.17475798922	63          	140         	0           	Open  	;
 1616561         	0637            	0665            	288.886228726759	63          	140         	0           	Open  	;
 1616573         	0542            	0592            	127.340598324385	63          	140         	0           	Open  	;
 1616567         	0542            	0547            	132.887734949497	63          	140         	0           	Open  	;
 1616592         	0584            	0565            	179.401550690225	63          	140         	0           	Open  	;
 1616612         	0623            	0557            	230.468852069313	63          	140         	0           	Open  	;
 1616598         	0475            	0477            	8.4246127507818	63          	140         	0           	Open  	;
 1616586         	0652            	0655            	177.036675127943	63          	140         	0           	Open  	;
 1616606         	0557            	0564            	65.8578955024299	63          	140         	0           	Open  	;
 1616608         	0511            	0622            	411.443950981948	63          	140         	0           	Open  	;
 1616576         	0627            	0562            	250.665425816977	110         	140         	0           	Open  	;
 1616588         	0630            	0628            	174.229162532824	63          	140         	0           	Open  	;
 1616609         	0518            	0623            	410.696793753359	63          	140         	0           	Open  	;
 1616570         	0543            	0489            	257.279592819123	63          	140         	0           	Open  	;
 1616575         	0562            	0499            	251.33624509902	90          	140         	0           	Open  	;
 1616572         	0489            	0543            	256.989527696097	63          	140         	0           	Open  	;
 1616597         	0494            	0493            	8.337872004679	90          	140         	0           	Open  	;
 1616590         	0565            	0584            	180.158819689675	63          	140         	0           	Open  	;
 1616587         	0627            	0628            	8.92820250664226	63          	140         	0           	Open  	;
 1616569         	0542            	0476            	271.797673166888	63          	140         	0           	Open  	;
 1616603         	0423            	0432            	200.262500377912	63          	140         	0           	Open  	;
 1616578         	0662            	0651            	134.238531725955	110         	140         	0           	Open  	;
 1616589         	0630            	0628            	175.572016779904	63          	140         	0           	Open  	;
 1616560         	0665            	0620            	512.33655922291	63          	140         	0           	Open  	;
 1616564         	0639            	0641            	8.23590310712334	63          	140         	0           	Open  	;
 1616585         	0655            	0652            	176.836422238497	63          	140         	0           	Open  	;
 1616595         	0499            	0500            	12.4612198442183	63          	140         	0           	Open  	;
 1616613         	0518            	0557            	187.751965094499	63          	140         	0           	Open  	;
 1616563         	0641            	0668            	280.683757914306	63          	140         	0           	Open  	;
 1616579         	0672            	0664            	521.889700644398	110         	140         	0           	Open  	;
 1616568         	0592            	0476            	390.984505318774	63          	140         	0           	Open  	;
 1616604         	0471            	0475            	191.262565658093	63          	140         	0           	Open  	;
 1616584         	0651            	0652            	13.4814390922345	63          	140         	0           	Open  	;
 1616562         	0620            	0637            	231.898747592807	63          	140         	0           	Open  	;
 1616593         	0500            	0512            	173.48517904285	63          	140         	0           	Open  	;
 1616884         	0663            	0662            	13.4745084972572	110         	140         	0           	Open  	;
 1616599         	0490            	0564            	279.131181346822	63          	140         	0           	Open  	;
 1616571         	0547            	0543            	14.1909865762739	63          	140         	0           	Open  	;
 1616591         	0562            	0565            	8.59461459273114	63          	140         	0           	Open  	;
 1616582         	0662            	0659            	81.3562738468788	63          	140         	0           	Open  	;
 1616605         	0471            	0475            	191.923405628541	63          	140         	0           	Open  	;
 1616607         	0552            	0557            	135.310688786856	63          	140         	0           	Open  	;
 1616602         	0490            	0477            	63.9927902185903	63          	140         	0           	Open  	;
 1616601         	0477            	0432            	128.19935140271	63          	140         	0           	Open  	;
 1616559(2)(2)(2)	0643            	0639            	68.7195040435349	63          	140         	0           	Open  	;
 1616566(1)(1)(1)(1)	0547            	0550            	64.825787806776	63          	140         	0           	Open  	;
 VRP.NOVA.015-B(1)	0493            	5547-A          	0.0491679524080147	90          	140         	0           	Open  	;
 VRP.NOVA.015-B(2)	5547-B          	0492            	0.0528130810507467	90          	140         	0           	Open  	;
 P-47(1)         	0675            	5554-A          	28.076288406932	160         	140         	0           	Open  	;
 P-47(2)         	5554-B          	0643            	321.785200321225	160         	140         	0           	Open  	;
 1616580(2)(2)(2)(2)(2)(1)	5538-B          	0673            	0.00335127031980948	90          	140         	0           	Open  	;
 1616580(2)(2)(2)(2)(2)(2)	0673            	0672            	111.971739263536	110         	140         	0           	Open  	;
 1616580(2)(2)(2)(2)(1)(1)	0675            	0674            	94.8665591579698	110         	140         	0           	Open  	;
 1616580(2)(2)(2)(2)(1)(2)	0674            	5538-A          	0.0204488762819512	90          	140         	0           	Open  	;
 P-50(1)         	0643            	0625            	165.855238867232	160         	140         	0           	Open  	;
 P-50(2)         	0625            	0550            	293.302366921668	160         	140         	0           	Open  	;
 1616565(1)      	0668            	0642            	270.621329224503	63          	140         	0           	Open  	;
 1616565(2)      	0642            	0641            	9.94806576187683	63          	140         	0           	Open  	;
 P-227           	HID.EXIST-09    	0642            	6.28286882142327	63          	140         	0           	Open  	;
 1616558(1)      	0639            	0638            	126.685029566704	63          	140         	0           	Open  	;
 1616558(2)      	0638            	0637            	6.23076601939889	63          	140         	0           	Open  	;
 P-228           	HID.EXIST-10    	0638            	1.70615026924612	63          	140         	0           	Open  	;
 44              	5538-A          	5538-B          	1           	90          	140         	0           	Open  	;
 55              	5554-A          	5554-B          	1           	160         	140         	0           	Open  	;

[PUMPS]
;ID              	Node1           	Node2           	Parameters

[VALVES]
;ID              	Node1           	Node2           	Diameter    	Type	Setting     	MinorLoss   
 VRP5.2-3        	5547-A          	5547-B          	40          	PRV 	5           	0           	;

[TAGS]

[DEMANDS]
;Junction        	Demand      	Pattern         	Category

[STATUS]
;ID              	Status/Setting

[PATTERNS]
;ID              	Multipliers
;
 RAP.PPL.002_002 	0.3438      	0.3134      	0.3015      	0.1452      	0.2614      	0.3225      
 RAP.PPL.002_002 	0.4221      	0.5219      	0.7198      	0.9296      	1           	0.689       
 RAP.PPL.002_002 	0.7608      	0.8211      	0.8677      	0.8702      	0.6873      	0.5297      
 RAP.PPL.002_002 	0.5071      	0.4519      	0.3722      	0.3655      	0.3366      	0.3544      
;
 RAP.LSL.002     	0.7143      	0.7143      	0.7143      	0.7143      	0.7143      	0.7143      
 RAP.LSL.002     	0.7143      	0.8697      	0.8697      	1           	1           	1           
 RAP.LSL.002     	1           	1           	1           	1           	1           	0.7143      
 RAP.LSL.002     	0.7143      	0.7143      	0.7143      	0.7143      	0.5102      	0.5102      
;
 ADT_LSL         	0.9979      	0.9985      	1           	0.9985      	0.9984      	0.9984      
 ADT_LSL         	0.9979      	0.992       	0.991       	0.988       	0.9905      	0.995       
 ADT_LSL         	0.9948      	0.9942      	0.9941      	0.9948      	0.9957      	0.9964      
 ADT_LSL         	0.9964      	0.9965      	0.9938      	0.9957      	0.9968      	0.9977      
;
 EAT.LSL.002     	0.9951      	1           	0.9809      	0.0831      	0.0067      	0.0002      
 EAT.LSL.002     	0.0002      	0.0873      	0.9593      	0.9099      	0.8794      	0.103       
 EAT.LSL.002     	0.015       	0.0004      	0.0004      	0.0005      	0.0004      	0.0005      
 EAT.LSL.002     	0.0005      	0.0004      	0.8645      	0.9619      	0.971       	0.9768      

[CURVES]
;ID              	X-Value     	Y-Value

[CONTROLS]



[RULES]



[ENERGY]
 Global Efficiency  	75
 Global Price       	0
 Demand Charge      	0

[EMITTERS]
;Junction        	Coefficient

[QUALITY]
;Node            	InitQual

[SOURCES]
;Node            	Type        	Quality     	Pattern

[REACTIONS]
;Type     	Pipe/Tank       	Coefficient


[REACTIONS]
 Order Bulk            	1
 Order Tank            	1
 Order Wall            	1
 Global Bulk           	0
 Global Wall           	0
 Limiting Potential    	0
 Roughness Correlation 	0

[MIXING]
;Tank            	Model

[TIMES]
 Duration           	23:00 
 Hydraulic Timestep 	1:00 
 Quality Timestep   	1:00 
 Pattern Timestep   	1:00 
 Pattern Start      	0:00 
 Report Timestep    	1:00 
 Report Start       	0:00 
 Start ClockTime    	12 am
 Statistic          	NONE

[REPORT]
 Status             	No
 Summary            	No
 Page               	0

[OPTIONS]
 Units              	LPS
 Headloss           	H-W
 Specific Gravity   	1
 Viscosity          	0.985218143676839
 Trials             	40
 Accuracy           	0.001
 CHECKFREQ          	2
 MAXCHECK           	10
 DAMPLIMIT          	0
 Unbalanced         	Continue 10
 Pattern            	1
 Demand Multiplier  	1.0
 Emitter Exponent   	0.5
 Quality            	NONE mg/L
 Diffusivity        	1
 Tolerance          	0.01

[COORDINATES]
;Node            	X-Coord           	Y-Coord
0492            	198907.852        	8249964.838       
0493            	198906.994        	8249960.430       
0663            	198737.499        	8249054.546       
0664            	198743.842        	8249049.495       
0623            	198739.780        	8249482.260       
0518            	198814.080        	8249886.180       
0622            	198606.930        	8249506.500       
0511            	198681.010        	8249911.220       
0552            	198651.510        	8249729.670       
0557            	198784.400        	8249704.190       
0471            	198716.940        	8250066.690       
0490            	198899.280        	8249966.370       
0423            	198740.820        	8250194.460       
0432            	198934.000        	8250155.400       
0564            	198849.080        	8249691.790       
0477            	198910.840        	8250029.310       
0475            	198902.550        	8250030.810       
0512            	199078.810        	8249909.980       
0500            	198909.780        	8249937.930       
0584            	199033.950        	8249664.120       
0565            	198860.600        	8249691.600       
0630            	198983.870        	8249419.660       
0628            	198815.640        	8249445.010       
0655            	198944.680        	8249169.530       
0652            	198774.750        	8249197.200       
0645            	198699.540        	8249266.660       
0659            	198672.200        	8249096.220       
0672            	199257.090        	8248955.164       
0662            	198737.260        	8249067.710       
0651            	198761.510        	8249199.740       
0627            	198806.860        	8249446.630       
0562            	198852.150        	8249693.170       
0494            	198901.170        	8249960.020       
0499            	198897.560        	8249940.370       
0547            	199385.610        	8249742.450       
0489            	199429.590        	8250006.060       
0543            	199388.160        	8249756.410       
0542            	199254.860        	8249766.190       
0476            	199299.250        	8250030.560       
0592            	199228.500        	8249646.030       
0668            	199249.050        	8249021.450       
0641            	199303.910        	8249291.740       
0620            	199211.710        	8249549.190       
0665            	199119.280        	8249045.260       
0637            	199174.680        	8249323.900       
0639            	199305.400        	8249299.840       
0675            	199463.770        	8248949.631       
0643            	199372.994        	8249287.456       
0550            	199449.376        	8249730.777       
0673            	199357.845        	8248950.912       
0674            	199382.376        	8248949.931       
0625            	199364.213        	8249452.824       
0642            	199298.133        	8249287.583       
0638            	199180.805        	8249322.755       
HID.EXIST-10    	199181.152        	8249324.426       
HID.EXIST-09    	199291.892        	8249288.304       
5538-A          	199379.923        	8248950.421       
5538-B          	199368.887        	8248950.528       
5547-A          	198907.729        	8249964.104       
5547-B          	198907.836        	8249964.514       
5554-A          	199458.423        	8248971.028       
5554-B          	199457.226        	8248979.940       

[VERTICES]
;Link            	X-Coord           	Y-Coord
1616594         	199077.680        	8249904.320       
1616583         	198668.390        	8249096.940       
1616610         	198684.640        	8249910.530       
1616600         	198934.700        	8250159.200       
1616596         	198907.570        	8249964.830       
1616581         	198704.280        	8249265.820       
1616611         	198610.500        	8249505.850       
1616561         	199124.110        	8249044.450       
1616573         	199232.800        	8249645.220       
1616592         	198861.320        	8249695.480       
1616612         	198743.850        	8249481.520       
1616586         	198943.950        	8249164.820       
1616588         	198816.390        	8249449.120       
1616570         	199433.690        	8250005.410       
1616572         	199384.260        	8249757.130       
1616597         	198906.500        	8249959.040       
1616590         	199033.100        	8249659.500       
1616569         	199302.940        	8250029.890       
1616603         	198740.240        	8250191.310       
1616589         	198982.870        	8249414.220       
1616560         	199169.410        	8249318.540       
1616585         	198775.640        	8249201.850       
1616613         	198817.430        	8249885.550       
1616563         	199253.900        	8249020.560       
1616579         	199223.380        	8248960.273       
1616579         	199070.327        	8248989.696       
1616579         	198980.213        	8249006.411       
1616579         	198762.253        	8249045.229       
1616604         	198716.540        	8250064.500       
1616562         	199215.320        	8249548.470       
1616593         	198910.220        	8249940.110       
1616884         	198736.647        	8249059.887       
1616884         	198736.132        	8249064.527       
1616884         	198736.883        	8249066.113       
1616884         	198737.110        	8249066.930       
1616582         	198681.910        	8249076.350       
1616582         	198677.380        	8249078.050       
1616582         	198673.860        	8249080.350       
1616582         	198672.380        	8249083.630       
1616582         	198671.640        	8249087.850       
1616582         	198671.790        	8249094.030       
1616605         	198903.060        	8250033.660       
1616580(2)(2)(2)(2)(2)(2)	199319.299        	8248951.945       
1616580(2)(2)(2)(2)(2)(2)	199284.093        	8248952.250       
P-50(1)         	199370.993        	8249296.723       
P-50(1)         	199364.545        	8249378.794       
P-50(1)         	199363.860        	8249449.333       
P-50(2)         	199370.580        	8249511.981       
P-50(2)         	199383.037        	8249573.082       
P-50(2)         	199400.858        	8249625.831       
P-50(2)         	199429.397        	8249694.260       
1616565(2)      	199299.190        	8249292.620       

[LABELS]
;X-Coord             Y-Coord             Label & Anchor Node
198958.036        	8250820.211       	"VRP.NOVA.016"	
199178.249        	8251344.354       	"VRP.NOVA.017"	
198901.170        	8249960.020       	"VRP.NOVA.015"	0494
199487.354        	8249709.609       	"VRP NOVA 013"	
199458.094        	8248977.332       	"VRP 5.2.1"	
202576.496        	8250150.259       	"VRP.NOVA.019"	
202420.156        	8249687.344       	"VRP.NOVA.018 NO ARQUIVO"	
192339.245        	8244449.786       	"DERIVACAO"	
199828.093        	8250584.033       	"Revisar esta conexao"	
199482.891        	8248873.905       	"Macromedidor 5.2"	

[BACKDROP]
  DIMENSIONS  	191588.078        	8242581.704       	203500.462        	8252185.050       
 UNITS          	None
 FILE           	
 OFFSET         	0.00            	0.00            

[END]
