[TITLE]


[JUNCTIONS]
;ID              	Elev        	Demand      	Pattern         
 1               	918.7500    	0.000000    	                	;
 2               	919.5900    	0.000000    	                	;
 3               	919.5900    	0.122208    	                	;
 4               	926.2400    	0.000000    	                	;
 5               	926.7200    	0.175908    	                	;
 6               	924.7700    	0.074944    	                	;
 7               	920.4200    	0.009345    	                	;
 8               	920.4100    	0.008188    	                	;
 9               	917.2800    	0.037650    	                	;
 10              	925.0000    	0.025506    	                	;
 11              	925.0000    	0.000986    	                	;
 12              	925.0000    	0.009002    	                	;
 13              	925.0000    	0.000000    	                	;
 14              	925.0000    	0.032579    	                	;
 15              	923.4100    	0.085005    	                	;
 16              	925.0000    	0.000000    	                	;
 17              	925.0000    	0.059769    	                	;
 18              	925.0000    	0.189338    	                	;
 19              	925.0000    	0.065813    	                	;
 20              	925.0000    	0.187305    	                	;
 21              	917.6600    	0.316420    	                	;
 22              	917.4000    	0.033149    	                	;
 23              	917.2800    	0.017447    	                	;
 24              	919.9300    	0.258923    	                	;
 25              	920.3300    	0.164389    	                	;
 26              	920.1100    	0.000000    	                	;
 27              	916.3800    	0.000000    	                	;
 28              	916.5900    	0.025420    	                	;
 29              	922.9800    	0.037594    	                	;
 30              	911.7700    	0.053241    	                	;
 31              	911.7700    	0.000000    	                	;
 32              	907.0400    	0.000000    	                	;
 33              	907.0400    	0.000000    	                	;
 34              	915.0000    	0.000000    	                	;
 35              	915.0000    	0.013374    	                	;
 36              	914.8400    	0.000000    	                	;
 37              	905.5200    	0.002122    	                	;
 38              	905.6500    	0.042922    	                	;
 39              	918.4000    	0.019590    	                	;
 40              	919.0800    	0.022303    	                	;
 41              	921.1800    	0.026063    	                	;
 42              	921.5200    	0.023246    	                	;
 43              	922.0800    	0.093959    	                	;
 44              	922.4000    	0.000000    	                	;
 45              	920.6400    	0.000000    	                	;
 46              	920.0000    	0.000000    	                	;
 47              	920.0000    	0.052665    	                	;
 48              	920.1900    	0.169496    	                	;
 49              	924.0300    	0.022303    	                	;
 50              	919.9300    	0.042481    	                	;
 51              	923.4700    	0.000000    	                	;
 52              	927.0200    	0.008359    	                	;
 53              	926.0000    	0.000000    	                	;
 54              	926.6800    	0.000000    	                	;
 55              	943.7800    	0.000000    	                	;
 56              	943.9000    	0.022548    	                	;
 57              	943.9000    	0.000000    	                	;
 58              	928.7300    	0.000000    	                	;
 59              	928.7000    	0.000000    	                	;
 60              	928.7000    	0.000000    	                	;
 61              	917.5700    	0.000000    	                	;
 62              	918.1500    	0.011060    	                	;
 63              	917.0400    	0.048525    	                	;
 64              	917.4800    	0.000000    	                	;
 65              	916.0100    	0.000000    	                	;
 66              	915.9200    	0.022303    	                	;
 67              	916.5300    	0.028776    	                	;
 68              	898.0100    	0.000000    	                	;
 69              	898.2800    	0.053669    	                	;
 70              	899.8000    	0.000000    	                	;
 71              	906.1600    	0.000000    	                	;
 72              	906.4200    	0.030705    	                	;
 73              	906.9900    	0.000000    	                	;
 74              	906.9900    	0.000000    	                	;
 91              	925.0000    	0.000000    	                	;
 92              	933.8300    	0.000000    	                	;
 93              	933.9900    	0.000000    	                	;
 94              	910.1100    	0.225878    	                	;
 95              	905.0000    	0.000000    	                	;
 96              	920.7300    	0.000043    	                	;
 97              	919.8200    	0.004201    	                	;
 98              	923.8900    	0.054612    	                	;
 99              	925.3500    	0.000000    	                	;
 100             	926.9500    	0.012689    	                	;
 101             	926.3100    	0.000000    	                	;
 102             	926.1700    	0.022303    	                	;
 103             	924.2800    	0.000000    	                	;
 104             	924.2800    	0.031520    	                	;
 105             	924.2800    	0.000000    	                	;
 106             	920.6400    	0.041152    	                	;
 107             	918.7800    	0.004458    	                	;
 108             	919.9800    	0.000000    	                	;
 109             	925.0000    	0.000000    	                	;
 110             	925.0000    	0.000000    	                	;
 111             	926.1100    	0.072586    	                	;
 112             	927.1800    	0.047595    	                	;
 113             	925.7000    	0.000000    	                	;
 114             	923.4700    	0.000000    	                	;
 115             	921.6100    	0.006344    	                	;
 116             	922.0900    	0.005144    	                	;
 117             	922.9700    	0.000000    	                	;
 118             	916.2100    	0.010845    	                	;
 119             	916.2100    	0.009045    	                	;
 120             	914.9200    	0.000000    	                	;
 121             	925.2200    	0.000000    	                	;
 122             	926.0000    	0.000000    	                	;
 123             	928.5400    	0.000000    	                	;
 124             	927.8600    	0.022303    	                	;
 125             	915.4100    	0.028433    	                	;
 126             	916.5400    	0.008445    	                	;
 127             	917.2800    	0.123671    	                	;
 128             	920.0900    	0.110523    	                	;
 129             	922.3600    	0.116507    	                	;
 130             	923.9700    	0.000000    	                	;
 131             	920.8600    	0.000000    	                	;
 132             	920.0000    	0.026290    	                	;
 133             	920.0000    	0.000000    	                	;
 134             	920.0000    	0.000000    	                	;
 135             	915.4900    	0.000000    	                	;
 136             	915.4900    	0.155516    	                	;
 137             	921.7900    	0.191861    	                	;
 138             	924.7800    	0.000000    	                	;
 139             	923.4700    	0.099605    	                	;
 140             	925.0000    	0.000000    	                	;
 141             	915.8700    	0.000000    	                	;
 142             	915.8800    	0.000000    	                	;
 143             	934.5100    	0.000000    	                	;
 144             	934.5100    	0.000000    	                	;
 145             	934.3200    	0.000000    	                	;
 146             	934.3200    	0.000000    	                	;
 147             	917.0400    	0.000000    	                	;
 148             	933.9900    	0.000000    	                	;
 149             	933.9900    	0.000000    	                	;
 150             	926.1500    	0.000000    	                	;
 151             	926.1500    	0.179251    	                	;
 152             	923.5100    	0.007030    	                	;
 153             	925.0000    	0.011703    	                	;
 154             	925.2600    	0.034551    	                	;
 155             	955.6500    	0.043381    	                	;
 156             	952.1600    	0.042438    	                	;
 157             	952.0400    	0.055225    	                	;
 158             	952.4900    	0.000000    	                	;
 159             	953.5500    	0.050283    	                	;
 160             	953.2700    	0.000000    	                	;
 161             	955.7000    	0.000000    	                	;
 162             	955.2200    	0.014532    	                	;
 163             	954.7900    	0.000000    	                	;
 164             	956.5400    	0.000000    	                	;
 165             	956.0600    	0.000000    	                	;
 166             	957.9300    	0.000000    	                	;
 167             	957.7800    	0.000000    	                	;
 168             	957.4800    	0.000000    	                	;
 169             	957.3100    	0.004801    	                	;
 170             	957.0100    	0.000000    	                	;
 171             	956.8400    	0.000000    	                	;
 172             	915.4800    	0.009388    	                	;
 173             	915.5600    	0.006173    	                	;
 174             	916.9400    	0.000000    	                	;
 175             	915.2200    	0.000000    	                	;
 176             	915.2200    	0.019333    	                	;
 177             	916.1900    	0.000000    	                	;
 178             	937.9100    	0.005273    	                	;
 179             	938.4100    	0.066199    	                	;
 180             	938.8900    	0.000000    	                	;
 181             	934.9300    	0.000000    	                	;
 182             	934.9300    	0.043339    	                	;
 183             	935.2600    	0.035206    	                	;
 184             	941.4100    	0.009602    	                	;
 185             	940.6100    	0.000000    	                	;
 186             	940.6100    	0.000000    	                	;
 187             	940.6100    	0.000000    	                	;
 188             	925.0000    	0.000000    	                	;
 189             	925.0000    	0.000000    	                	;
 190             	925.0000    	0.000000    	                	;
 191             	925.7700    	0.006516    	                	;
 192             	925.0000    	0.000000    	                	;
 193             	926.6800    	0.072672    	                	;
 194             	925.9700    	0.000000    	                	;
 195             	926.6800    	0.000000    	                	;
 196             	926.6800    	0.000000    	                	;
 197             	926.0000    	0.000000    	                	;
 198             	920.0000    	0.000000    	                	;
 199             	920.0000    	0.000000    	                	;
 200             	920.0000    	0.006730    	                	;
 201             	921.0200    	0.022303    	                	;
 202             	924.7200    	0.016204    	                	;
 203             	924.9800    	0.031520    	                	;
 204             	926.3000    	0.007802    	                	;
 205             	926.8200    	0.350619    	                	;
 206             	928.6200    	0.022303    	                	;
 207             	928.6200    	0.039278    	                	;
 208             	926.8900    	0.013632    	                	;
 209             	926.5100    	0.000000    	                	;
 210             	925.3600    	0.000000    	                	;
 211             	925.3700    	0.008273    	                	;
 212             	925.7200    	0.005187    	                	;
 213             	923.0700    	0.061012    	                	;
 214             	923.6900    	0.007630    	                	;
 215             	925.3600    	0.000000    	                	;
 216             	923.8900    	0.091288    	                	;
 217             	939.5500    	0.020362    	                	;
 218             	939.9200    	0.048397    	                	;
 219             	936.2100    	0.000000    	                	;
 220             	941.7600    	0.007930    	                	;
 221             	941.7600    	0.015261    	                	;
 222             	943.6600    	0.000000    	                	;
 223             	956.6600    	0.000000    	                	;
 224             	956.6600    	0.000000    	                	;
 225             	956.1800    	0.000000    	                	;
 226             	955.7000    	0.000000    	                	;
 227             	955.2200    	0.000000    	                	;
 228             	954.3200    	0.000000    	                	;
 229             	953.5500    	0.000000    	                	;
 230             	952.3200    	0.000000    	                	;
 231             	951.0900    	0.000000    	                	;
 232             	950.6100    	0.000000    	                	;
 233             	949.5300    	0.000000    	                	;
 234             	948.6000    	0.000000    	                	;
 235             	947.6800    	0.000000    	                	;
 236             	947.3200    	0.000000    	                	;
 237             	946.7600    	0.009388    	                	;
 238             	946.2500    	0.000600    	                	;
 239             	945.4700    	0.028549    	                	;
 240             	950.5600    	0.290075    	                	;
 241             	950.3700    	0.003901    	                	;
 242             	952.3200    	0.011445    	                	;
 243             	951.0900    	0.000000    	                	;
 244             	950.6100    	0.000000    	                	;
 245             	933.9900    	0.000000    	                	;
 246             	933.9900    	0.000000    	                	;
 247             	934.1400    	0.000000    	                	;
 248             	934.1400    	0.000000    	                	;
 249             	934.1400    	0.000000    	                	;
 250             	933.9900    	0.000000    	                	;
 251             	933.9900    	0.000000    	                	;
 252             	933.9900    	0.000000    	                	;
 253             	933.9900    	0.000000    	                	;
 254             	934.5100    	0.000000    	                	;
 255             	934.5100    	0.000000    	                	;
 256             	934.5100    	0.023932    	                	;
 257             	920.0000    	0.172577    	                	;
 258             	925.1700    	0.209356    	                	;
 259             	925.6400    	0.036449    	                	;
 260             	926.0900    	0.000000    	                	;
 261             	925.7800    	0.032965    	                	;
 262             	927.1600    	0.082133    	                	;
 263             	928.5500    	0.029462    	                	;
 264             	926.3000    	0.077516    	                	;
 265             	927.5700    	0.000000    	                	;
 266             	926.8500    	0.077161    	                	;
 267             	926.3000    	0.096536    	                	;
 268             	925.0000    	0.004115    	                	;
 269             	924.2100    	0.000000    	                	;
 270             	918.1100    	0.029450    	                	;
 271             	918.0700    	0.013589    	                	;
 272             	918.5300    	0.000000    	                	;
 273             	918.7000    	0.057099    	                	;
 274             	931.5300    	0.002358    	                	;
 275             	929.9300    	0.089004    	                	;
 276             	928.8100    	0.007930    	                	;
 277             	928.5300    	0.056180    	                	;
 278             	928.1300    	0.065054    	                	;
 279             	927.3400    	0.098331    	                	;
 280             	925.6500    	0.165638    	                	;
 281             	925.3400    	0.044453    	                	;
 282             	919.1700    	0.022303    	                	;
 283             	924.0400    	0.000000    	                	;
 284             	920.7300    	0.000000    	                	;
 285             	932.6700    	0.017747    	                	;
 286             	932.6700    	0.006687    	                	;
 287             	932.9400    	0.000000    	                	;
 288             	933.6300    	0.006001    	                	;
 289             	934.7300    	0.000000    	                	;
 290             	934.9200    	0.000000    	                	;
 291             	930.0500    	0.000000    	                	;
 292             	930.6600    	0.000000    	                	;
 293             	931.2900    	0.000000    	                	;
 294             	931.3600    	0.000000    	                	;
 295             	931.9300    	0.016418    	                	;
 296             	936.7400    	0.000000    	                	;
 369             	928.7100    	0.009602    	                	;
 370             	927.2100    	0.000000    	                	;
 371             	926.0300    	0.000000    	                	;
 372             	926.0300    	0.032536    	                	;
 373             	925.3700    	0.018047    	                	;
 374             	919.1800    	0.015775    	                	;
 375             	918.2700    	0.007502    	                	;
 376             	920.6400    	0.060841    	                	;
 377             	928.9900    	0.030234    	                	;
 378             	920.0000    	0.127934    	                	;
 379             	929.6200    	0.045592    	                	;
 380             	920.0000    	0.042879    	                	;
 381             	925.2900    	0.099966    	                	;
 382             	926.2000    	0.000000    	                	;
 383             	925.6400    	0.000000    	                	;
 384             	923.9900    	0.000000    	                	;
 385             	926.4400    	0.000000    	                	;
 386             	925.9700    	0.000000    	                	;
 387             	925.0000    	0.000000    	                	;
 388             	925.0000    	0.000000    	                	;
 389             	925.0000    	0.000000    	                	;
 390             	925.0000    	0.000000    	                	;
 391             	925.0000    	0.000000    	                	;
 392             	934.3200    	0.000000    	                	;
 393             	934.3200    	0.000000    	                	;
 394             	934.1400    	0.000000    	                	;
 395             	934.1400    	0.000000    	                	;
 396             	934.3200    	0.000000    	                	;
 397             	933.8300    	0.000000    	                	;
 398             	933.8300    	0.000000    	                	;
 399             	933.8300    	0.000000    	                	;
 400             	933.8300    	0.000000    	                	;
 401             	933.8300    	0.000000    	                	;
 402             	933.8300    	0.007888    	                	;
 403             	944.5800    	0.014714    	                	;
 404             	934.1800    	0.094344    	                	;
 405             	915.8700    	0.069873    	                	;
 406             	916.6200    	0.015014    	                	;
 407             	915.0000    	0.000000    	                	;
 408             	915.0000    	0.000000    	                	;
 409             	915.0000    	0.000000    	                	;
 410             	915.0000    	0.013460    	                	;
 411             	920.8800    	0.002015    	                	;
 412             	923.8900    	0.003472    	                	;
 413             	915.2900    	0.000000    	                	;
 417             	943.8800    	0.000000    	                	;
 418             	943.8800    	0.000000    	                	;
 419             	903.2800    	0.065825    	                	;
 420             	903.5300    	0.023963    	                	;
 421             	906.6700    	0.000000    	                	;
 422             	905.6000    	0.007716    	                	;
 423             	907.8000    	0.085918    	                	;
 424             	907.0700    	0.000000    	                	;
 425             	905.9800    	0.022303    	                	;
 426             	908.7200    	0.005744    	                	;
 427             	908.3700    	0.026363    	                	;
 428             	911.1200    	0.050883    	                	;
 429             	914.1200    	0.000000    	                	;
 430             	911.8900    	0.069585    	                	;
 431             	911.8300    	0.067828    	                	;
 432             	911.4400    	0.000000    	                	;
 433             	911.0500    	0.000000    	                	;
 434             	913.7300    	0.033277    	                	;
 435             	913.7300    	0.041474    	                	;
 436             	912.9300    	0.000000    	                	;
 437             	913.0700    	0.064000    	                	;
 438             	915.0000    	0.043810    	                	;
 439             	914.3700    	0.000000    	                	;
 440             	914.4700    	0.000000    	                	;
 441             	913.5800    	0.000000    	                	;
 442             	914.0700    	0.002529    	                	;
 443             	911.6000    	0.000000    	                	;
 444             	908.6500    	0.123232    	                	;
 445             	905.9200    	0.033134    	                	;
 446             	906.9700    	0.006944    	                	;
 447             	908.2100    	0.025849    	                	;
 448             	906.1000    	0.007416    	                	;
 449             	906.1000    	0.007502    	                	;
 450             	906.1400    	0.027962    	                	;
 451             	906.2200    	0.078000    	                	;
 452             	906.0100    	0.017533    	                	;
 453             	911.2000    	0.080547    	                	;
 454             	909.7900    	0.012731    	                	;
 455             	913.2300    	0.000000    	                	;
 456             	918.5300    	0.000000    	                	;
 457             	919.3900    	0.001329    	                	;
 458             	915.6200    	0.000000    	                	;
 459             	916.1800    	0.000000    	                	;
 460             	915.7100    	0.000000    	                	;
 461             	915.7200    	0.000000    	                	;
 462             	915.6900    	0.081913    	                	;
 463             	897.1400    	0.003987    	                	;
 464             	896.3000    	0.002743    	                	;
 465             	896.2000    	0.000000    	                	;
 466             	895.5600    	0.000000    	                	;
 467             	897.1400    	0.001586    	                	;
 468             	900.6400    	0.030436    	                	;
 469             	900.6400    	0.028305    	                	;
 470             	903.0300    	0.006644    	                	;
 471             	904.6000    	0.044821    	                	;
 472             	901.7300    	0.031722    	                	;
 473             	904.6000    	0.000000    	                	;
 474             	917.8100    	0.038066    	                	;
 475             	916.6700    	0.007973    	                	;
 476             	918.6500    	0.023761    	                	;
 477             	933.8400    	0.048250    	                	;
 478             	933.9600    	0.000000    	                	;
 479             	936.7200    	0.003172    	                	;
 480             	937.2100    	0.000000    	                	;
 481             	936.7200    	0.000000    	                	;
 482             	936.8600    	0.017147    	                	;
 483             	895.9100    	0.000000    	                	;
 484             	916.8800    	0.003429    	                	;
 485             	948.1100    	0.040981    	                	;
 486             	949.9400    	0.055482    	                	;
 487             	950.4100    	0.006001    	                	;
 488             	951.5500    	0.035365    	                	;
 489             	951.5500    	0.017618    	                	;
 490             	952.3800    	0.006902    	                	;
 491             	951.5000    	0.000000    	                	;
 492             	957.7800    	0.000000    	                	;
 493             	957.6400    	0.001586    	                	;
 494             	957.6400    	0.003001    	                	;
 495             	957.6800    	0.105753    	                	;
 496             	957.4200    	0.047809    	                	;
 497             	956.5800    	0.004630    	                	;
 498             	898.2800    	0.014489    	                	;
 499             	898.0900    	0.000000    	                	;
 500             	897.4400    	0.025334    	                	;
 501             	905.0100    	0.006216    	                	;
 502             	905.8400    	0.000000    	                	;
 503             	908.9800    	0.005316    	                	;
 504             	918.0900    	0.060914    	                	;
 505             	948.1100    	0.025034    	                	;
 506             	905.3600    	0.136722    	                	;
 507             	898.7500    	0.037049    	                	;
 508             	909.4300    	0.024906    	                	;
 509             	908.6500    	0.000000    	                	;
 512             	933.9900    	0.000000    	                	;
 513             	933.9900    	0.000000    	                	;
 514             	933.9900    	0.000000    	                	;
 515             	933.9900    	0.000000    	                	;
 516             	933.9900    	0.000000    	                	;
 517             	916.5500    	0.000000    	                	;
 518             	919.3900    	0.000000    	                	;
 519             	918.4000    	0.000000    	                	;
 520             	918.2600    	0.024646    	                	;
 521             	917.3900    	0.000000    	                	;
 522             	942.1200    	0.012946    	                	;
 523             	942.7400    	0.015475    	                	;
 524             	945.1800    	0.008102    	                	;
 525             	945.7800    	0.000000    	                	;
 526             	942.3800    	0.049533    	                	;
 527             	942.8600    	0.065299    	                	;
 528             	946.0000    	0.032205    	                	;
 529             	942.2100    	0.050295    	                	;
 530             	943.2200    	0.030307    	                	;
 531             	945.4200    	0.006259    	                	;
 532             	945.8500    	0.000000    	                	;
 533             	931.9300    	0.000000    	                	;
 534             	932.5200    	0.000000    	                	;
 535             	933.0200    	0.000000    	                	;
 536             	933.6500    	0.000000    	                	;
 537             	934.1400    	0.000000    	                	;
 538             	932.5200    	0.000000    	                	;
 539             	933.0200    	0.000000    	                	;
 540             	934.1400    	0.000000    	                	;
 541             	934.3200    	0.000000    	                	;
 542             	931.9300    	0.000000    	                	;
 543             	932.0400    	0.022303    	                	;
 544             	941.9000    	0.011028    	                	;
 545             	942.9300    	0.034894    	                	;
 546             	945.3400    	0.011403    	                	;
 547             	941.9800    	0.007973    	                	;
 548             	941.7600    	0.012003    	                	;
 549             	942.6000    	0.000000    	                	;
 550             	942.2400    	0.000000    	                	;
 551             	942.3600    	0.000000    	                	;
 552             	942.1200    	0.000000    	                	;
 553             	943.6700    	0.000000    	                	;
 554             	944.3200    	0.091778    	                	;
 555             	938.8700    	0.004672    	                	;
 556             	945.3600    	0.004973    	                	;
 557             	944.3800    	0.000000    	                	;
 558             	943.7800    	0.022303    	                	;
 559             	943.9400    	0.000000    	                	;
 560             	944.0500    	0.000000    	                	;
 561             	943.6700    	0.020019    	                	;
 562             	944.4800    	0.000000    	                	;
 563             	943.9400    	0.000000    	                	;
 564             	944.4800    	0.004115    	                	;
 565             	941.6300    	0.070014    	                	;
 566             	941.3200    	0.058599    	                	;
 567             	941.4300    	0.019547    	                	;
 568             	941.1800    	0.012774    	                	;
 569             	938.3700    	0.011317    	                	;
 570             	938.3700    	0.000000    	                	;
 571             	938.3700    	0.054527    	                	;
 572             	947.7400    	0.005015    	                	;
 573             	944.4800    	0.000000    	                	;
 574             	944.4800    	0.003215    	                	;
 575             	946.0900    	0.091490    	                	;
 576             	945.8800    	0.047766    	                	;
 577             	945.6500    	0.000000    	                	;
 578             	943.9400    	0.052824    	                	;
 579             	944.4400    	0.013546    	                	;
 580             	941.1800    	0.028305    	                	;
 581             	943.4500    	0.016161    	                	;
 582             	944.3200    	0.004544    	                	;
 583             	944.0500    	0.000000    	                	;
 584             	944.1600    	0.004415    	                	;
 585             	938.3700    	0.281550    	                	;
 586             	938.0500    	0.000000    	                	;
 587             	943.6700    	0.000000    	                	;
 588             	943.6700    	0.000000    	                	;
 589             	918.1100    	0.000000    	                	;
 590             	917.0200    	0.002272    	                	;
 591             	916.6300    	0.000000    	                	;
 592             	948.0600    	0.000000    	                	;
 593             	947.1400    	0.000000    	                	;
 594             	946.2500    	0.000000    	                	;
 595             	945.3600    	0.000300    	                	;
 596             	949.5300    	0.002486    	                	;
 597             	948.6000    	0.000000    	                	;
 598             	918.9600    	0.000000    	                	;
 599             	918.8200    	0.005744    	                	;
 600             	918.3200    	0.000000    	                	;
 601             	921.2900    	0.028249    	                	;
 602             	921.9200    	0.001115    	                	;
 603             	924.0300    	0.009516    	                	;
 604             	921.3200    	0.027649    	                	;
 605             	922.6800    	0.054312    	                	;
 606             	919.9300    	0.021905    	                	;
 607             	921.3200    	0.031722    	                	;
 608             	919.1500    	0.024563    	                	;
 609             	919.6000    	0.089213    	                	;
 610             	919.7300    	0.026020    	                	;
 611             	929.6400    	0.009859    	                	;
 612             	925.5200    	0.043167    	                	;
 613             	925.5200    	0.035408    	                	;
 614             	923.5200    	0.006001    	                	;
 615             	923.5600    	0.007587    	                	;
 616             	923.9100    	0.003472    	                	;
 617             	919.5100    	0.053982    	                	;
 618             	918.9900    	0.007587    	                	;
 619             	919.6500    	0.023748    	                	;
 620             	919.5000    	0.045868    	                	;
 621             	923.6600    	0.030870    	                	;
 622             	920.3800    	0.034520    	                	;
 623             	919.8400    	0.062886    	                	;
 624             	919.8100    	0.025377    	                	;
 625             	920.9700    	0.001415    	                	;
 626             	919.0600    	0.051140    	                	;
 627             	919.0600    	0.025420    	                	;
 628             	918.4400    	0.021262    	                	;
 629             	918.3100    	0.037380    	                	;
 630             	918.3300    	0.048483    	                	;
 631             	917.7900    	0.031164    	                	;
 632             	917.5800    	0.000000    	                	;
 633             	928.7300    	0.000000    	                	;
 634             	928.7600    	0.000000    	                	;
 635             	929.3000    	0.001543    	                	;
 636             	927.7900    	0.008402    	                	;
 637             	926.0800    	0.005358    	                	;
 638             	926.9200    	0.000000    	                	;
 639             	923.8900    	0.000000    	                	;
 640             	924.3000    	0.000386    	                	;
 641             	924.3000    	0.000000    	                	;
 642             	920.0300    	0.000943    	                	;
 643             	920.3900    	0.001415    	                	;
 644             	919.5500    	0.002229    	                	;
 645             	919.1200    	0.000000    	                	;
 646             	918.9600    	0.000000    	                	;
 647             	918.3200    	0.000000    	                	;
 648             	918.8200    	0.027692    	                	;
 649             	904.9800    	0.042010    	                	;
 650             	897.4500    	0.000000    	                	;
 651             	894.8400    	0.000000    	                	;
 652             	895.2900    	0.000643    	                	;
 653             	895.1800    	0.063370    	                	;
 654             	902.6900    	0.064600    	                	;
 655             	895.9100    	0.000000    	                	;
 656             	901.0500    	0.201004    	                	;
 657             	899.5400    	0.061153    	                	;
 658             	894.4300    	0.002786    	                	;
 659             	893.8800    	0.037092    	                	;
 660             	892.0400    	0.028133    	                	;
 661             	900.9900    	0.030791    	                	;
 662             	899.1800    	0.028990    	                	;
 663             	899.1800    	0.000000    	                	;
 664             	904.5800    	0.000000    	                	;
 665             	896.7600    	0.000000    	                	;
 666             	898.7900    	0.118221    	                	;
 667             	905.9800    	0.061214    	                	;
 668             	910.0500    	0.000000    	                	;
 669             	906.8500    	0.018261    	                	;
 670             	904.6300    	0.017876    	                	;
 671             	906.4400    	0.056682    	                	;
 672             	909.9200    	0.020362    	                	;
 673             	905.4200    	0.056039    	                	;
 674             	913.7900    	0.025763    	                	;
 675             	909.5500    	0.040050    	                	;
 676             	911.1700    	0.029407    	                	;
 677             	911.1700    	0.073143    	                	;
 678             	917.0700    	0.204344    	                	;
 679             	915.3100    	0.016718    	                	;
 680             	901.7300    	0.014961    	                	;
 681             	897.2900    	0.089292    	                	;
 682             	944.1600    	0.020619    	                	;
 683             	919.8300    	0.028421    	                	;
 684             	919.1500    	0.882908    	                	;
 685             	905.4200    	0.000000    	                	;
 686             	934.3200    	0.000000    	                	;
 687             	933.9900    	0.000000    	                	;
 693             	915.2900    	0.072170    	                	;
 694             	915.2000    	0.005616    	                	;
 695             	915.3500    	0.006001    	                	;
 696             	925.5300    	0.000000    	                	;
 697             	931.9300    	0.000000    	                	;
 698             	931.3600    	0.000000    	                	;
 699             	931.2900    	0.000000    	                	;
 700             	930.6600    	0.000000    	                	;
 701             	930.0500    	0.000000    	                	;
 702             	929.3800    	0.000000    	                	;
 703             	928.7300    	0.000000    	                	;
 704             	928.7300    	0.000000    	                	;
 705             	928.7300    	0.000000    	                	;
 706             	928.2400    	0.004287    	                	;
 707             	926.9200    	0.000000    	                	;
 708             	926.0800    	0.006902    	                	;
 709             	924.4000    	0.000000    	                	;
 710             	923.8900    	0.000000    	                	;
 711             	922.9700    	0.000000    	                	;
 712             	922.0900    	0.008016    	                	;
 713             	920.3900    	0.000000    	                	;
 714             	919.8500    	0.000000    	                	;
 715             	919.7100    	0.000000    	                	;
 716             	919.7100    	0.000000    	                	;
 717             	919.5500    	0.000000    	                	;
 718             	919.1200    	0.000000    	                	;
 719             	943.9400    	0.000000    	                	;
 720             	957.9300    	0.000000    	                	;
 721             	957.9300    	0.002658    	                	;
 722             	914.1000    	0.002058    	                	;
 723             	914.2200    	0.010717    	                	;
 724             	914.7000    	0.005573    	                	;
 725             	915.0200    	0.022303    	                	;
 726             	914.7000    	0.000000    	                	;
 727             	915.2900    	0.011617    	                	;
 728             	915.3500    	0.001072    	                	;
 729             	915.8000    	0.000000    	                	;
 730             	915.4000    	0.000000    	                	;
 731             	915.8200    	0.000000    	                	;
 732             	915.0000    	0.000000    	                	;
 733             	915.0000    	0.000000    	                	;
 734             	916.8000    	0.000000    	                	;
 735             	919.0800    	0.000000    	                	;
 736             	919.9600    	0.000000    	                	;
 737             	920.5200    	0.013803    	                	;
 738             	921.4700    	0.013975    	                	;
 739             	922.4900    	0.000000    	                	;
 740             	923.8800    	0.000000    	                	;
 741             	924.3500    	0.006173    	                	;
 742             	925.1400    	0.013675    	                	;
 743             	925.2900    	0.002743    	                	;
 744             	920.1800    	0.003129    	                	;
 745             	920.8900    	0.010159    	                	;
 746             	920.7800    	0.013589    	                	;
 747             	921.1000    	0.044606    	                	;
 748             	918.9300    	0.011617    	                	;
 749             	918.1300    	0.035665    	                	;
 750             	917.9600    	0.045182    	                	;
 751             	917.5500    	0.012046    	                	;
 752             	916.7700    	0.005058    	                	;
 753             	916.4700    	0.013589    	                	;
 754             	915.6800    	0.000643    	                	;
 755             	923.2800    	0.026363    	                	;
 756             	922.2800    	0.012989    	                	;
 757             	921.6100    	0.025586    	                	;
 758             	921.1200    	0.014489    	                	;
 759             	920.1200    	0.017313    	                	;
 760             	919.4900    	0.011960    	                	;
 761             	918.3800    	0.000000    	                	;
 762             	913.8400    	0.000000    	                	;
 763             	914.1000    	0.000000    	                	;
 764             	913.8000    	0.000000    	                	;
 765             	913.8000    	0.003729    	                	;
 766             	913.8400    	0.002015    	                	;
 767             	913.5500    	0.006173    	                	;
 768             	914.5500    	0.000000    	                	;
 769             	914.5500    	0.012646    	                	;
 770             	914.2100    	0.000000    	                	;
 771             	913.6500    	0.003772    	                	;
 772             	913.3500    	0.000000    	                	;
 773             	913.3300    	0.000000    	                	;
 774             	913.1300    	0.022303    	                	;
 775             	915.1000    	0.000000    	                	;
 776             	914.7400    	0.000000    	                	;
 777             	914.7400    	0.006130    	                	;
 778             	914.9200    	0.022677    	                	;
 779             	915.2100    	0.025849    	                	;
 780             	915.9400    	0.009945    	                	;
 781             	915.8800    	0.028305    	                	;
 782             	917.1600    	0.000000    	                	;
 783             	914.7400    	0.028292    	                	;
 784             	916.3200    	0.007030    	                	;
 785             	916.6800    	0.004973    	                	;
 786             	916.0300    	0.000000    	                	;
 787             	915.5700    	0.000000    	                	;
 788             	916.4100    	0.009088    	                	;
 789             	918.1300    	0.019376    	                	;
 790             	919.3500    	0.008488    	                	;
 791             	920.5200    	0.017961    	                	;
 792             	921.9300    	0.012989    	                	;
 793             	922.8700    	0.006387    	                	;
 794             	923.7300    	0.004844    	                	;
 795             	924.1900    	0.004544    	                	;
 796             	925.0400    	0.000000    	                	;
 797             	925.3500    	0.000000    	                	;
 798             	925.3500    	0.029076    	                	;
 799             	925.3500    	0.022303    	                	;
 800             	925.3600    	0.000000    	                	;
 801             	925.9700    	0.006987    	                	;
 802             	925.4800    	0.000000    	                	;
 803             	925.3600    	0.007673    	                	;
 804             	925.2500    	0.000000    	                	;
 805             	925.0000    	0.000000    	                	;
 806             	925.9700    	0.221818    	                	;
 807             	925.9800    	0.000000    	                	;
 808             	926.2700    	0.000000    	                	;
 809             	926.5500    	0.049550    	                	;
 810             	926.7200    	0.008745    	                	;
 811             	920.6600    	0.000386    	                	;
 812             	920.9900    	0.005787    	                	;
 813             	920.6900    	0.005616    	                	;
 814             	920.0300    	0.026118    	                	;
 815             	920.0300    	0.005015    	                	;
 816             	920.0000    	0.000000    	                	;
 817             	916.7300    	0.000000    	                	;
 818             	916.1300    	0.000000    	                	;
 819             	916.1300    	0.000000    	                	;
 820             	918.5300    	0.000000    	                	;
 821             	918.5300    	0.000000    	                	;
 822             	917.8300    	0.020147    	                	;
 823             	925.3100    	0.025334    	                	;
 824             	925.5100    	0.022762    	                	;
 825             	925.3600    	0.038078    	                	;
 826             	925.4300    	0.054270    	                	;
 827             	925.0400    	0.005530    	                	;
 828             	925.0800    	0.012303    	                	;
 829             	924.4200    	0.005787    	                	;
 830             	924.5000    	0.008831    	                	;
 831             	923.3400    	0.000000    	                	;
 832             	922.9700    	0.073939    	                	;
 833             	924.6200    	0.060224    	                	;
 834             	925.9000    	0.073939    	                	;
 835             	926.4000    	0.152937    	                	;
 836             	926.9000    	0.320404    	                	;
 837             	927.4100    	0.221818    	                	;
 838             	927.4100    	0.000000    	                	;
 839             	927.9800    	0.003472    	                	;
 840             	928.0200    	0.004072    	                	;
 841             	928.4000    	0.012003    	                	;
 842             	928.3800    	0.090786    	                	;
 843             	928.5500    	0.142308    	                	;
 844             	928.1800    	0.039950    	                	;
 845             	928.1300    	0.078655    	                	;
 846             	927.7100    	0.133820    	                	;
 847             	927.0100    	0.022303    	                	;
 848             	913.1300    	0.007630    	                	;
 849             	913.0000    	0.000000    	                	;
 850             	913.0700    	0.000000    	                	;
 851             	912.8700    	0.044606    	                	;
 852             	912.3100    	0.002658    	                	;
 853             	911.8300    	0.000000    	                	;
 854             	911.6900    	0.001972    	                	;
 855             	911.3400    	0.005701    	                	;
 856             	910.7600    	0.000000    	                	;
 857             	910.0600    	0.000000    	                	;
 858             	910.0000    	0.000000    	                	;
 859             	910.0000    	0.000000    	                	;
 860             	910.0000    	0.004715    	                	;
 861             	910.0100    	0.058654    	                	;
 862             	910.3200    	0.056438    	                	;
 863             	910.3500    	0.000000    	                	;
 864             	910.7700    	0.001200    	                	;
 865             	910.7700    	0.000000    	                	;
 866             	910.7700    	0.000000    	                	;
 867             	910.7700    	0.000000    	                	;
 868             	911.8400    	0.013975    	                	;
 869             	912.5900    	0.000000    	                	;
 870             	912.5900    	0.000000    	                	;
 871             	912.5900    	0.000000    	                	;
 872             	912.9200    	0.034649    	                	;
 873             	913.0800    	0.009173    	                	;
 874             	912.8700    	0.037178    	                	;
 875             	913.1100    	0.005316    	                	;
 876             	913.1200    	0.007888    	                	;
 877             	914.0400    	0.049867    	                	;
 878             	913.9000    	0.015689    	                	;
 879             	914.4900    	0.000000    	                	;
 880             	915.2100    	0.009259    	                	;
 881             	915.3900    	0.000000    	                	;
 882             	915.1800    	0.000000    	                	;
 883             	914.0700    	0.022303    	                	;
 884             	915.1800    	0.000000    	                	;
 885             	915.7300    	0.032377    	                	;
 886             	916.8300    	0.000000    	                	;
 887             	917.1700    	0.008359    	                	;
 888             	917.3700    	0.045078    	                	;
 889             	917.1500    	0.045837    	                	;
 890             	916.3500    	0.030662    	                	;
 891             	915.9700    	0.012903    	                	;
 892             	915.4600    	0.011060    	                	;
 893             	915.0000    	0.032205    	                	;
 894             	915.4300    	0.022505    	                	;
 895             	917.1700    	0.013246    	                	;
 896             	917.9000    	0.034220    	                	;
 897             	918.4100    	0.013117    	                	;
 898             	919.0900    	0.000000    	                	;
 899             	918.9500    	0.007287    	                	;
 900             	921.0400    	0.004544    	                	;
 901             	921.1800    	0.007416    	                	;
 902             	917.9100    	0.002572    	                	;
 903             	918.9500    	0.000000    	                	;
 904             	918.9500    	0.002572    	                	;
 905             	919.1600    	0.022303    	                	;
 906             	919.9000    	0.009774    	                	;
 907             	921.1800    	0.002100    	                	;
 908             	921.3500    	0.007888    	                	;
 909             	921.0700    	0.017661    	                	;
 910             	921.1200    	0.022891    	                	;
 911             	921.5200    	0.035420    	                	;
 912             	921.0600    	0.034336    	                	;
 913             	920.8100    	0.007630    	                	;
 914             	920.7100    	0.013546    	                	;
 915             	920.6500    	0.000000    	                	;
 916             	920.2300    	0.020019    	                	;
 917             	923.6700    	0.017661    	                	;
 918             	923.4200    	0.000000    	                	;
 919             	923.6900    	0.000000    	                	;
 920             	923.2100    	0.006816    	                	;
 921             	922.7300    	0.000000    	                	;
 922             	921.7600    	0.010588    	                	;
 923             	920.9900    	0.006044    	                	;
 924             	919.9100    	0.037735    	                	;
 925             	919.1000    	0.000686    	                	;
 926             	918.3200    	0.005144    	                	;
 927             	918.9100    	0.026920    	                	;
 928             	918.9100    	0.049095    	                	;
 929             	919.1900    	0.015646    	                	;
 930             	918.8700    	0.015861    	                	;
 931             	918.7200    	0.000000    	                	;
 932             	918.6400    	0.000000    	                	;
 933             	917.1700    	0.005101    	                	;
 934             	917.1700    	0.014103    	                	;
 935             	917.2400    	0.022034    	                	;
 936             	917.2700    	0.005873    	                	;
 937             	916.9800    	0.034520    	                	;
 938             	916.9500    	0.038335    	                	;
 939             	916.8500    	0.030491    	                	;
 940             	916.7500    	0.000000    	                	;
 941             	916.7300    	0.000000    	                	;
 942             	918.3200    	0.005444    	                	;
 943             	917.7900    	0.002915    	                	;
 944             	917.2600    	0.000000    	                	;
 945             	916.7300    	0.000514    	                	;
 946             	916.2100    	0.004072    	                	;
 947             	915.4100    	0.000000    	                	;
 948             	914.8500    	0.000000    	                	;
 949             	914.8500    	0.000000    	                	;
 950             	914.5200    	0.038850    	                	;
 951             	914.5400    	0.042365    	                	;
 952             	914.9400    	0.063253    	                	;
 953             	914.9900    	0.028892    	                	;
 954             	915.0600    	0.010674    	                	;
 955             	915.3400    	0.067567    	                	;
 956             	915.3200    	0.011317    	                	;
 957             	915.1800    	0.000000    	                	;
 958             	912.6900    	0.002529    	                	;
 959             	912.3700    	0.000000    	                	;
 960             	912.7900    	0.005916    	                	;
 961             	912.8900    	0.000000    	                	;
 962             	913.2800    	0.000000    	                	;
 963             	925.6400    	0.000000    	                	;
 964             	925.2200    	0.000000    	                	;
 965             	924.7200    	0.000000    	                	;
 966             	924.0100    	0.000000    	                	;
 967             	923.8600    	0.000000    	                	;
 968             	923.8600    	0.000000    	                	;
 969             	923.2600    	0.000000    	                	;
 970             	922.6600    	0.000000    	                	;
 971             	921.7800    	0.000000    	                	;
 972             	920.5300    	0.000257    	                	;
 973             	919.8900    	0.000000    	                	;
 974             	918.9700    	0.000000    	                	;
 975             	917.6800    	0.264725    	                	;
 976             	916.7800    	0.000000    	                	;
 977             	916.1400    	0.000000    	                	;
 978             	915.5100    	0.000000    	                	;
 979             	915.0000    	0.000000    	                	;
 980             	915.0000    	0.000000    	                	;
 981             	915.0000    	0.000000    	                	;
 982             	915.0000    	0.000000    	                	;
 983             	916.2700    	0.000000    	                	;
 984             	916.5400    	0.000000    	                	;
 985             	916.8500    	0.000000    	                	;
 986             	917.6200    	0.052083    	                	;
 987             	917.8500    	0.001243    	                	;
 988             	917.6600    	0.000000    	                	;
 989             	917.4600    	0.000000    	                	;
 990             	917.5900    	0.000000    	                	;
 991             	917.5700    	0.000000    	                	;
 992             	943.9400    	0.000000    	                	;
 993             	957.6000    	0.000000    	                	;
 994             	957.6000    	0.000000    	                	;
 995             	957.3100    	0.000000    	                	;
 996             	957.0100    	0.000000    	                	;
 1000            	957.7800    	0.000000    	                	;
 1001            	957.7800    	0.000000    	                	;
 1002            	957.9300    	0.000000    	                	;
 1003            	957.7800    	0.000000    	                	;
 1004            	957.5100    	0.000000    	                	;
 1005            	957.5100    	0.000000    	                	;
 1006            	957.6900    	0.000000    	                	;
 1007            	957.6900    	0.000000    	                	;
 1008            	957.6900    	0.000000    	                	;
 1009            	957.6900    	0.000000    	                	;
 1024            	957.7800    	0.000000    	                	;
 1025            	957.7800    	0.000000    	                	;
 1080            	918.2600    	0.000000    	                	;
 1081            	916.9000    	0.000000    	                	;
 1082            	916.5500    	0.000000    	                	;
 1083            	915.2400    	0.005401    	                	;
 1084            	900.0700    	0.000986    	                	;
 1085            	903.9200    	0.000000    	                	;
 1086            	905.4700    	0.000000    	                	;
 1087            	906.6700    	0.000686    	                	;
 1088            	906.6700    	0.000000    	                	;
 1089            	906.6700    	0.003172    	                	;
 1090            	910.0800    	0.000000    	                	;
 1091            	912.3000    	0.000000    	                	;
 1092            	900.0700    	0.000000    	                	;
 1093            	895.4400    	0.000000    	                	;
 1094            	918.5300    	0.000000    	                	;
 1095            	918.5300    	0.000000    	                	;
 1096            	916.6300    	0.000000    	                	;
 1097            	916.6300    	0.000000    	                	;
 1098            	916.5500    	0.000000    	                	;
 1099            	916.5300    	0.000000    	                	;
 1100            	917.4800    	0.000000    	                	;
 1101            	917.5700    	0.000000    	                	;
 1102            	917.5700    	0.000000    	                	;
 1103            	917.5700    	0.000000    	                	;
 1104            	917.5700    	0.000000    	                	;
 1105            	918.1100    	0.000000    	                	;
 1106            	918.3300    	0.000000    	                	;
 1107            	923.6900    	0.003086    	                	;
 1108            	927.3400    	0.000000    	                	;
 1109            	925.9900    	0.000000    	                	;
 1110            	924.4500    	0.000000    	                	;
 1111            	923.6500    	0.004330    	                	;
 1112            	923.0300    	0.000000    	                	;
 1113            	922.1500    	0.147548    	                	;
 1114            	921.5200    	0.000000    	                	;
 1115            	920.9000    	0.000000    	                	;
 1116            	933.9900    	0.000000    	                	;
 1117            	933.9900    	0.000000    	                	;
 1118            	933.9900    	0.000000    	                	;
 1119            	933.9900    	0.000000    	                	;
 1120            	958.8500    	0.103309    	                	;
 1121            	955.0000    	0.000000    	                	;
 1122            	950.0000    	0.000000    	                	;
 1123            	960.0000    	0.093407    	                	;
 1124            	936.3600    	0.000000    	                	;
 1125            	936.9900    	0.022303    	                	;
 1126            	935.7800    	0.347629    	                	;
 1127            	929.0300    	0.000000    	                	;
 1128            	937.6900    	0.001329    	                	;
 1129            	936.5000    	0.024447    	                	;
 1130            	935.3100    	0.000000    	                	;
 1131            	934.6200    	0.000000    	                	;
 1132            	933.9900    	0.000000    	                	;
 1133            	933.9900    	0.000000    	                	;
 1134            	933.9900    	0.000000    	                	;
 1144            	926.0300    	0.000000    	                	;
 1145            	957.9300    	0.000000    	                	;
 1146            	914.3300    	0.000000    	                	;
 1147            	913.9500    	0.000000    	                	;
 1148            	912.5700    	0.000000    	                	;
 1149            	912.5700    	0.000000    	                	;
 1150            	911.3300    	0.000000    	                	;
 1151            	910.7900    	0.000000    	                	;
 1152            	910.7900    	0.000000    	                	;
 1153            	908.4100    	0.000000    	                	;
 1154            	908.4100    	0.000000    	                	;
 1155            	905.4100    	0.000000    	                	;
 1156            	905.4100    	0.000000    	                	;
 1157            	901.8600    	0.000000    	                	;
 1158            	897.0700    	0.000000    	                	;
 1159            	897.0700    	0.000000    	                	;
 1160            	915.0700    	0.000000    	                	;
 1161            	914.9700    	0.000000    	                	;
 1162            	914.2100    	0.000000    	                	;
 1163            	914.2500    	0.000000    	                	;
 1164            	909.2900    	0.000000    	                	;
 1165            	911.5000    	0.022303    	                	;
 1166            	912.6000    	0.000000    	                	;
 1167            	913.4200    	0.000000    	                	;
 1168            	913.4200    	0.000000    	                	;
 1169            	914.8600    	0.000000    	                	;
 1170            	914.8600    	0.000000    	                	;
 1171            	913.0000    	0.000000    	                	;
 1172            	913.7900    	0.000000    	                	;
 1173            	911.4300    	0.000000    	                	;
 1174            	909.0200    	0.000000    	                	;
 1175            	909.9400    	0.000000    	                	;
 1176            	909.7400    	0.000000    	                	;
 1177            	902.3500    	0.000000    	                	;
 1178            	901.5200    	0.000000    	                	;
 1179            	905.2500    	0.000000    	                	;
 1180            	903.3200    	0.000000    	                	;
 1181            	901.5600    	0.022303    	                	;
 1182            	908.0800    	0.000000    	                	;
 1183            	904.8200    	0.000000    	                	;
 1184            	901.6100    	0.000000    	                	;
 1185            	907.8700    	0.116341    	                	;
 1186            	906.0900    	0.000000    	                	;
 1187            	908.0000    	0.000171    	                	;
 1188            	908.6600    	0.000000    	                	;
 1189            	911.1700    	0.000000    	                	;
 1190            	910.7500    	0.000000    	                	;
 1191            	910.7500    	0.000000    	                	;
 1192            	909.5700    	0.022303    	                	;
 1193            	908.5500    	0.073939    	                	;
 1194            	902.4200    	0.024646    	                	;
 1195            	906.4300    	0.000000    	                	;
 1196            	909.8600    	0.000000    	                	;
 1197            	911.8000    	0.000000    	                	;
 1198            	913.6000    	0.000000    	                	;
 1199            	915.1800    	0.000000    	                	;
 1200            	897.8400    	0.000000    	                	;
 1201            	916.5500    	0.000000    	                	;
 1202            	916.4200    	0.000000    	                	;
 1203            	916.6100    	0.000000    	                	;
 1204            	916.0000    	0.000000    	                	;
 1205            	915.1600    	0.000000    	                	;
 1206            	920.7700    	0.000000    	                	;
 1207            	920.0000    	0.000000    	                	;
 1208            	920.0000    	0.000000    	                	;
 1209            	920.0000    	0.000000    	                	;
 1210            	920.0000    	0.000000    	                	;
 1211            	920.0000    	0.000000    	                	;
 1212            	920.0000    	0.000000    	                	;
 1213            	920.4200    	0.000000    	                	;
 1214            	920.4700    	0.000000    	                	;
 1215            	920.0000    	0.000000    	                	;
 1216            	919.8700    	0.001329    	                	;
 1217            	919.5900    	0.000000    	                	;
 1218            	919.5900    	0.000000    	                	;
 1219            	919.7900    	0.000000    	                	;
 1220            	920.0000    	0.000000    	                	;
 1221            	920.5500    	0.000000    	                	;
 1222            	921.0700    	0.022303    	                	;
 1223            	921.0400    	0.000000    	                	;
 1224            	920.2300    	0.000000    	                	;
 1225            	920.3000    	0.000000    	                	;
 1226            	920.1000    	0.000000    	                	;
 1227            	919.5700    	0.000000    	                	;
 1228            	919.2100    	0.000000    	                	;
 1229            	919.0500    	0.000000    	                	;
 1230            	919.0500    	0.000000    	                	;
 1231            	919.0900    	0.005573    	                	;
 1232            	919.5700    	0.000000    	                	;
 1233            	920.1100    	0.000000    	                	;
 1234            	919.8800    	0.000000    	                	;
 1235            	919.8800    	0.022303    	                	;
 1236            	919.6800    	0.000000    	                	;
 1237            	919.1600    	0.000000    	                	;
 1238            	918.6800    	0.022303    	                	;
 1239            	918.3500    	0.000000    	                	;
 1240            	918.3500    	0.000000    	                	;
 1241            	918.6800    	0.000000    	                	;
 1242            	919.1600    	0.000000    	                	;
 1243            	919.6800    	0.000000    	                	;
 1244            	919.4300    	0.000000    	                	;
 1245            	919.2000    	0.000000    	                	;
 1246            	919.1300    	0.000000    	                	;
 1247            	918.9600    	0.000000    	                	;
 1248            	918.4200    	0.000000    	                	;
 1249            	917.8500    	0.000000    	                	;
 1250            	917.7000    	0.024646    	                	;
 1251            	917.7000    	0.000000    	                	;
 1252            	917.8500    	0.000000    	                	;
 1253            	918.3900    	0.000000    	                	;
 1254            	918.9600    	0.000000    	                	;
 1255            	919.1300    	0.000000    	                	;
 1256            	919.6000    	0.000000    	                	;
 1257            	920.7300    	0.000000    	                	;
 1258            	922.1800    	0.000000    	                	;
 1259            	923.1000    	0.000000    	                	;
 1260            	923.6000    	0.549725    	                	;
 1261            	919.8300    	0.000000    	                	;
 1262            	920.7300    	0.022303    	                	;
 1263            	922.2700    	0.000000    	                	;
 1264            	923.1000    	0.000000    	                	;
 1265            	923.8700    	0.000000    	                	;
 1266            	925.0000    	0.000000    	                	;
 1267            	925.0000    	0.000000    	                	;
 1268            	925.0000    	0.000000    	                	;
 1269            	921.2600    	0.000000    	                	;
 1270            	921.9900    	0.000000    	                	;
 1271            	922.5000    	0.000000    	                	;
 1272            	922.3500    	0.000000    	                	;
 1273            	922.7000    	0.044606    	                	;
 1274            	922.7000    	0.022303    	                	;
 1275            	923.8200    	0.000000    	                	;
 1276            	924.8600    	0.000000    	                	;
 1277            	924.2600    	0.000000    	                	;
 1278            	923.9600    	0.000000    	                	;
 1279            	925.5900    	0.000000    	                	;
 1280            	925.8000    	0.000000    	                	;
 1281            	926.3100    	0.000000    	                	;
 1282            	926.3300    	0.000000    	                	;
 1283            	926.3300    	0.000000    	                	;
 1284            	925.0000    	0.000000    	                	;
 1285            	925.0000    	0.000000    	                	;
 1286            	926.3300    	0.000000    	                	;
 1287            	925.0000    	0.000000    	                	;
 1288            	925.0000    	0.000000    	                	;
 1289            	925.0000    	0.000000    	                	;
 1290            	925.0000    	0.000772    	                	;
 1291            	925.0000    	0.000000    	                	;
 1292            	925.1900    	0.000000    	                	;
 1293            	925.9700    	0.000000    	                	;
 1294            	925.9700    	0.000000    	                	;
 1295            	925.2200    	0.000000    	                	;
 1296            	925.0000    	0.000000    	                	;
 1297            	925.0000    	0.000000    	                	;
 1298            	925.0000    	0.000000    	                	;
 1299            	925.0000    	0.000000    	                	;
 1300            	921.9900    	0.334689    	                	;
 1301            	923.9600    	0.000000    	                	;
 1302            	925.0000    	0.000000    	                	;
 1303            	925.0000    	0.000000    	                	;
 1304            	925.0000    	0.022303    	                	;
 1305            	925.0000    	0.000000    	                	;
 1306            	921.4000    	0.028519    	                	;
 1307            	922.8600    	0.036481    	                	;
 1308            	924.7700    	0.000000    	                	;
 1309            	925.0000    	0.000000    	                	;
 1310            	925.0000    	0.000000    	                	;
 1311            	925.0000    	0.000000    	                	;
 1312            	925.0000    	0.129201    	                	;
 1313            	921.3600    	0.000000    	                	;
 1314            	922.8000    	0.000000    	                	;
 1315            	924.6800    	0.000000    	                	;
 1316            	925.0000    	0.000000    	                	;
 1317            	925.0000    	0.000000    	                	;
 1318            	925.0000    	0.000000    	                	;
 1319            	924.1200    	0.000000    	                	;
 1320            	924.7100    	0.000000    	                	;
 1321            	918.8300    	0.000000    	                	;
 1322            	918.2900    	0.022303    	                	;
 1323            	919.0200    	0.000000    	                	;
 1324            	919.6100    	0.004973    	                	;
 1325            	919.8100    	0.000000    	                	;
 1326            	921.1300    	0.000000    	                	;
 1327            	921.5100    	0.000000    	                	;
 1328            	921.7700    	0.000000    	                	;
 1329            	924.6600    	0.000000    	                	;
 1330            	925.0000    	0.000000    	                	;
 1331            	925.0000    	0.000000    	                	;
 1332            	925.0000    	0.000000    	                	;
 1333            	925.6600    	0.000000    	                	;
 1334            	926.1700    	0.000000    	                	;
 1335            	926.1700    	0.000000    	                	;
 1336            	915.7600    	0.000000    	                	;
 1337            	915.5700    	0.000000    	                	;
 1338            	914.1600    	0.000000    	                	;
 1339            	912.6800    	0.000000    	                	;
 1340            	910.6600    	0.024646    	                	;
 1341            	909.6800    	0.046950    	                	;
 1342            	910.7200    	0.000000    	                	;
 1343            	912.2300    	0.000000    	                	;
 1344            	913.9400    	0.000000    	                	;
 1345            	914.0700    	0.000000    	                	;
 1346            	915.5700    	0.037671    	                	;
 1347            	935.9800    	0.009088    	                	;
 1348            	936.0400    	0.000000    	                	;
 1349            	935.9800    	0.000000    	                	;
 1350            	928.7400    	0.067681    	                	;
 1351            	935.4200    	0.000000    	                	;
 1352            	931.5600    	0.022303    	                	;
 1353            	926.4700    	0.010888    	                	;
 1354            	927.8900    	0.000000    	                	;
 1355            	934.9900    	0.013117    	                	;
 1356            	934.9500    	0.060005    	                	;
 1357            	926.7700    	0.000000    	                	;
 1358            	957.6000    	0.000000    	                	;
 1359            	959.8800    	0.000000    	                	;
 1360            	955.0000    	0.000000    	                	;
 1361            	955.0000    	0.000000    	                	;
 1362            	955.0000    	0.000000    	                	;
 1363            	955.0000    	0.000000    	                	;
 1364            	955.0000    	0.000000    	                	;
 1365            	955.0000    	0.000000    	                	;
 1366            	955.3100    	0.000000    	                	;
 1367            	955.3100    	0.000000    	                	;
 1368            	956.5700    	0.000000    	                	;
 1369            	957.3700    	0.000000    	                	;
 1370            	958.3300    	0.000000    	                	;
 1371            	959.3500    	0.000000    	                	;
 1372            	960.0000    	0.001500    	                	;
 1373            	960.0000    	0.000000    	                	;
 1374            	960.0000    	0.000000    	                	;
 1375            	960.0000    	0.000000    	                	;
 1376            	960.0000    	0.123232    	                	;
 1377            	955.0000    	0.000000    	                	;
 1378            	955.0000    	0.000000    	                	;
 1379            	955.0000    	0.000000    	                	;
 1380            	955.0000    	0.000000    	                	;
 1381            	955.0000    	0.000000    	                	;
 1382            	955.0000    	0.000000    	                	;
 1383            	955.0000    	0.000000    	                	;
 1384            	954.2700    	0.073939    	                	;
 1385            	953.6000    	0.073939    	                	;
 1386            	952.9100    	0.123232    	                	;
 1387            	952.1800    	0.073939    	                	;
 1388            	951.4100    	0.000000    	                	;
 1389            	950.6100    	0.000000    	                	;
 1390            	949.7800    	0.000000    	                	;
 1391            	948.9800    	0.000000    	                	;
 1392            	948.1700    	0.000000    	                	;
 1393            	947.3600    	0.000000    	                	;
 1394            	946.5600    	0.000000    	                	;
 1395            	945.7500    	0.001029    	                	;
 1396            	944.9200    	0.000000    	                	;
 1397            	943.9500    	0.000000    	                	;
 1398            	943.4400    	0.032279    	                	;
 1399            	942.4800    	0.000000    	                	;
 1400            	941.5400    	0.000000    	                	;
 1401            	940.6100    	0.022891    	                	;
 1402            	940.6100    	0.000000    	                	;
 1403            	934.6600    	0.000000    	                	;
 1404            	934.6600    	0.000000    	                	;
 1405            	926.9500    	0.000000    	                	;
 1406            	926.2100    	0.022303    	                	;
 1407            	937.9100    	0.003772    	                	;
 1408            	936.7400    	0.000000    	                	;
 1409            	940.1400    	0.003772    	                	;
 1410            	938.5000    	0.000000    	                	;
 1411            	925.9700    	0.000000    	                	;
 1412            	925.7000    	0.000000    	                	;
 1413            	925.4600    	0.002701    	                	;
 1414            	925.0000    	0.009516    	                	;
 1415            	925.0000    	0.000000    	                	;
 1416            	925.0000    	0.000000    	                	;
 1417            	925.0000    	0.000000    	                	;
 1418            	925.0000    	0.000000    	                	;
 1419            	925.0000    	0.000000    	                	;
 1420            	925.0000    	0.324203    	                	;
 1421            	925.0000    	0.000000    	                	;
 1422            	925.0000    	0.000000    	                	;
 1423            	955.0000    	0.000000    	                	;
 1424            	955.0000    	0.000000    	                	;
 1434            	957.6900    	0.000000    	                	;
 1446            	957.6900    	0.000000    	                	;
 1447            	957.6900    	0.000000    	                	;
 1448            	957.6000    	0.000000    	                	;
 1449            	957.6000    	0.000000    	                	;
 1450            	958.0000    	0.000000    	                	;
 1451            	958.0400    	0.000000    	                	;
 1452            	957.8700    	0.000000    	                	;
 1453            	957.9100    	0.000000    	                	;
 1458            	957.5100    	0.000000    	                	;
 1459            	957.6900    	0.000000    	                	;
 1460            	957.6900    	0.000000    	                	;
 1465            	957.8700    	0.000000    	                	;
 1466            	957.6900    	0.000000    	                	;
 1467            	957.6900    	0.000000    	                	;
 1468            	957.8700    	0.000000    	                	;
 1469            	958.0000    	0.000000    	                	;
 1470            	957.6900    	0.000000    	                	;
 1471            	957.6900    	0.000000    	                	;
 1472            	957.8700    	0.000000    	                	;
 1473            	957.8700    	0.000000    	                	;
 1474            	957.8700    	0.000000    	                	;
 1475            	957.8700    	0.000000    	                	;
 1476            	957.7800    	0.000000    	                	;
 1477            	957.7800    	0.000000    	                	;
 1478            	957.7800    	0.000000    	                	;
 1479            	957.9100    	0.000000    	                	;
 1480            	957.9100    	0.000000    	                	;
 1481            	957.7800    	0.000000    	                	;
 1482            	957.7800    	0.000000    	                	;
 1483            	957.6000    	0.000000    	                	;
 1484            	957.6000    	0.000000    	                	;
 1485            	934.8900    	0.000000    	                	;
 1486            	934.6300    	0.012088    	                	;
 1487            	936.2000    	0.022303    	                	;
 1488            	936.7000    	0.034594    	                	;
 1489            	936.9300    	0.000000    	                	;
 1490            	934.6600    	0.000000    	                	;
 1491            	934.9800    	0.000000    	                	;
 1492            	935.6000    	0.000000    	                	;
 1493            	934.6600    	0.000000    	                	;
 1494            	934.6600    	0.000000    	                	;
 1495            	935.6000    	0.000000    	                	;
 1496            	936.7400    	0.000000    	                	;
 1497            	926.9500    	0.000000    	                	;
 1498            	926.2100    	0.000000    	                	;
 1499            	926.9500    	0.000000    	                	;
 1500            	934.6600    	0.000000    	                	;
 1501            	934.6600    	0.000000    	                	;
 1502            	955.0000    	0.000000    	                	;
 1503            	955.0000    	0.000000    	                	;
 1504            	955.0000    	0.000000    	                	;
 1505            	955.0000    	0.000000    	                	;
 1506            	955.0000    	0.000000    	                	;
 1507            	955.0000    	0.000000    	                	;
 1508            	955.0000    	0.000000    	                	;
 1509            	954.9000    	0.000000    	                	;
 1510            	954.2700    	0.000000    	                	;
 1511            	953.6000    	0.000000    	                	;
 1512            	952.9100    	0.000000    	                	;
 1513            	952.1800    	0.000000    	                	;
 1514            	951.4100    	0.000000    	                	;
 1515            	950.5900    	0.000000    	                	;
 1516            	949.7800    	0.000000    	                	;
 1517            	948.5800    	0.000000    	                	;
 1518            	948.1700    	0.000000    	                	;
 1519            	947.3600    	0.000000    	                	;
 1520            	946.5600    	0.000000    	                	;
 1521            	945.7500    	0.000000    	                	;
 1522            	944.9200    	0.000000    	                	;
 1523            	943.9500    	0.000000    	                	;
 1524            	943.4400    	0.000000    	                	;
 1525            	942.4800    	0.000000    	                	;
 1526            	941.5400    	0.000000    	                	;
 1527            	940.6100    	0.000000    	                	;
 1528            	940.1400    	0.000000    	                	;
 1529            	937.3500    	0.000000    	                	;
 1530            	940.1400    	0.000000    	                	;
 1531            	938.5000    	0.000000    	                	;
 1532            	937.3500    	0.000000    	                	;
 1533            	955.0000    	0.000000    	                	;
 1534            	955.0000    	0.000000    	                	;
 1535            	955.0000    	0.000000    	                	;
 1536            	955.0000    	0.000000    	                	;
 1537            	955.0000    	0.000000    	                	;
 1538            	955.0000    	0.000000    	                	;
 1539            	955.3700    	0.000000    	                	;
 1540            	955.3700    	0.000000    	                	;
 1541            	956.5700    	0.000000    	                	;
 1542            	957.4900    	0.000000    	                	;
 1543            	958.3300    	0.000000    	                	;
 1544            	959.3500    	0.000000    	                	;
 1545            	959.7700    	0.000000    	                	;
 1546            	960.0000    	0.000000    	                	;
 1547            	960.0000    	0.000000    	                	;
 1548            	960.0000    	0.000000    	                	;
 1549            	960.0000    	0.000000    	                	;
 1550            	959.8800    	0.000000    	                	;
 1551            	959.8800    	0.000000    	                	;
 1552            	955.0000    	0.000000    	                	;
 1553            	955.0000    	0.000000    	                	;
 1554            	934.6300    	0.022303    	                	;
 1555            	931.8700    	0.000000    	                	;
 1557            	926.9200    	0.000000    	                	;
 1558            	926.4100    	0.000000    	                	;
 1559            	934.6300    	0.000000    	                	;
 1560            	926.4100    	0.000000    	                	;
 1561            	926.4100    	0.000000    	                	;
 1562            	926.2100    	0.000000    	                	;
 1563            	926.2100    	0.000000    	                	;
 1564            	926.2100    	0.000000    	                	;
 1565            	926.2100    	0.000000    	                	;
 1566            	925.9700    	0.000000    	                	;
 1567            	926.9500    	0.000000    	                	;
 1568            	926.2700    	0.032707    	                	;
 1569            	925.6000    	0.000000    	                	;
 1570            	925.3900    	0.000000    	                	;
 1571            	925.1900    	0.000000    	                	;
 1572            	925.1900    	0.000000    	                	;
 1573            	925.1900    	0.022303    	                	;
 1574            	925.2900    	0.000000    	                	;
 1575            	925.2900    	0.000000    	                	;
 1576            	925.2900    	0.000000    	                	;
 1577            	925.2900    	0.007716    	                	;
 1578            	925.3900    	0.000257    	                	;
 1579            	925.2000    	0.002358    	                	;
 1580            	925.6500    	0.002229    	                	;
 1581            	925.9700    	0.000000    	                	;
 1582            	926.3300    	0.005358    	                	;
 1583            	926.3000    	0.000000    	                	;
 1584            	926.5000    	0.000000    	                	;
 1585            	926.5000    	0.007630    	                	;
 1586            	927.1700    	0.000000    	                	;
 1587            	927.1700    	0.000000    	                	;
 1588            	927.0200    	0.000000    	                	;
 1589            	926.8200    	0.000000    	                	;
 1590            	926.8500    	0.000000    	                	;
 1591            	926.8900    	0.007973    	                	;
 1592            	926.7500    	0.003086    	                	;
 1593            	926.6100    	0.000000    	                	;
 1594            	926.4400    	0.000000    	                	;
 1595            	926.9900    	0.000000    	                	;
 1596            	926.9900    	0.000000    	                	;
 1597            	926.9500    	0.000000    	                	;
 1598            	927.1700    	0.000000    	                	;
 1599            	927.2000    	0.000000    	                	;
 1600            	927.2000    	0.000000    	                	;
 1601            	926.9900    	0.022419    	                	;
 1602            	926.9900    	0.000000    	                	;
 1603            	925.3500    	0.000000    	                	;
 1604            	924.4200    	0.000000    	                	;
 1605            	920.9100    	0.022303    	                	;
 1606            	918.0300    	0.000000    	                	;
 1607            	915.3000    	0.000000    	                	;
 1608            	920.4100    	0.000000    	                	;
 1609            	916.7300    	0.000000    	                	;
 1610            	917.3700    	0.000000    	                	;
 1611            	917.1700    	0.000000    	                	;
 1612            	914.2300    	0.014875    	                	;
 1613            	923.3600    	0.000000    	                	;
 1614            	921.2200    	0.029064    	                	;
 1615            	920.6800    	0.000000    	                	;
 1616            	915.2100    	0.000000    	                	;
 1617            	957.7800    	0.000000    	                	;
 1618            	957.9300    	0.000000    	                	;
 1619            	957.6000    	0.000000    	                	;
 1620            	957.6000    	0.000000    	                	;
 1621            	957.7800    	0.000000    	                	;
 1622            	957.7800    	0.000000    	                	;
 1623            	957.7800    	0.000000    	                	;
 1624            	957.7800    	0.000000    	                	;
 1625            	957.7800    	0.007973    	                	;
 1626            	957.9300    	0.000000    	                	;
 1627            	947.9700    	0.000000    	                	;
 1636            	905.1200    	0.022303    	                	;
 1637            	903.6600    	0.000000    	                	;
 1638            	902.7900    	0.000000    	                	;
 1639            	902.7900    	0.022303    	                	;
 1640            	901.9200    	0.000000    	                	;
 1641            	912.4400    	0.000000    	                	;
 1642            	912.4400    	0.000000    	                	;
 1643            	912.4400    	0.022303    	                	;
 1644            	912.4400    	0.000000    	                	;
 1645            	912.4400    	0.000000    	                	;
 1646            	912.4400    	0.000000    	                	;
 1647            	911.4300    	0.000000    	                	;
 1648            	911.4300    	0.022303    	                	;
 1649            	911.4300    	0.000000    	                	;
 1650            	911.4300    	0.190582    	                	;
 1651            	911.4300    	0.000000    	                	;
 1652            	908.1900    	0.003215    	                	;
 1653            	907.7100    	0.000000    	                	;
 1654            	906.2600    	0.000000    	                	;
 1655            	906.2600    	0.000000    	                	;
 1656            	905.3500    	0.000000    	                	;
 1657            	903.4500    	0.000000    	                	;
 1658            	908.3700    	0.007459    	                	;
 1659            	907.7000    	0.005916    	                	;
 1660            	907.3400    	0.000000    	                	;
 1661            	906.6100    	0.000000    	                	;
 1662            	906.6100    	0.000000    	                	;
 1663            	906.1400    	0.000000    	                	;
 1664            	904.7600    	0.000343    	                	;
 1665            	903.4300    	0.066910    	                	;
 1666            	902.6800    	0.000000    	                	;
 1667            	901.5000    	0.000000    	                	;
 1668            	900.4000    	0.000000    	                	;
 1669            	898.0800    	0.000000    	                	;
 1670            	896.0500    	0.003215    	                	;
 1671            	893.2700    	0.022303    	                	;
 1672            	892.7800    	0.002100    	                	;
 1673            	894.1500    	0.001115    	                	;
 1674            	895.6200    	0.000000    	                	;
 1675            	896.0500    	0.002100    	                	;
 1676            	896.7600    	0.025818    	                	;
 1677            	896.8000    	0.000000    	                	;
 1678            	896.8000    	0.000000    	                	;
 1679            	896.8000    	0.000000    	                	;
 1680            	896.8000    	0.016392    	                	;
 1681            	936.7100    	0.000000    	                	;
 1682            	933.8300    	0.000000    	                	;
 1683            	934.3200    	0.000000    	                	;

[RESERVOIRS]
;ID              	Head        	Pattern         
 C1              	965.0000    	                	;
 C2              	965.0000    	                	;
 C3              	965.0000    	                	;
 C4              	965.0000    	                	;
 C5              	965.0000    	                	;
 C6              	965.0000    	                	;

[TANKS]
;ID              	Elevation   	InitLevel   	MinLevel    	MaxLevel    	Diameter    	MinVol      	VolCurve        	Overflow
 76              	933.0000    	8.0000      	2.0000      	10.0000     	2.0000      	6.2832      	                	;
 77              	933.0000    	10.0000     	2.0000      	10.0000     	2.0000      	6.2832      	                	;

[PIPES]
;ID              	Node1           	Node2           	Length      	Diameter    	Roughness   	MinorLoss   	Status
 0               	166             	721             	1.1100      	110.0000    	137.0000    	0.0000      	Open  	;
 1               	1471            	1467            	1.3500      	150.0000    	140.0000    	0.0000      	Open  	;
 2               	1472            	1473            	0.3000      	150.0000    	140.0000    	0.0000      	Open  	;
 3               	1473            	1468            	1.2000      	150.0000    	140.0000    	0.0000      	Open  	;
 4               	1474            	1475            	0.3000      	150.0000    	140.0000    	0.0000      	Open  	;
 5               	1475            	1469            	1.2500      	150.0000    	140.0000    	0.0000      	Open  	;
 6               	1476            	1477            	1.5500      	150.0000    	140.0000    	0.0000      	Open  	;
 7               	1477            	1478            	0.2000      	150.0000    	140.0000    	0.0000      	Open  	;
 8               	1453            	1479            	0.9500      	150.0000    	140.0000    	0.0000      	Open  	;
 9               	1480            	1481            	2.4200      	150.0000    	140.0000    	0.0000      	Open  	;
 10              	1470            	1471            	0.3000      	150.0000    	140.0000    	0.0000      	Open  	;
 11              	1481            	1482            	0.9500      	150.0000    	140.0000    	0.0000      	Open  	;
 12              	1482            	1476            	0.8800      	150.0000    	140.0000    	0.0000      	Open  	;
 13              	1351            	1349            	50.7800     	60.0000     	137.0000    	0.0000      	Open  	;
 14              	1349            	1126            	51.3800     	60.0000     	137.0000    	0.0000      	Open  	;
 15              	1351            	1485            	164.5300    	60.0000     	137.0000    	0.0000      	Open  	;
 16              	1485            	1486            	12.0900     	60.0000     	137.0000    	0.0000      	Open  	;
 17              	1126            	1487            	95.9600     	60.0000     	137.0000    	0.0000      	Open  	;
 18              	1487            	479             	39.1800     	60.0000     	137.0000    	0.0000      	Open  	;
 19              	479             	1488            	47.2100     	60.0000     	137.0000    	0.0000      	Open  	;
 20              	1488            	1489            	17.1300     	60.0000     	137.0000    	0.0000      	Open  	;
 21              	1479            	1480            	1.7600      	150.0000    	140.0000    	0.0000      	Open  	;
 22              	1469            	1450            	2.1200      	150.0000    	140.0000    	0.0000      	Open  	;
 23              	1468            	1469            	3.4800      	150.0000    	140.0000    	0.0000      	Open  	;
 24              	1467            	1468            	3.3700      	150.0000    	140.0000    	0.0000      	Open  	;
 25              	1120            	1123            	106.9900    	32.0000     	140.0000    	0.0000      	Open  	;
 36              	1126            	1127            	131.9500    	32.0000     	140.0000    	0.0000      	Open  	;
 37              	1120            	1145            	52.4500     	60.0000     	137.0000    	0.0000      	Open  	;
 38              	1450            	1451            	6.9000      	150.0000    	140.0000    	0.0000      	Open  	;
 39              	1451            	1452            	0.6700      	100.0000    	130.0000    	0.0000      	Open  	;
 40              	1451            	1453            	12.4300     	150.0000    	140.0000    	0.0000      	Open  	;
 45              	1452            	1465            	0.3000      	100.0000    	130.0000    	0.0000      	Open  	;
 46              	1355            	1487            	23.3300     	60.0000     	137.0000    	0.0000      	Open  	;
 47              	186             	1402            	6.5500      	60.0000     	137.0000    	0.0000      	Open  	;
 49              	181             	1491            	7.0600      	60.0000     	137.0000    	0.0000      	Open  	;
 50              	1122            	1627            	10.8700     	32.0000     	140.0000    	0.0000      	Open  	;
 51              	421             	1636            	26.9400     	32.0000     	140.0000    	0.0000      	Open  	;
 52              	1636            	1637            	22.0700     	32.0000     	140.0000    	0.0000      	Open  	;
 53              	1637            	1638            	9.0700      	32.0000     	140.0000    	0.0000      	Open  	;
 54              	1638            	1639            	6.0500      	32.0000     	140.0000    	0.0000      	Open  	;
 55              	1639            	1640            	8.3800      	32.0000     	140.0000    	0.0000      	Open  	;
 56              	1343            	1641            	72.0000     	32.0000     	140.0000    	0.0000      	Open  	;
 57              	1641            	1642            	1.1400      	32.0000     	140.0000    	0.0000      	Open  	;
 58              	1642            	1643            	0.2900      	32.0000     	140.0000    	0.0000      	Open  	;
 59              	1643            	1644            	0.2900      	32.0000     	140.0000    	0.0000      	Open  	;
 60              	1644            	1645            	0.5800      	32.0000     	140.0000    	0.0000      	Open  	;
 61              	1645            	1646            	0.2900      	32.0000     	140.0000    	0.0000      	Open  	;
 62              	1646            	1642            	0.3000      	32.0000     	140.0000    	0.0000      	Open  	;
 63              	610             	604             	49.6100     	32.0000     	140.0000    	0.0000      	Open  	;
 64              	1342            	1647            	123.6300    	32.0000     	140.0000    	0.0000      	Open  	;
 65              	1648            	1649            	0.2900      	32.0000     	140.0000    	0.0000      	Open  	;
 66              	1649            	1650            	0.5800      	32.0000     	140.0000    	0.0000      	Open  	;
 67              	1650            	1651            	0.2900      	32.0000     	140.0000    	0.0000      	Open  	;
 68              	1651            	1647            	0.2900      	32.0000     	140.0000    	0.0000      	Open  	;
 69              	1489            	1681            	51.0000     	32.0000     	140.0000    	0.0000      	Open  	;
 70              	1486            	1490            	6.4700      	60.0000     	137.0000    	0.0000      	Open  	;
 71              	720             	1626            	0.5000      	110.0000    	137.0000    	0.0000      	Open  	;
 72              	1145            	1002            	1.8500      	110.0000    	137.0000    	0.0000      	Open  	;
 73              	1647            	1648            	0.2900      	32.0000     	140.0000    	0.0000      	Open  	;
 74              	1624            	1625            	0.2900      	110.0000    	137.0000    	0.0000      	Open  	;
 75              	1626            	1145            	0.5000      	110.0000    	137.0000    	0.0000      	Open  	;
 76              	1493            	1494            	1.0000      	110.0000    	137.0000    	0.0000      	Open  	;
 77              	1490            	1493            	0.7000      	60.0000     	137.0000    	0.0000      	Open  	;
 78              	1560            	1561            	2.9700      	60.0000     	137.0000    	0.0000      	Open  	;
 79              	1558            	1560            	0.8000      	200.0000    	140.0000    	0.0000      	Open  	;
 80              	1558            	1406            	9.7000      	60.0000     	137.0000    	0.0000      	Open  	;
 81              	1335            	1411            	10.3700     	60.0000     	137.0000    	0.0000      	Open  	;
 82              	1610            	888             	0.2000      	50.0000     	132.0000    	0.0000      	Open  	;
 83              	887             	1611            	0.2000      	50.0000     	132.0000    	0.0000      	Open  	;
 84              	1609            	941             	0.2000      	50.0000     	132.0000    	0.0000      	Open  	;
 85              	1625            	721             	5.8900      	110.0000    	137.0000    	0.0000      	Open  	;
 86              	1623            	1624            	0.9900      	110.0000    	137.0000    	0.0000      	Open  	;
 87              	1619            	1620            	1.9700      	110.0000    	137.0000    	0.0000      	Open  	;
 89              	1001            	1002            	4.0300      	110.0000    	132.0000    	0.0000      	Open  	;
 90              	1000            	1003            	0.8200      	110.0000    	132.0000    	0.0000      	Open  	;
 91              	1004            	1005            	0.8000      	100.0000    	118.0000    	0.0000      	Open  	;
 103             	1000            	1001            	1.3500      	110.0000    	132.0000    	0.0000      	Open  	;
 111             	990             	991             	18.5600     	63.0000     	140.0000    	0.0000      	Open  	;
 112             	983             	984             	14.8700     	63.0000     	140.0000    	0.0000      	Open  	;
 113             	988             	989             	21.1700     	63.0000     	140.0000    	0.0000      	Open  	;
 114             	973             	974             	20.5600     	63.0000     	140.0000    	0.0000      	Open  	;
 115             	972             	973             	19.8100     	63.0000     	140.0000    	0.0000      	Open  	;
 116             	971             	972             	22.4300     	63.0000     	140.0000    	0.0000      	Open  	;
 117             	974             	975             	25.8900     	63.0000     	140.0000    	0.0000      	Open  	;
 118             	970             	971             	20.4100     	63.0000     	140.0000    	0.0000      	Open  	;
 119             	969             	970             	20.9100     	63.0000     	140.0000    	0.0000      	Open  	;
 120             	968             	969             	4.4400      	63.0000     	140.0000    	0.0000      	Open  	;
 121             	967             	968             	4.9300      	63.0000     	140.0000    	0.0000      	Open  	;
 122             	975             	976             	22.6900     	63.0000     	140.0000    	0.0000      	Open  	;
 123             	976             	977             	19.5700     	63.0000     	140.0000    	0.0000      	Open  	;
 124             	966             	967             	10.5200     	63.0000     	140.0000    	0.0000      	Open  	;
 125             	989             	990             	14.7900     	63.0000     	140.0000    	0.0000      	Open  	;
 126             	965             	966             	21.2100     	63.0000     	140.0000    	0.0000      	Open  	;
 128             	977             	978             	14.4000     	63.0000     	140.0000    	0.0000      	Open  	;
 129             	978             	979             	18.5100     	63.0000     	140.0000    	0.0000      	Open  	;
 130             	979             	980             	10.0900     	63.0000     	140.0000    	0.0000      	Open  	;
 131             	980             	981             	17.3200     	63.0000     	140.0000    	0.0000      	Open  	;
 132             	981             	982             	28.6100     	63.0000     	140.0000    	0.0000      	Open  	;
 133             	982             	983             	57.1800     	63.0000     	140.0000    	0.0000      	Open  	;
 134             	984             	985             	24.1300     	63.0000     	140.0000    	0.0000      	Open  	;
 135             	985             	986             	40.3600     	63.0000     	140.0000    	0.0000      	Open  	;
 136             	986             	987             	23.0500     	63.0000     	140.0000    	0.0000      	Open  	;
 137             	987             	988             	22.9200     	63.0000     	140.0000    	0.0000      	Open  	;
 138             	964             	965             	21.8200     	63.0000     	140.0000    	0.0000      	Open  	;
 142             	676             	1091            	18.9400     	63.0000     	140.0000    	0.0000      	Open  	;
 143             	673             	1087            	34.3900     	63.0000     	140.0000    	0.0000      	Open  	;
 144             	1087            	1088            	0.6200      	63.0000     	140.0000    	0.0000      	Open  	;
 145             	1092            	1093            	27.0800     	32.0000     	140.0000    	0.0000      	Open  	;
 146             	991             	1101            	0.0300      	63.0000     	140.0000    	0.0000      	Open  	;
 147             	1101            	1102            	4.5800      	63.0000     	140.0000    	0.0000      	Open  	;
 148             	1102            	1103            	2.1700      	63.0000     	140.0000    	0.0000      	Open  	;
 149             	1103            	1104            	0.1000      	63.0000     	140.0000    	0.0000      	Open  	;
 150             	1104            	61              	1.2200      	85.0000     	140.0000    	0.0000      	Open  	;
 151             	963             	964             	19.6600     	63.0000     	140.0000    	0.0000      	Open  	;
 152             	371             	1144            	7.2700      	63.0000     	140.0000    	0.0000      	Open  	;
 153             	1144            	963             	18.5600     	63.0000     	140.0000    	0.0000      	Open  	;
 154             	1083            	1146            	28.1700     	90.0000     	140.0000    	0.0000      	Open  	;
 155             	1155            	1156            	0.7000      	90.0000     	140.0000    	0.0000      	Open  	;
 156             	1154            	1155            	49.1200     	90.0000     	140.0000    	0.0000      	Open  	;
 157             	1153            	1154            	2.0800      	90.0000     	140.0000    	0.0000      	Open  	;
 158             	1152            	1153            	47.6000     	90.0000     	140.0000    	0.0000      	Open  	;
 159             	1151            	1152            	0.3600      	90.0000     	140.0000    	0.0000      	Open  	;
 160             	1150            	1151            	17.9500     	90.0000     	140.0000    	0.0000      	Open  	;
 161             	1149            	1150            	32.4900     	90.0000     	140.0000    	0.0000      	Open  	;
 162             	1146            	1147            	6.1300      	90.0000     	140.0000    	0.0000      	Open  	;
 163             	1147            	1148            	43.5700     	90.0000     	140.0000    	0.0000      	Open  	;
 164             	1148            	1149            	0.4500      	90.0000     	140.0000    	0.0000      	Open  	;
 165             	1090            	675             	26.5000     	63.0000     	140.0000    	0.0000      	Open  	;
 166             	1088            	1089            	5.2800      	63.0000     	140.0000    	0.0000      	Open  	;
 167             	1086            	1087            	29.4300     	63.0000     	140.0000    	0.0000      	Open  	;
 168             	1085            	1086            	18.7900     	63.0000     	140.0000    	0.0000      	Open  	;
 188             	520             	1080            	3.5600      	90.0000     	140.0000    	0.0000      	Open  	;
 189             	1080            	1081            	53.2700     	90.0000     	140.0000    	0.0000      	Open  	;
 190             	1081            	1082            	14.6600     	90.0000     	140.0000    	0.0000      	Open  	;
 191             	1082            	1083            	49.7900     	90.0000     	140.0000    	0.0000      	Open  	;
 192             	1084            	1085            	51.0000     	63.0000     	140.0000    	0.0000      	Open  	;
 194             	961             	962             	10.3100     	50.0000     	132.0000    	0.0000      	Open  	;
 195             	920             	921             	9.5300      	50.0000     	132.0000    	0.0000      	Open  	;
 196             	959             	960             	4.9500      	50.0000     	132.0000    	0.0000      	Open  	;
 197             	878             	879             	32.5100     	50.0000     	132.0000    	0.0000      	Open  	;
 198             	879             	880             	18.0200     	50.0000     	132.0000    	0.0000      	Open  	;
 199             	880             	881             	17.8700     	50.0000     	132.0000    	0.0000      	Open  	;
 200             	881             	882             	2.7400      	50.0000     	132.0000    	0.0000      	Open  	;
 201             	871             	883             	18.7100     	50.0000     	132.0000    	0.0000      	Open  	;
 202             	883             	884             	27.3400     	50.0000     	132.0000    	0.0000      	Open  	;
 203             	884             	882             	2.4400      	50.0000     	132.0000    	0.0000      	Open  	;
 204             	882             	885             	16.4100     	50.0000     	132.0000    	0.0000      	Open  	;
 205             	885             	886             	21.1700     	50.0000     	132.0000    	0.0000      	Open  	;
 206             	886             	887             	9.2100      	50.0000     	132.0000    	0.0000      	Open  	;
 207             	888             	889             	14.7200     	50.0000     	132.0000    	0.0000      	Open  	;
 208             	877             	878             	20.7100     	50.0000     	132.0000    	0.0000      	Open  	;
 209             	889             	890             	20.3900     	50.0000     	132.0000    	0.0000      	Open  	;
 210             	891             	892             	16.2400     	50.0000     	132.0000    	0.0000      	Open  	;
 211             	892             	893             	6.4800      	50.0000     	132.0000    	0.0000      	Open  	;
 212             	894             	895             	20.0800     	50.0000     	132.0000    	0.0000      	Open  	;
 213             	895             	896             	20.8500     	50.0000     	132.0000    	0.0000      	Open  	;
 214             	896             	897             	19.3700     	50.0000     	132.0000    	0.0000      	Open  	;
 215             	897             	898             	20.8800     	50.0000     	132.0000    	0.0000      	Open  	;
 216             	898             	899             	10.8600     	50.0000     	132.0000    	0.0000      	Open  	;
 217             	900             	901             	18.3300     	50.0000     	132.0000    	0.0000      	Open  	;
 218             	888             	902             	19.4900     	50.0000     	132.0000    	0.0000      	Open  	;
 219             	902             	903             	29.9100     	50.0000     	132.0000    	0.0000      	Open  	;
 220             	904             	899             	1.2500      	50.0000     	132.0000    	0.0000      	Open  	;
 221             	890             	891             	21.4100     	50.0000     	132.0000    	0.0000      	Open  	;
 222             	903             	905             	6.1500      	50.0000     	132.0000    	0.0000      	Open  	;
 223             	876             	873             	19.3900     	50.0000     	132.0000    	0.0000      	Open  	;
 224             	850             	874             	5.9100      	50.0000     	132.0000    	0.0000      	Open  	;
 225             	849             	850             	12.9100     	50.0000     	132.0000    	0.0000      	Open  	;
 226             	850             	851             	5.4900      	50.0000     	132.0000    	0.0000      	Open  	;
 227             	851             	852             	17.2200     	50.0000     	132.0000    	0.0000      	Open  	;
 228             	852             	853             	15.3800     	50.0000     	132.0000    	0.0000      	Open  	;
 229             	853             	854             	7.5500      	50.0000     	132.0000    	0.0000      	Open  	;
 230             	854             	855             	16.5200     	50.0000     	132.0000    	0.0000      	Open  	;
 231             	855             	856             	22.6100     	50.0000     	132.0000    	0.0000      	Open  	;
 232             	856             	857             	23.7100     	50.0000     	132.0000    	0.0000      	Open  	;
 233             	857             	858             	4.2100      	50.0000     	132.0000    	0.0000      	Open  	;
 234             	858             	859             	1.2900      	50.0000     	132.0000    	0.0000      	Open  	;
 235             	859             	860             	2.3900      	50.0000     	132.0000    	0.0000      	Open  	;
 236             	875             	876             	16.4900     	50.0000     	132.0000    	0.0000      	Open  	;
 237             	860             	861             	5.8600      	50.0000     	132.0000    	0.0000      	Open  	;
 238             	862             	863             	18.7400     	50.0000     	132.0000    	0.0000      	Open  	;
 239             	863             	864             	3.3400      	50.0000     	132.0000    	0.0000      	Open  	;
 240             	865             	866             	4.4400      	50.0000     	132.0000    	0.0000      	Open  	;
 241             	866             	864             	1.5300      	50.0000     	132.0000    	0.0000      	Open  	;
 242             	864             	867             	1.9800      	50.0000     	132.0000    	0.0000      	Open  	;
 243             	867             	868             	16.7500     	50.0000     	132.0000    	0.0000      	Open  	;
 244             	868             	869             	10.0900     	50.0000     	132.0000    	0.0000      	Open  	;
 245             	869             	870             	4.2700      	50.0000     	132.0000    	0.0000      	Open  	;
 246             	870             	871             	5.6400      	50.0000     	132.0000    	0.0000      	Open  	;
 247             	871             	872             	4.1600      	50.0000     	132.0000    	0.0000      	Open  	;
 248             	872             	873             	28.6900     	50.0000     	132.0000    	0.0000      	Open  	;
 249             	861             	862             	17.7400     	50.0000     	132.0000    	0.0000      	Open  	;
 250             	899             	906             	24.6600     	50.0000     	132.0000    	0.0000      	Open  	;
 251             	906             	907             	17.3400     	50.0000     	132.0000    	0.0000      	Open  	;
 252             	907             	901             	6.1100      	50.0000     	132.0000    	0.0000      	Open  	;
 253             	937             	938             	20.3200     	50.0000     	132.0000    	0.0000      	Open  	;
 254             	938             	939             	24.5400     	50.0000     	132.0000    	0.0000      	Open  	;
 255             	939             	940             	24.8100     	50.0000     	132.0000    	0.0000      	Open  	;
 256             	940             	941             	12.6400     	50.0000     	132.0000    	0.0000      	Open  	;
 257             	932             	926             	18.4100     	50.0000     	132.0000    	0.0000      	Open  	;
 258             	926             	942             	5.2800      	50.0000     	132.0000    	0.0000      	Open  	;
 259             	942             	943             	17.1800     	50.0000     	132.0000    	0.0000      	Open  	;
 260             	943             	944             	15.0300     	50.0000     	132.0000    	0.0000      	Open  	;
 261             	944             	945             	12.0200     	50.0000     	132.0000    	0.0000      	Open  	;
 262             	941             	946             	11.9800     	50.0000     	132.0000    	0.0000      	Open  	;
 263             	946             	947             	17.9500     	50.0000     	132.0000    	0.0000      	Open  	;
 264             	936             	937             	22.5300     	50.0000     	132.0000    	0.0000      	Open  	;
 265             	947             	948             	16.0500     	50.0000     	132.0000    	0.0000      	Open  	;
 266             	949             	950             	5.0900      	50.0000     	132.0000    	0.0000      	Open  	;
 267             	950             	951             	13.4300     	50.0000     	132.0000    	0.0000      	Open  	;
 268             	951             	952             	21.4100     	50.0000     	132.0000    	0.0000      	Open  	;
 269             	952             	953             	22.9500     	50.0000     	132.0000    	0.0000      	Open  	;
 270             	953             	954             	19.8000     	50.0000     	132.0000    	0.0000      	Open  	;
 271             	954             	955             	22.5200     	50.0000     	132.0000    	0.0000      	Open  	;
 272             	955             	956             	18.4300     	50.0000     	132.0000    	0.0000      	Open  	;
 273             	956             	957             	21.7600     	50.0000     	132.0000    	0.0000      	Open  	;
 274             	957             	884             	7.4000      	50.0000     	132.0000    	0.0000      	Open  	;
 275             	870             	958             	11.7800     	50.0000     	132.0000    	0.0000      	Open  	;
 276             	958             	959             	8.6600      	50.0000     	132.0000    	0.0000      	Open  	;
 277             	948             	949             	5.3700      	50.0000     	132.0000    	0.0000      	Open  	;
 278             	935             	936             	24.5400     	50.0000     	132.0000    	0.0000      	Open  	;
 279             	934             	935             	15.5900     	50.0000     	132.0000    	0.0000      	Open  	;
 280             	933             	934             	7.6500      	50.0000     	132.0000    	0.0000      	Open  	;
 281             	901             	908             	7.2800      	50.0000     	132.0000    	0.0000      	Open  	;
 282             	908             	909             	13.5700     	50.0000     	132.0000    	0.0000      	Open  	;
 283             	909             	910             	27.9500     	50.0000     	132.0000    	0.0000      	Open  	;
 284             	910             	911             	20.8400     	50.0000     	132.0000    	0.0000      	Open  	;
 285             	911             	912             	20.6000     	50.0000     	132.0000    	0.0000      	Open  	;
 286             	912             	913             	28.9700     	50.0000     	132.0000    	0.0000      	Open  	;
 287             	913             	914             	19.6400     	50.0000     	132.0000    	0.0000      	Open  	;
 288             	914             	915             	12.5100     	50.0000     	132.0000    	0.0000      	Open  	;
 289             	915             	916             	3.6700      	50.0000     	132.0000    	0.0000      	Open  	;
 290             	917             	918             	26.9200     	50.0000     	132.0000    	0.0000      	Open  	;
 291             	918             	919             	9.4700      	50.0000     	132.0000    	0.0000      	Open  	;
 292             	919             	920             	9.8000      	50.0000     	132.0000    	0.0000      	Open  	;
 293             	1156            	1157            	48.8800     	90.0000     	140.0000    	0.0000      	Open  	;
 294             	921             	922             	18.6400     	50.0000     	132.0000    	0.0000      	Open  	;
 295             	922             	923             	13.9300     	50.0000     	132.0000    	0.0000      	Open  	;
 296             	923             	916             	14.8300     	50.0000     	132.0000    	0.0000      	Open  	;
 297             	916             	924             	10.2200     	50.0000     	132.0000    	0.0000      	Open  	;
 298             	924             	925             	19.8300     	50.0000     	132.0000    	0.0000      	Open  	;
 299             	925             	926             	17.7100     	50.0000     	132.0000    	0.0000      	Open  	;
 300             	905             	927             	10.9800     	50.0000     	132.0000    	0.0000      	Open  	;
 301             	927             	928             	25.2700     	50.0000     	132.0000    	0.0000      	Open  	;
 302             	928             	929             	24.5900     	50.0000     	132.0000    	0.0000      	Open  	;
 303             	929             	930             	25.2200     	50.0000     	132.0000    	0.0000      	Open  	;
 304             	930             	931             	18.3500     	50.0000     	132.0000    	0.0000      	Open  	;
 305             	931             	932             	24.3400     	50.0000     	132.0000    	0.0000      	Open  	;
 306             	960             	961             	15.5400     	50.0000     	132.0000    	0.0000      	Open  	;
 307             	1157            	1158            	55.8600     	90.0000     	140.0000    	0.0000      	Open  	;
 308             	874             	875             	20.4700     	50.0000     	132.0000    	0.0000      	Open  	;
 309             	1083            	1160            	13.7400     	63.0000     	140.0000    	0.0000      	Open  	;
 310             	1285            	1288            	6.1700      	63.0000     	140.0000    	0.0000      	Open  	;
 311             	1288            	1289            	28.8500     	63.0000     	140.0000    	0.0000      	Open  	;
 312             	1289            	1290            	26.0000     	63.0000     	140.0000    	0.0000      	Open  	;
 313             	1290            	1291            	27.1100     	63.0000     	140.0000    	0.0000      	Open  	;
 314             	1291            	1292            	53.6500     	63.0000     	140.0000    	0.0000      	Open  	;
 315             	1292            	1293            	36.1900     	63.0000     	140.0000    	0.0000      	Open  	;
 316             	1293            	1294            	5.1900      	63.0000     	140.0000    	0.0000      	Open  	;
 317             	1294            	1295            	34.4900     	63.0000     	140.0000    	0.0000      	Open  	;
 318             	1295            	1296            	54.9800     	63.0000     	140.0000    	0.0000      	Open  	;
 319             	1296            	1297            	28.1100     	63.0000     	140.0000    	0.0000      	Open  	;
 320             	1290            	1297            	6.4200      	63.0000     	140.0000    	0.0000      	Open  	;
 321             	1278            	1285            	37.1000     	63.0000     	140.0000    	0.0000      	Open  	;
 322             	1297            	1298            	30.5000     	63.0000     	140.0000    	0.0000      	Open  	;
 323             	1225            	1300            	52.4600     	63.0000     	140.0000    	0.0000      	Open  	;
 324             	1300            	1301            	70.1100     	63.0000     	140.0000    	0.0000      	Open  	;
 325             	1301            	1302            	50.2800     	63.0000     	140.0000    	0.0000      	Open  	;
 326             	1302            	1303            	52.8100     	63.0000     	140.0000    	0.0000      	Open  	;
 327             	1303            	1268            	7.3200      	63.0000     	140.0000    	0.0000      	Open  	;
 328             	1268            	1304            	27.4800     	63.0000     	140.0000    	0.0000      	Open  	;
 329             	1304            	1305            	23.7100     	63.0000     	140.0000    	0.0000      	Open  	;
 330             	1234            	1306            	55.8200     	63.0000     	140.0000    	0.0000      	Open  	;
 331             	1306            	1307            	60.2900     	63.0000     	140.0000    	0.0000      	Open  	;
 332             	1307            	1308            	62.8400     	63.0000     	140.0000    	0.0000      	Open  	;
 333             	1308            	1309            	30.1500     	63.0000     	140.0000    	0.0000      	Open  	;
 334             	1298            	1299            	24.9900     	63.0000     	140.0000    	0.0000      	Open  	;
 335             	1309            	1310            	10.3400     	63.0000     	140.0000    	0.0000      	Open  	;
 336             	1287            	1288            	42.8500     	63.0000     	140.0000    	0.0000      	Open  	;
 337             	1282            	1286            	4.5700      	63.0000     	140.0000    	0.0000      	Open  	;
 338             	1261            	1262            	54.8200     	63.0000     	140.0000    	0.0000      	Open  	;
 339             	1262            	1263            	52.0400     	63.0000     	140.0000    	0.0000      	Open  	;
 340             	1263            	1264            	48.6500     	63.0000     	140.0000    	0.0000      	Open  	;
 341             	1264            	1265            	28.1500     	63.0000     	140.0000    	0.0000      	Open  	;
 342             	1260            	1266            	36.2300     	63.0000     	140.0000    	0.0000      	Open  	;
 343             	1266            	1267            	49.0600     	63.0000     	140.0000    	0.0000      	Open  	;
 344             	1267            	1268            	39.2800     	63.0000     	140.0000    	0.0000      	Open  	;
 345             	1224            	1269            	27.0300     	63.0000     	140.0000    	0.0000      	Open  	;
 346             	1269            	1270            	26.9200     	63.0000     	140.0000    	0.0000      	Open  	;
 347             	1270            	1271            	32.6900     	63.0000     	140.0000    	0.0000      	Open  	;
 348             	1271            	1272            	17.7900     	63.0000     	140.0000    	0.0000      	Open  	;
 349             	1286            	1287            	77.5000     	63.0000     	140.0000    	0.0000      	Open  	;
 350             	1272            	1273            	3.5600      	63.0000     	140.0000    	0.0000      	Open  	;
 351             	1274            	1275            	34.3700     	63.0000     	140.0000    	0.0000      	Open  	;
 352             	1275            	1276            	30.0000     	63.0000     	140.0000    	0.0000      	Open  	;
 353             	1276            	1277            	33.1500     	63.0000     	140.0000    	0.0000      	Open  	;
 354             	1277            	1278            	20.2800     	63.0000     	140.0000    	0.0000      	Open  	;
 355             	1270            	1278            	69.7700     	63.0000     	140.0000    	0.0000      	Open  	;
 356             	1279            	1280            	23.9000     	63.0000     	140.0000    	0.0000      	Open  	;
 357             	1280            	1281            	20.4200     	63.0000     	140.0000    	0.0000      	Open  	;
 358             	1281            	1282            	5.8900      	63.0000     	140.0000    	0.0000      	Open  	;
 359             	1281            	1283            	4.5600      	63.0000     	140.0000    	0.0000      	Open  	;
 360             	1283            	1284            	72.2800     	63.0000     	140.0000    	0.0000      	Open  	;
 361             	1284            	1285            	48.1600     	63.0000     	140.0000    	0.0000      	Open  	;
 362             	1273            	1274            	5.5600      	63.0000     	140.0000    	0.0000      	Open  	;
 363             	1310            	1311            	3.7100      	63.0000     	140.0000    	0.0000      	Open  	;
 364             	1311            	1312            	4.4700      	63.0000     	140.0000    	0.0000      	Open  	;
 365             	1312            	1303            	48.4000     	63.0000     	140.0000    	0.0000      	Open  	;
 366             	1338            	1339            	51.0000     	32.0000     	137.0000    	0.0000      	Open  	;
 367             	1339            	1340            	49.3000     	32.0000     	137.0000    	0.0000      	Open  	;
 368             	1340            	1341            	21.1000     	32.0000     	137.0000    	0.0000      	Open  	;
 369             	1340            	1342            	100.0000    	32.0000     	137.0000    	0.0000      	Open  	;
 370             	1339            	1343            	109.0000    	32.0000     	137.0000    	0.0000      	Open  	;
 371             	1338            	1344            	160.6300    	32.0000     	137.0000    	0.0000      	Open  	;
 372             	1344            	1345            	34.6300     	32.0000     	137.0000    	0.0000      	Open  	;
 373             	1336            	1346            	3.4500      	32.0000     	137.0000    	0.0000      	Open  	;
 374             	1346            	1337            	6.5700      	32.0000     	137.0000    	0.0000      	Open  	;
 375             	1446            	1447            	3.0000      	100.0000    	118.0000    	0.0000      	Open  	;
 376             	1447            	1448            	17.8900     	100.0000    	118.0000    	0.0000      	Open  	;
 377             	1337            	1338            	57.0300     	32.0000     	137.0000    	0.0000      	Open  	;
 378             	1448            	1449            	2.5600      	100.0000    	118.0000    	0.0000      	Open  	;
 379             	1458            	1004            	0.3000      	100.0000    	118.0000    	0.0000      	Open  	;
 380             	1449            	1483            	1.5500      	100.0000    	118.0000    	0.0000      	Open  	;
 381             	1483            	1484            	1.2700      	100.0000    	118.0000    	0.0000      	Open  	;
 382             	1334            	1335            	1.2300      	85.0000     	137.0000    	0.0000      	Open  	;
 383             	962             	1612            	83.6700     	50.0000     	137.0000    	0.0000      	Open  	;
 384             	917             	1613            	51.3300     	50.0000     	137.0000    	0.0000      	Open  	;
 385             	1613            	1614            	92.8000     	50.0000     	137.0000    	0.0000      	Open  	;
 386             	1614            	1615            	9.6000      	50.0000     	137.0000    	0.0000      	Open  	;
 387             	1615            	1616            	79.7200     	50.0000     	137.0000    	0.0000      	Open  	;
 388             	1616            	807             	194.8600    	50.0000     	137.0000    	0.0000      	Open  	;
 390             	1434            	1446            	0.9500      	100.0000    	118.0000    	0.0000      	Open  	;
 391             	66              	1336            	13.0700     	60.0000     	137.0000    	0.0000      	Open  	;
 392             	1335            	102             	3.2600      	85.0000     	137.0000    	0.0000      	Open  	;
 393             	1222            	42              	8.6700      	90.0000     	140.0000    	0.0000      	Open  	;
 394             	1235            	1313            	56.5700     	63.0000     	140.0000    	0.0000      	Open  	;
 395             	1313            	1314            	59.0200     	63.0000     	140.0000    	0.0000      	Open  	;
 396             	1314            	1315            	72.8600     	63.0000     	140.0000    	0.0000      	Open  	;
 397             	1315            	1316            	27.9300     	63.0000     	140.0000    	0.0000      	Open  	;
 398             	1316            	1317            	4.0700      	63.0000     	140.0000    	0.0000      	Open  	;
 399             	1317            	1318            	4.1600      	63.0000     	140.0000    	0.0000      	Open  	;
 400             	1265            	1319            	5.3100      	63.0000     	140.0000    	0.0000      	Open  	;
 401             	1319            	1320            	19.8500     	63.0000     	140.0000    	0.0000      	Open  	;
 402             	1320            	1318            	24.9100     	63.0000     	140.0000    	0.0000      	Open  	;
 403             	1255            	1321            	22.9100     	63.0000     	140.0000    	0.0000      	Open  	;
 404             	1321            	1322            	32.7300     	63.0000     	140.0000    	0.0000      	Open  	;
 405             	1322            	1323            	53.6900     	63.0000     	140.0000    	0.0000      	Open  	;
 406             	1323            	1324            	43.2700     	63.0000     	140.0000    	0.0000      	Open  	;
 407             	1324            	1325            	50.9900     	63.0000     	140.0000    	0.0000      	Open  	;
 408             	1325            	1326            	97.4600     	63.0000     	140.0000    	0.0000      	Open  	;
 409             	1326            	1327            	38.4300     	63.0000     	140.0000    	0.0000      	Open  	;
 410             	1327            	1328            	5.7300      	63.0000     	140.0000    	0.0000      	Open  	;
 411             	1328            	1329            	74.0100     	63.0000     	140.0000    	0.0000      	Open  	;
 412             	1329            	1330            	85.6600     	63.0000     	140.0000    	0.0000      	Open  	;
 413             	1330            	1305            	29.8500     	63.0000     	140.0000    	0.0000      	Open  	;
 414             	1305            	1299            	6.0100      	63.0000     	140.0000    	0.0000      	Open  	;
 415             	1299            	1331            	20.7000     	63.0000     	140.0000    	0.0000      	Open  	;
 416             	1331            	1332            	41.8900     	63.0000     	140.0000    	0.0000      	Open  	;
 417             	1332            	1333            	64.8000     	63.0000     	140.0000    	0.0000      	Open  	;
 418             	1333            	1334            	15.5500     	63.0000     	140.0000    	0.0000      	Open  	;
 419             	1244            	1261            	35.2500     	63.0000     	140.0000    	0.0000      	Open  	;
 420             	1158            	1159            	3.4500      	90.0000     	140.0000    	0.0000      	Open  	;
 421             	1259            	1260            	36.4300     	63.0000     	140.0000    	0.0000      	Open  	;
 422             	1257            	1258            	49.2300     	63.0000     	140.0000    	0.0000      	Open  	;
 423             	1185            	1186            	28.8800     	63.0000     	140.0000    	0.0000      	Open  	;
 424             	1186            	1085            	34.8800     	63.0000     	140.0000    	0.0000      	Open  	;
 425             	1089            	1187            	23.4900     	63.0000     	140.0000    	0.0000      	Open  	;
 426             	1187            	1188            	6.8600      	63.0000     	140.0000    	0.0000      	Open  	;
 427             	1164            	1188            	19.0700     	63.0000     	140.0000    	0.0000      	Open  	;
 428             	1148            	1189            	60.8100     	63.0000     	140.0000    	0.0000      	Open  	;
 429             	1189            	1190            	5.7200      	63.0000     	140.0000    	0.0000      	Open  	;
 430             	1190            	1191            	6.0300      	63.0000     	140.0000    	0.0000      	Open  	;
 431             	1191            	1192            	27.1500     	63.0000     	140.0000    	0.0000      	Open  	;
 432             	1192            	1193            	21.9700     	63.0000     	140.0000    	0.0000      	Open  	;
 433             	1193            	1089            	25.1600     	63.0000     	140.0000    	0.0000      	Open  	;
 434             	1151            	1185            	89.8300     	63.0000     	140.0000    	0.0000      	Open  	;
 435             	1090            	1164            	0.8900      	63.0000     	140.0000    	0.0000      	Open  	;
 436             	1178            	1194            	40.0000     	63.0000     	140.0000    	0.0000      	Open  	;
 437             	1156            	1195            	108.8400    	63.0000     	140.0000    	0.0000      	Open  	;
 438             	1176            	1196            	19.3700     	63.0000     	140.0000    	0.0000      	Open  	;
 439             	1173            	1197            	58.2800     	63.0000     	140.0000    	0.0000      	Open  	;
 440             	1172            	1198            	4.4100      	63.0000     	140.0000    	0.0000      	Open  	;
 441             	1170            	1199            	25.9300     	63.0000     	140.0000    	0.0000      	Open  	;
 442             	1181            	1200            	24.3800     	63.0000     	140.0000    	0.0000      	Open  	;
 443             	1201            	1202            	6.0800      	63.0000     	140.0000    	0.0000      	Open  	;
 444             	1202            	1203            	40.5900     	63.0000     	140.0000    	0.0000      	Open  	;
 445             	1203            	1204            	46.7100     	63.0000     	140.0000    	0.0000      	Open  	;
 446             	1204            	1205            	24.7000     	63.0000     	140.0000    	0.0000      	Open  	;
 447             	848             	849             	29.6100     	50.0000     	132.0000    	0.0000      	Open  	;
 448             	1082            	1201            	4.8700      	63.0000     	140.0000    	0.0000      	Open  	;
 449             	1184            	1092            	16.4300     	63.0000     	140.0000    	0.0000      	Open  	;
 450             	1182            	1183            	82.8300     	63.0000     	140.0000    	0.0000      	Open  	;
 451             	1160            	1161            	26.7900     	63.0000     	140.0000    	0.0000      	Open  	;
 452             	1161            	1162            	28.6700     	63.0000     	140.0000    	0.0000      	Open  	;
 453             	1162            	1163            	11.1200     	63.0000     	140.0000    	0.0000      	Open  	;
 454             	1163            	1091            	55.5300     	63.0000     	140.0000    	0.0000      	Open  	;
 455             	1091            	1090            	50.6200     	63.0000     	140.0000    	0.0000      	Open  	;
 456             	1164            	1165            	35.5400     	63.0000     	140.0000    	0.0000      	Open  	;
 457             	1165            	1166            	35.8100     	63.0000     	140.0000    	0.0000      	Open  	;
 458             	1166            	1167            	26.9800     	63.0000     	140.0000    	0.0000      	Open  	;
 459             	1167            	1168            	5.2200      	63.0000     	140.0000    	0.0000      	Open  	;
 460             	1168            	1146            	37.6400     	63.0000     	140.0000    	0.0000      	Open  	;
 461             	1147            	1169            	54.2700     	63.0000     	140.0000    	0.0000      	Open  	;
 462             	1183            	1184            	21.1900     	63.0000     	140.0000    	0.0000      	Open  	;
 463             	1169            	1170            	9.1500      	63.0000     	140.0000    	0.0000      	Open  	;
 464             	1171            	1172            	63.2300     	63.0000     	140.0000    	0.0000      	Open  	;
 465             	1152            	1173            	48.1300     	63.0000     	140.0000    	0.0000      	Open  	;
 466             	1154            	1174            	23.1400     	63.0000     	140.0000    	0.0000      	Open  	;
 467             	1174            	1175            	51.3900     	63.0000     	140.0000    	0.0000      	Open  	;
 468             	1175            	1176            	14.7700     	63.0000     	140.0000    	0.0000      	Open  	;
 469             	1157            	1177            	38.4500     	63.0000     	140.0000    	0.0000      	Open  	;
 470             	1177            	1178            	36.2100     	63.0000     	140.0000    	0.0000      	Open  	;
 471             	1155            	1179            	56.2300     	63.0000     	140.0000    	0.0000      	Open  	;
 472             	1179            	1180            	25.0000     	63.0000     	140.0000    	0.0000      	Open  	;
 473             	1180            	1181            	17.1200     	63.0000     	140.0000    	0.0000      	Open  	;
 474             	1153            	1182            	31.9900     	63.0000     	140.0000    	0.0000      	Open  	;
 475             	1149            	1171            	29.1000     	63.0000     	140.0000    	0.0000      	Open  	;
 476             	1206            	1207            	36.3100     	63.0000     	140.0000    	0.0000      	Open  	;
 477             	1207            	1208            	40.7700     	63.0000     	140.0000    	0.0000      	Open  	;
 478             	1208            	1209            	29.6400     	63.0000     	140.0000    	0.0000      	Open  	;
 479             	1235            	1236            	24.6900     	90.0000     	140.0000    	0.0000      	Open  	;
 480             	1236            	1237            	30.3300     	63.0000     	140.0000    	0.0000      	Open  	;
 481             	1237            	1238            	48.9600     	63.0000     	140.0000    	0.0000      	Open  	;
 482             	1238            	1239            	41.3900     	63.0000     	140.0000    	0.0000      	Open  	;
 483             	1239            	1240            	4.7900      	63.0000     	140.0000    	0.0000      	Open  	;
 484             	1240            	1241            	40.9300     	63.0000     	140.0000    	0.0000      	Open  	;
 485             	1241            	1242            	46.1000     	63.0000     	140.0000    	0.0000      	Open  	;
 486             	1242            	1243            	33.4600     	63.0000     	140.0000    	0.0000      	Open  	;
 487             	1236            	1243            	4.3800      	90.0000     	140.0000    	0.0000      	Open  	;
 488             	1243            	1244            	25.8000     	90.0000     	140.0000    	0.0000      	Open  	;
 489             	1244            	1245            	6.4900      	90.0000     	140.0000    	0.0000      	Open  	;
 490             	1234            	1235            	6.9100      	90.0000     	140.0000    	0.0000      	Open  	;
 491             	1245            	1246            	11.6200     	90.0000     	140.0000    	0.0000      	Open  	;
 492             	1247            	1248            	52.3200     	63.0000     	140.0000    	0.0000      	Open  	;
 493             	1248            	1249            	40.0700     	63.0000     	140.0000    	0.0000      	Open  	;
 494             	1249            	1250            	20.6700     	63.0000     	140.0000    	0.0000      	Open  	;
 495             	1250            	1251            	5.1100      	63.0000     	140.0000    	0.0000      	Open  	;
 496             	1251            	1252            	17.8500     	63.0000     	140.0000    	0.0000      	Open  	;
 497             	1252            	1253            	45.3600     	63.0000     	140.0000    	0.0000      	Open  	;
 498             	1253            	1254            	50.1800     	63.0000     	140.0000    	0.0000      	Open  	;
 499             	1254            	1255            	5.0100      	63.0000     	140.0000    	0.0000      	Open  	;
 500             	1246            	1255            	4.4400      	90.0000     	140.0000    	0.0000      	Open  	;
 501             	1245            	1256            	35.5600     	63.0000     	140.0000    	0.0000      	Open  	;
 502             	1256            	1257            	55.5600     	63.0000     	140.0000    	0.0000      	Open  	;
 503             	1246            	1247            	4.8400      	63.0000     	140.0000    	0.0000      	Open  	;
 504             	1233            	1234            	12.1600     	90.0000     	140.0000    	0.0000      	Open  	;
 505             	1226            	1233            	5.1100      	90.0000     	140.0000    	0.0000      	Open  	;
 506             	1232            	1233            	33.9700     	63.0000     	140.0000    	0.0000      	Open  	;
 507             	1209            	1210            	6.0800      	63.0000     	140.0000    	0.0000      	Open  	;
 508             	1210            	1211            	30.4400     	63.0000     	140.0000    	0.0000      	Open  	;
 509             	1211            	1212            	41.5300     	63.0000     	140.0000    	0.0000      	Open  	;
 510             	1212            	1213            	34.7600     	63.0000     	140.0000    	0.0000      	Open  	;
 511             	1214            	1215            	35.7300     	63.0000     	140.0000    	0.0000      	Open  	;
 512             	1215            	1216            	48.1200     	63.0000     	140.0000    	0.0000      	Open  	;
 513             	1216            	1217            	34.7100     	63.0000     	140.0000    	0.0000      	Open  	;
 514             	1217            	1218            	5.9800      	63.0000     	140.0000    	0.0000      	Open  	;
 515             	1218            	1219            	35.8100     	63.0000     	140.0000    	0.0000      	Open  	;
 516             	1219            	1220            	46.7600     	63.0000     	140.0000    	0.0000      	Open  	;
 517             	1220            	1221            	36.9000     	63.0000     	140.0000    	0.0000      	Open  	;
 518             	1206            	1213            	5.3400      	90.0000     	140.0000    	0.0000      	Open  	;
 519             	1222            	1223            	21.7500     	90.0000     	140.0000    	0.0000      	Open  	;
 520             	1223            	1206            	19.9700     	90.0000     	140.0000    	0.0000      	Open  	;
 521             	1213            	1214            	44.3400     	90.0000     	140.0000    	0.0000      	Open  	;
 522             	1214            	1221            	4.9200      	90.0000     	140.0000    	0.0000      	Open  	;
 523             	1221            	1224            	2.8100      	90.0000     	140.0000    	0.0000      	Open  	;
 524             	1224            	1225            	4.9700      	90.0000     	140.0000    	0.0000      	Open  	;
 525             	1225            	1226            	38.9100     	90.0000     	140.0000    	0.0000      	Open  	;
 526             	1226            	1227            	24.6000     	63.0000     	140.0000    	0.0000      	Open  	;
 527             	1227            	1228            	68.5600     	63.0000     	140.0000    	0.0000      	Open  	;
 528             	1228            	1229            	20.1700     	63.0000     	140.0000    	0.0000      	Open  	;
 529             	1229            	1230            	4.3600      	63.0000     	140.0000    	0.0000      	Open  	;
 530             	1230            	1231            	19.8900     	63.0000     	140.0000    	0.0000      	Open  	;
 531             	1231            	1232            	60.3900     	63.0000     	140.0000    	0.0000      	Open  	;
 532             	1258            	1259            	49.7600     	63.0000     	140.0000    	0.0000      	Open  	;
 533             	1092            	1084            	1.5100      	63.0000     	140.0000    	0.0000      	Open  	;
 535             	1349            	1350            	139.1100    	32.0000     	140.0000    	0.0000      	Open  	;
 536             	1351            	1352            	84.8100     	32.0000     	140.0000    	0.0000      	Open  	;
 537             	381             	1353            	26.0700     	32.0000     	140.0000    	0.0000      	Open  	;
 538             	1353            	1354            	40.3300     	32.0000     	140.0000    	0.0000      	Open  	;
 539             	1354            	1355            	136.7000    	32.0000     	140.0000    	0.0000      	Open  	;
 540             	1356            	1357            	163.0700    	32.0000     	140.0000    	0.0000      	Open  	;
 541             	1357            	49              	57.6800     	32.0000     	140.0000    	0.0000      	Open  	;
 542             	1355            	1356            	47.1900     	32.0000     	140.0000    	0.0000      	Open  	;
 543             	557             	558             	13.5400     	85.0000     	135.0000    	0.0000      	Open  	;
 544             	203             	204             	41.6700     	85.0000     	135.0000    	0.0000      	Open  	;
 545             	101             	205             	17.4800     	60.0000     	135.0000    	0.0000      	Open  	;
 546             	205             	206             	81.6400     	60.0000     	135.0000    	0.0000      	Open  	;
 547             	206             	207             	3.5400      	60.0000     	135.0000    	0.0000      	Open  	;
 548             	208             	209             	35.6500     	85.0000     	135.0000    	0.0000      	Open  	;
 549             	209             	101             	9.3500      	85.0000     	135.0000    	0.0000      	Open  	;
 550             	112             	113             	64.5500     	60.0000     	135.0000    	0.0000      	Open  	;
 551             	210             	211             	6.6900      	32.0000     	137.0000    	0.0000      	Open  	;
 552             	211             	212             	21.2800     	32.0000     	137.0000    	0.0000      	Open  	;
 553             	111             	212             	17.5400     	60.0000     	135.0000    	0.0000      	Open  	;
 554             	117             	213             	9.0100      	32.0000     	137.0000    	0.0000      	Open  	;
 555             	214             	215             	59.9000     	32.0000     	137.0000    	0.0000      	Open  	;
 556             	215             	210             	2.3400      	32.0000     	137.0000    	0.0000      	Open  	;
 557             	202             	203             	9.5000      	85.0000     	135.0000    	0.0000      	Open  	;
 558             	44              	103             	59.7700     	85.0000     	135.0000    	0.0000      	Open  	;
 559             	199             	47              	46.0200     	85.0000     	135.0000    	0.0000      	Open  	;
 560             	200             	201             	38.2300     	85.0000     	135.0000    	0.0000      	Open  	;
 561             	47              	200             	3.3400      	85.0000     	135.0000    	0.0000      	Open  	;
 562             	117             	216             	22.9900     	85.0000     	135.0000    	0.0000      	Open  	;
 563             	198             	199             	6.4700      	85.0000     	135.0000    	0.0000      	Open  	;
 564             	53              	197             	5.5900      	85.0000     	135.0000    	0.0000      	Open  	;
 565             	195             	196             	1.0000      	50.0000     	135.0000    	0.0000      	Open  	;
 566             	196             	193             	8.4000      	60.0000     	135.0000    	0.0000      	Open  	;
 567             	5               	195             	4.1000      	50.0000     	135.0000    	0.0000      	Open  	;
 568             	54              	193             	7.8800      	85.0000     	135.0000    	0.0000      	Open  	;
 569             	194             	12              	161.9100    	85.0000     	135.0000    	0.0000      	Open  	;
 570             	193             	194             	23.8000     	85.0000     	135.0000    	0.0000      	Open  	;
 571             	192             	188             	55.6300     	85.0000     	135.0000    	0.0000      	Open  	;
 572             	192             	190             	34.4500     	85.0000     	135.0000    	0.0000      	Open  	;
 573             	53              	191             	8.9200      	60.0000     	135.0000    	0.0000      	Open  	;
 574             	201             	41              	9.8900      	85.0000     	135.0000    	0.0000      	Open  	;
 575             	180             	217             	345.9200    	60.0000     	135.0000    	0.0000      	Open  	;
 576             	220             	184             	14.8900     	60.0000     	135.0000    	0.0000      	Open  	;
 577             	183             	219             	156.4500    	60.0000     	135.0000    	0.0000      	Open  	;
 578             	253             	245             	0.3900      	110.0000    	135.0000    	0.0000      	Open  	;
 579             	252             	253             	2.3500      	110.0000    	135.0000    	0.0000      	Open  	;
 580             	251             	252             	0.2100      	110.0000    	135.0000    	0.0000      	Open  	;
 581             	250             	251             	0.3200      	110.0000    	135.0000    	0.0000      	Open  	;
 582             	248             	249             	1.0600      	110.0000    	135.0000    	0.0000      	Open  	;
 583             	247             	248             	0.7800      	110.0000    	135.0000    	0.0000      	Open  	;
 584             	246             	149             	1.2100      	110.0000    	135.0000    	0.0000      	Open  	;
 585             	245             	246             	1.2100      	110.0000    	135.0000    	0.0000      	Open  	;
 586             	243             	244             	12.1400     	85.0000     	135.0000    	0.0000      	Open  	;
 587             	242             	243             	21.5800     	85.0000     	135.0000    	0.0000      	Open  	;
 588             	159             	242             	21.2200     	85.0000     	135.0000    	0.0000      	Open  	;
 589             	240             	241             	70.8100     	85.0000     	135.0000    	0.0000      	Open  	;
 590             	238             	239             	14.3200     	110.0000    	135.0000    	0.0000      	Open  	;
 591             	237             	238             	20.7200     	110.0000    	135.0000    	0.0000      	Open  	;
 592             	236             	237             	11.5400     	110.0000    	135.0000    	0.0000      	Open  	;
 593             	235             	236             	11.5400     	110.0000    	135.0000    	0.0000      	Open  	;
 594             	234             	235             	18.9400     	110.0000    	135.0000    	0.0000      	Open  	;
 595             	220             	221             	8.2000      	32.0000     	137.0000    	0.0000      	Open  	;
 596             	221             	222             	35.8000     	32.0000     	137.0000    	0.0000      	Open  	;
 597             	190             	121             	86.4400     	85.0000     	135.0000    	0.0000      	Open  	;
 598             	223             	224             	6.0600      	110.0000    	135.0000    	0.0000      	Open  	;
 599             	224             	225             	19.6900     	110.0000    	135.0000    	0.0000      	Open  	;
 600             	225             	226             	21.2300     	110.0000    	135.0000    	0.0000      	Open  	;
 601             	217             	218             	12.1700     	60.0000     	135.0000    	0.0000      	Open  	;
 602             	226             	227             	21.6800     	110.0000    	135.0000    	0.0000      	Open  	;
 603             	228             	229             	16.5800     	110.0000    	135.0000    	0.0000      	Open  	;
 604             	229             	230             	21.6200     	110.0000    	135.0000    	0.0000      	Open  	;
 605             	230             	231             	21.4900     	110.0000    	135.0000    	0.0000      	Open  	;
 606             	231             	232             	12.5400     	110.0000    	135.0000    	0.0000      	Open  	;
 607             	232             	233             	21.0100     	110.0000    	135.0000    	0.0000      	Open  	;
 608             	233             	234             	19.9200     	110.0000    	135.0000    	0.0000      	Open  	;
 609             	227             	228             	21.8200     	110.0000    	135.0000    	0.0000      	Open  	;
 610             	29              	189             	152.2000    	60.0000     	135.0000    	0.0000      	Open  	;
 611             	184             	185             	57.1600     	60.0000     	135.0000    	0.0000      	Open  	;
 612             	19              	15              	78.5600     	60.0000     	135.0000    	0.0000      	Open  	;
 613             	152             	137             	196.0400    	50.0000     	135.0000    	0.0000      	Open  	;
 614             	139             	152             	37.6800     	50.0000     	135.0000    	0.0000      	Open  	;
 615             	140             	11              	75.1700     	60.0000     	135.0000    	0.0000      	Open  	;
 616             	51              	6               	136.0300    	50.0000     	135.0000    	0.0000      	Open  	;
 617             	140             	4               	159.0000    	50.0000     	135.0000    	0.0000      	Open  	;
 618             	139             	20              	74.0000     	50.0000     	135.0000    	0.0000      	Open  	;
 619             	130             	7               	73.8700     	50.0000     	135.0000    	0.0000      	Open  	;
 620             	130             	151             	73.0000     	50.0000     	135.0000    	0.0000      	Open  	;
 621             	6               	151             	90.6900     	50.0000     	135.0000    	0.0000      	Open  	;
 622             	150             	100             	66.0000     	50.0000     	135.0000    	0.0000      	Open  	;
 623             	148             	149             	0.9900      	110.0000    	135.0000    	0.0000      	Open  	;
 624             	63              	147             	5.8100      	40.0000     	135.0000    	0.0000      	Open  	;
 625             	145             	146             	3.2900      	110.0000    	135.0000    	0.0000      	Open  	;
 626             	144             	145             	5.0500      	110.0000    	135.0000    	0.0000      	Open  	;
 627             	143             	144             	5.2000      	110.0000    	135.0000    	0.0000      	Open  	;
 628             	141             	142             	4.4000      	60.0000     	135.0000    	0.0000      	Open  	;
 629             	51              	140             	69.9000     	60.0000     	135.0000    	0.0000      	Open  	;
 630             	1369            	1370            	20.6600     	110.0000    	135.0000    	0.0000      	Open  	;
 631             	1368            	1369            	21.2200     	110.0000    	135.0000    	0.0000      	Open  	;
 632             	1367            	1368            	21.3700     	110.0000    	135.0000    	0.0000      	Open  	;
 633             	1366            	1367            	9.5200      	110.0000    	135.0000    	0.0000      	Open  	;
 634             	1365            	1366            	6.3500      	110.0000    	135.0000    	0.0000      	Open  	;
 635             	1364            	1365            	8.1700      	110.0000    	135.0000    	0.0000      	Open  	;
 636             	20              	138             	233.0200    	50.0000     	135.0000    	0.0000      	Open  	;
 637             	1363            	1364            	20.0700     	110.0000    	135.0000    	0.0000      	Open  	;
 638             	1361            	1362            	19.5800     	110.0000    	135.0000    	0.0000      	Open  	;
 639             	1360            	1361            	20.2700     	110.0000    	135.0000    	0.0000      	Open  	;
 640             	1358            	1359            	112.4400    	110.0000    	135.0000    	0.0000      	Open  	;
 641             	1348            	1347            	47.5200     	60.0000     	135.0000    	0.0000      	Open  	;
 642             	219             	1348            	3.4800      	60.0000     	135.0000    	0.0000      	Open  	;
 643             	1347            	1124            	51.0000     	60.0000     	135.0000    	0.0000      	Open  	;
 644             	1362            	1363            	20.6600     	110.0000    	135.0000    	0.0000      	Open  	;
 645             	188             	109             	3.4600      	85.0000     	135.0000    	0.0000      	Open  	;
 646             	153             	154             	76.0000     	50.0000     	135.0000    	0.0000      	Open  	;
 647             	155             	156             	230.1300    	60.0000     	135.0000    	0.0000      	Open  	;
 648             	185             	187             	6.0000      	60.0000     	135.0000    	0.0000      	Open  	;
 649             	186             	178             	50.9400     	60.0000     	135.0000    	0.0000      	Open  	;
 650             	254             	255             	2.0300      	110.0000    	135.0000    	0.0000      	Open  	;
 651             	182             	183             	11.5900     	60.0000     	135.0000    	0.0000      	Open  	;
 652             	181             	182             	9.0400      	60.0000     	135.0000    	0.0000      	Open  	;
 653             	179             	180             	28.9000     	60.0000     	135.0000    	0.0000      	Open  	;
 654             	178             	179             	14.0300     	60.0000     	135.0000    	0.0000      	Open  	;
 655             	19              	138             	73.3800     	60.0000     	135.0000    	0.0000      	Open  	;
 656             	21              	26              	73.7400     	60.0000     	135.0000    	0.0000      	Open  	;
 657             	177             	175             	26.4100     	60.0000     	135.0000    	0.0000      	Open  	;
 658             	21              	177             	22.5500     	60.0000     	135.0000    	0.0000      	Open  	;
 659             	175             	176             	4.1000      	60.0000     	135.0000    	0.0000      	Open  	;
 660             	142             	135             	6.8000      	60.0000     	135.0000    	0.0000      	Open  	;
 661             	126             	23              	16.9800     	60.0000     	135.0000    	0.0000      	Open  	;
 662             	9               	174             	14.9700     	60.0000     	135.0000    	0.0000      	Open  	;
 663             	174             	172             	39.0700     	60.0000     	135.0000    	0.0000      	Open  	;
 664             	172             	173             	20.1300     	60.0000     	135.0000    	0.0000      	Open  	;
 665             	157             	158             	11.9300     	60.0000     	135.0000    	0.0000      	Open  	;
 666             	158             	156             	48.5600     	60.0000     	135.0000    	0.0000      	Open  	;
 667             	159             	160             	13.5300     	60.0000     	135.0000    	0.0000      	Open  	;
 668             	160             	157             	230.5300    	60.0000     	135.0000    	0.0000      	Open  	;
 669             	161             	162             	20.7200     	85.0000     	135.0000    	0.0000      	Open  	;
 670             	162             	163             	21.8700     	85.0000     	135.0000    	0.0000      	Open  	;
 671             	91              	153             	41.3400     	50.0000     	135.0000    	0.0000      	Open  	;
 672             	163             	159             	17.6800     	85.0000     	135.0000    	0.0000      	Open  	;
 673             	165             	161             	21.4500     	110.0000    	135.0000    	0.0000      	Open  	;
 674             	166             	167             	8.3100      	110.0000    	135.0000    	0.0000      	Open  	;
 675             	167             	168             	5.9500      	110.0000    	135.0000    	0.0000      	Open  	;
 676             	168             	169             	13.8000     	110.0000    	135.0000    	0.0000      	Open  	;
 677             	169             	170             	13.8000     	110.0000    	135.0000    	0.0000      	Open  	;
 678             	170             	171             	14.3200     	110.0000    	135.0000    	0.0000      	Open  	;
 679             	164             	165             	19.9000     	110.0000    	135.0000    	0.0000      	Open  	;
 680             	1370            	1371            	21.3900     	110.0000    	135.0000    	0.0000      	Open  	;
 681             	256             	254             	2.8000      	110.0000    	135.0000    	0.0000      	Open  	;
 682             	257             	258             	80.9600     	32.0000     	137.0000    	0.0000      	Open  	;
 690             	644             	606             	25.5700     	32.0000     	137.0000    	0.0000      	Open  	;
 717             	114             	213             	8.6100      	60.0000     	135.0000    	0.0000      	Open  	;
 718             	642             	683             	13.5200     	32.0000     	137.0000    	0.0000      	Open  	;
 719             	1124            	1125            	114.9700    	60.0000     	135.0000    	0.0000      	Open  	;
 721             	1121            	1122            	47.1200     	32.0000     	137.0000    	0.0000      	Open  	;
 722             	1120            	1121            	171.6800    	32.0000     	137.0000    	0.0000      	Open  	;
 723             	1119            	93              	0.3500      	110.0000    	135.0000    	0.0000      	Open  	;
 724             	1118            	1119            	0.1800      	110.0000    	135.0000    	0.0000      	Open  	;
 725             	1125            	482             	7.4700      	60.0000     	135.0000    	0.0000      	Open  	;
 726             	1117            	1118            	0.0400      	110.0000    	135.0000    	0.0000      	Open  	;
 727             	1114            	1115            	13.4900     	32.0000     	137.0000    	0.0000      	Open  	;
 728             	1113            	1114            	15.9800     	32.0000     	137.0000    	0.0000      	Open  	;
 729             	1112            	1113            	21.8000     	32.0000     	137.0000    	0.0000      	Open  	;
 730             	1111            	1112            	13.9200     	32.0000     	137.0000    	0.0000      	Open  	;
 731             	1110            	1111            	24.0400     	32.0000     	137.0000    	0.0000      	Open  	;
 732             	1109            	1110            	68.7100     	32.0000     	137.0000    	0.0000      	Open  	;
 733             	1116            	1117            	0.5700      	110.0000    	135.0000    	0.0000      	Open  	;
 735             	555             	571             	10.7900     	110.0000    	135.0000    	0.0000      	Open  	;
 736             	571             	1128            	19.9600     	110.0000    	135.0000    	0.0000      	Open  	;
 737             	625             	115             	13.4200     	32.0000     	137.0000    	0.0000      	Open  	;
 738             	285             	274             	13.0100     	110.0000    	137.0000    	0.0000      	Open  	;
 741             	541             	392             	0.7100      	110.0000    	135.0000    	0.0000      	Closed	;
 742             	1134            	250             	0.8700      	110.0000    	135.0000    	0.0000      	Open  	;
 743             	1132            	1134            	0.1800      	110.0000    	135.0000    	0.0000      	Open  	;
 744             	402             	92              	0.2200      	110.0000    	135.0000    	0.0000      	Open  	;
 745             	1133            	245             	1.0100      	110.0000    	135.0000    	0.0000      	Open  	;
 747             	556             	557             	22.0200     	85.0000     	135.0000    	0.0000      	Open  	;
 748             	392             	1131            	2.7200      	110.0000    	135.0000    	0.0000      	Open  	;
 749             	1130            	1131            	17.3700     	110.0000    	135.0000    	0.0000      	Open  	;
 750             	1129            	1130            	17.4300     	110.0000    	135.0000    	0.0000      	Open  	;
 751             	1128            	1129            	21.7700     	110.0000    	135.0000    	0.0000      	Open  	;
 756             	271             	272             	69.8600     	32.0000     	137.0000    	0.0000      	Open  	;
 757             	272             	273             	3.6200      	32.0000     	137.0000    	0.0000      	Open  	;
 758             	274             	275             	39.8100     	32.0000     	137.0000    	0.0000      	Open  	;
 759             	275             	276             	14.4000     	32.0000     	137.0000    	0.0000      	Open  	;
 760             	276             	277             	41.4200     	32.0000     	137.0000    	0.0000      	Open  	;
 761             	277             	278             	12.7300     	32.0000     	137.0000    	0.0000      	Open  	;
 762             	270             	271             	29.5900     	32.0000     	137.0000    	0.0000      	Open  	;
 763             	279             	280             	107.7500    	32.0000     	137.0000    	0.0000      	Open  	;
 764             	97              	282             	52.3300     	60.0000     	135.0000    	0.0000      	Open  	;
 765             	283             	284             	46.1400     	85.0000     	135.0000    	0.0000      	Open  	;
 766             	281             	283             	28.1500     	85.0000     	135.0000    	0.0000      	Open  	;
 767             	278             	281             	51.3900     	85.0000     	135.0000    	0.0000      	Open  	;
 768             	285             	286             	5.1800      	110.0000    	135.0000    	0.0000      	Open  	;
 769             	286             	287             	19.2900     	110.0000    	135.0000    	0.0000      	Open  	;
 770             	280             	281             	22.5900     	32.0000     	137.0000    	0.0000      	Open  	;
 771             	134             	198             	50.8000     	85.0000     	135.0000    	0.0000      	Open  	;
 772             	269             	202             	35.5100     	32.0000     	137.0000    	0.0000      	Open  	;
 773             	103             	269             	6.5400      	32.0000     	137.0000    	0.0000      	Open  	;
 774             	258             	259             	6.5900      	32.0000     	137.0000    	0.0000      	Open  	;
 775             	41              	260             	135.5200    	32.0000     	137.0000    	0.0000      	Open  	;
 776             	44              	261             	132.3400    	32.0000     	137.0000    	0.0000      	Open  	;
 777             	208             	262             	10.4800     	32.0000     	137.0000    	0.0000      	Open  	;
 778             	262             	263             	82.8900     	32.0000     	137.0000    	0.0000      	Open  	;
 779             	263             	123             	6.8600      	32.0000     	137.0000    	0.0000      	Open  	;
 780             	204             	264             	10.2300     	32.0000     	137.0000    	0.0000      	Open  	;
 781             	264             	265             	84.5000     	32.0000     	137.0000    	0.0000      	Open  	;
 782             	265             	124             	6.0000      	32.0000     	137.0000    	0.0000      	Open  	;
 783             	266             	267             	6.2900      	60.0000     	135.0000    	0.0000      	Open  	;
 784             	267             	268             	80.7100     	60.0000     	135.0000    	0.0000      	Open  	;
 785             	268             	202             	12.8700     	60.0000     	135.0000    	0.0000      	Open  	;
 786             	124             	266             	53.4800     	60.0000     	135.0000    	0.0000      	Open  	;
 787             	207             	123             	45.1600     	60.0000     	135.0000    	0.0000      	Open  	;
 788             	204             	208             	52.5400     	85.0000     	135.0000    	0.0000      	Open  	;
 789             	287             	288             	16.0600     	110.0000    	135.0000    	0.0000      	Open  	;
 790             	134             	257             	7.0500      	32.0000     	137.0000    	0.0000      	Open  	;
 791             	288             	289             	27.4700     	110.0000    	135.0000    	0.0000      	Open  	;
 792             	291             	292             	25.2700     	110.0000    	135.0000    	0.0000      	Open  	;
 811             	292             	293             	20.8000     	110.0000    	135.0000    	0.0000      	Open  	;
 812             	293             	294             	11.7700     	110.0000    	135.0000    	0.0000      	Open  	;
 813             	294             	295             	16.2100     	110.0000    	135.0000    	0.0000      	Open  	;
 814             	178             	296             	28.0800     	60.0000     	135.0000    	0.0000      	Open  	;
 815             	296             	181             	29.8000     	60.0000     	135.0000    	0.0000      	Open  	;
 826             	289             	290             	8.9700      	110.0000    	135.0000    	0.0000      	Open  	;
 827             	1371            	1372            	19.4300     	110.0000    	135.0000    	0.0000      	Open  	;
 828             	1372            	1373            	19.8400     	110.0000    	135.0000    	0.0000      	Open  	;
 829             	1373            	1374            	21.3400     	110.0000    	135.0000    	0.0000      	Open  	;
 830             	1574            	1575            	2.3700      	110.0000    	135.0000    	0.0000      	Open  	;
 831             	1573            	1574            	2.3500      	110.0000    	135.0000    	0.0000      	Open  	;
 832             	1572            	1573            	2.5500      	110.0000    	135.0000    	0.0000      	Open  	;
 833             	1571            	1572            	2.5400      	110.0000    	135.0000    	0.0000      	Open  	;
 834             	1570            	1571            	3.7300      	110.0000    	135.0000    	0.0000      	Open  	;
 835             	1568            	1569            	26.9400     	110.0000    	135.0000    	0.0000      	Open  	;
 836             	1575            	1576            	2.7400      	110.0000    	135.0000    	0.0000      	Open  	;
 837             	1566            	386             	0.8200      	85.0000     	135.0000    	0.0000      	Open  	;
 838             	1565            	1566            	4.8500      	85.0000     	135.0000    	0.0000      	Open  	;
 839             	1564            	1565            	2.2000      	85.0000     	135.0000    	0.0000      	Open  	;
 840             	1563            	1411            	7.5200      	110.0000    	135.0000    	0.0000      	Open  	;
 841             	1562            	1563            	0.0200      	110.0000    	135.0000    	0.0000      	Open  	;
 842             	1498            	1562            	2.4100      	110.0000    	135.0000    	0.0000      	Open  	;
 843             	59              	60              	14.8400     	32.0000     	137.0000    	0.0000      	Open  	;
 844             	1499            	1567            	1.4100      	110.0000    	135.0000    	0.0000      	Open  	;
 845             	61              	62              	30.2500     	85.0000     	135.0000    	0.0000      	Open  	;
 846             	1576            	1577            	2.7400      	110.0000    	135.0000    	0.0000      	Open  	;
 847             	1578            	1579            	6.2000      	110.0000    	135.0000    	0.0000      	Open  	;
 848             	1593            	1594            	26.6200     	110.0000    	135.0000    	0.0000      	Open  	;
 849             	1592            	1593            	28.4000     	110.0000    	135.0000    	0.0000      	Open  	;
 850             	1591            	1592            	26.8500     	110.0000    	135.0000    	0.0000      	Open  	;
 851             	1590            	1591            	11.4900     	110.0000    	135.0000    	0.0000      	Open  	;
 852             	1589            	1590            	11.4900     	110.0000    	135.0000    	0.0000      	Open  	;
 853             	1588            	1589            	16.5600     	110.0000    	135.0000    	0.0000      	Open  	;
 854             	1577            	1578            	6.2000      	110.0000    	135.0000    	0.0000      	Open  	;
 855             	1586            	1587            	4.4600      	110.0000    	135.0000    	0.0000      	Open  	;
 856             	1584            	1585            	5.6500      	110.0000    	135.0000    	0.0000      	Open  	;
 857             	1583            	1584            	5.6400      	110.0000    	135.0000    	0.0000      	Open  	;
 858             	1582            	1583            	18.5000     	110.0000    	135.0000    	0.0000      	Open  	;
 859             	1581            	1582            	19.6100     	110.0000    	135.0000    	0.0000      	Open  	;
 860             	1580            	1581            	18.9200     	110.0000    	135.0000    	0.0000      	Open  	;
 861             	1579            	1580            	22.6500     	110.0000    	135.0000    	0.0000      	Open  	;
 862             	1585            	1586            	21.9500     	110.0000    	135.0000    	0.0000      	Open  	;
 863             	63              	64              	88.4500     	60.0000     	135.0000    	0.0000      	Open  	;
 864             	1559            	1554            	0.7000      	60.0000     	135.0000    	0.0000      	Open  	;
 865             	1557            	1558            	29.6500     	60.0000     	135.0000    	0.0000      	Open  	;
 866             	1536            	1537            	20.1000     	150.0000    	137.0000    	0.0000      	Open  	;
 867             	1535            	1536            	20.6500     	150.0000    	137.0000    	0.0000      	Open  	;
 868             	1534            	1535            	19.5300     	150.0000    	137.0000    	0.0000      	Open  	;
 869             	1533            	1534            	20.2200     	150.0000    	137.0000    	0.0000      	Open  	;
 870             	1531            	1532            	20.8200     	150.0000    	137.0000    	0.0000      	Open  	;
 871             	1530            	1531            	23.7900     	150.0000    	137.0000    	0.0000      	Open  	;
 872             	1537            	1538            	8.2800      	150.0000    	137.0000    	0.0000      	Open  	;
 873             	1529            	1496            	19.8400     	150.0000    	137.0000    	0.0000      	Open  	;
 874             	1526            	1527            	13.9800     	150.0000    	137.0000    	0.0000      	Open  	;
 875             	1525            	1526            	20.5200     	150.0000    	137.0000    	0.0000      	Open  	;
 876             	1524            	1525            	20.4700     	150.0000    	137.0000    	0.0000      	Open  	;
 877             	1523            	1524            	20.0100     	150.0000    	137.0000    	0.0000      	Open  	;
 878             	1522            	1523            	20.1400     	150.0000    	137.0000    	0.0000      	Open  	;
 879             	1521            	1522            	20.1000     	150.0000    	137.0000    	0.0000      	Open  	;
 880             	1527            	1528            	18.2700     	150.0000    	137.0000    	0.0000      	Open  	;
 881             	1538            	1539            	6.4900      	150.0000    	137.0000    	0.0000      	Open  	;
 882             	1539            	1540            	9.5100      	150.0000    	137.0000    	0.0000      	Open  	;
 883             	1540            	1541            	21.2400     	150.0000    	137.0000    	0.0000      	Open  	;
 884             	1555            	1557            	204.1200    	60.0000     	135.0000    	0.0000      	Open  	;
 886             	1554            	1555            	104.5900    	60.0000     	135.0000    	0.0000      	Open  	;
 887             	1553            	1502            	1.0900      	150.0000    	137.0000    	0.0000      	Open  	;
 888             	1552            	1553            	49.6300     	150.0000    	137.0000    	0.0000      	Open  	;
 889             	1550            	1551            	1.1900      	150.0000    	137.0000    	0.0000      	Open  	;
 890             	1549            	1550            	21.9300     	150.0000    	137.0000    	0.0000      	Open  	;
 891             	1548            	1549            	20.1000     	150.0000    	137.0000    	0.0000      	Open  	;
 892             	1547            	1548            	19.4000     	150.0000    	137.0000    	0.0000      	Open  	;
 893             	1546            	1547            	21.3100     	150.0000    	137.0000    	0.0000      	Open  	;
 894             	1545            	1546            	19.8300     	150.0000    	137.0000    	0.0000      	Open  	;
 895             	1544            	1545            	19.4300     	150.0000    	137.0000    	0.0000      	Open  	;
 896             	1543            	1544            	21.3900     	150.0000    	137.0000    	0.0000      	Open  	;
 897             	1542            	1543            	20.6800     	150.0000    	137.0000    	0.0000      	Open  	;
 898             	1541            	1542            	21.1800     	150.0000    	137.0000    	0.0000      	Open  	;
 899             	1594            	1568            	21.6000     	110.0000    	135.0000    	0.0000      	Open  	;
 900             	1569            	1570            	15.2700     	110.0000    	135.0000    	0.0000      	Open  	;
 901             	1595            	1596            	5.9700      	110.0000    	135.0000    	0.0000      	Open  	;
 902             	1596            	1588            	2.3300      	110.0000    	135.0000    	0.0000      	Open  	;
 903             	24              	25              	78.4700     	50.0000     	135.0000    	0.0000      	Open  	;
 904             	25              	26              	153.5100    	50.0000     	135.0000    	0.0000      	Open  	;
 905             	15              	29              	6.4600      	60.0000     	135.0000    	0.0000      	Open  	;
 909             	22              	23              	91.5400     	50.0000     	135.0000    	0.0000      	Open  	;
 916             	1483            	1358            	0.0500      	32.0000     	135.0000    	0.0000      	Open  	;
 918             	21              	22              	140.1500    	50.0000     	135.0000    	0.0000      	Open  	;
 919             	20              	18              	71.1500     	50.0000     	135.0000    	0.0000      	Open  	;
 920             	19              	18              	209.0500    	50.0000     	135.0000    	0.0000      	Open  	;
 921             	146             	1683            	2.2600      	110.0000    	135.0000    	0.0000      	Open  	;
 922             	1682            	397             	2.0900      	110.0000    	135.0000    	0.0000      	Open  	;
 923             	249             	1682            	2.6900      	110.0000    	135.0000    	0.0000      	Open  	;
 924             	2               	3               	1.5000      	60.0000     	135.0000    	0.0000      	Open  	;
 925             	4               	5               	77.5900     	50.0000     	135.0000    	0.0000      	Open  	;
 926             	6               	4               	73.1400     	50.0000     	135.0000    	0.0000      	Open  	;
 927             	7               	3               	22.5100     	50.0000     	135.0000    	0.0000      	Open  	;
 928             	8               	1               	35.5000     	50.0000     	135.0000    	0.0000      	Open  	;
 929             	9               	10              	328.2100    	60.0000     	135.0000    	0.0000      	Open  	;
 930             	11              	12              	8.3800      	60.0000     	135.0000    	0.0000      	Open  	;
 931             	12              	13              	21.3900     	60.0000     	135.0000    	0.0000      	Open  	;
 932             	13              	14              	27.6400     	60.0000     	135.0000    	0.0000      	Open  	;
 933             	15              	16              	144.7200    	50.0000     	135.0000    	0.0000      	Open  	;
 934             	16              	17              	38.2000     	50.0000     	135.0000    	0.0000      	Open  	;
 935             	18              	17              	65.0000     	50.0000     	135.0000    	0.0000      	Open  	;
 936             	1478            	1617            	0.5500      	150.0000    	137.0000    	0.0000      	Open  	;
 937             	1520            	1521            	23.1400     	150.0000    	137.0000    	0.0000      	Open  	;
 938             	41              	42              	12.4500     	85.0000     	135.0000    	0.0000      	Open  	;
 939             	1623            	1478            	0.9700      	150.0000    	137.0000    	0.0000      	Open  	;
 940             	1605            	1608            	11.6200     	110.0000    	135.0000    	0.0000      	Open  	;
 941             	1608            	1607            	90.2400     	110.0000    	135.0000    	0.0000      	Open  	;
 942             	1607            	1606            	52.8500     	110.0000    	135.0000    	0.0000      	Open  	;
 943             	1606            	815             	13.2600     	110.0000    	135.0000    	0.0000      	Open  	;
 944             	1604            	1605            	61.4500     	110.0000    	135.0000    	0.0000      	Open  	;
 945             	1603            	1604            	29.5400     	110.0000    	135.0000    	0.0000      	Open  	;
 946             	58              	59              	3.1600      	32.0000     	137.0000    	0.0000      	Open  	;
 947             	1602            	1603            	65.4400     	110.0000    	135.0000    	0.0000      	Open  	;
 948             	1600            	1601            	5.9600      	110.0000    	135.0000    	0.0000      	Open  	;
 949             	1599            	1600            	5.7300      	110.0000    	135.0000    	0.0000      	Open  	;
 950             	1598            	1599            	4.6700      	110.0000    	135.0000    	0.0000      	Open  	;
 951             	1587            	1598            	3.4200      	110.0000    	135.0000    	0.0000      	Open  	;
 952             	1597            	1595            	3.8600      	110.0000    	135.0000    	0.0000      	Open  	;
 953             	1567            	1597            	3.8400      	110.0000    	135.0000    	0.0000      	Open  	;
 954             	1601            	1602            	5.1100      	110.0000    	135.0000    	0.0000      	Open  	;
 955             	56              	57              	1.8400      	110.0000    	135.0000    	0.0000      	Open  	;
 956             	55              	56              	2.1700      	110.0000    	135.0000    	0.0000      	Open  	;
 957             	54              	52              	38.6200     	85.0000     	135.0000    	0.0000      	Open  	;
 958             	1622            	1623            	5.2700      	150.0000    	137.0000    	0.0000      	Open  	;
 959             	1621            	1619            	0.6800      	110.0000    	135.0000    	0.0000      	Open  	;
 960             	1619            	993             	0.6300      	110.0000    	135.0000    	0.0000      	Open  	;
 961             	1620            	1622            	1.1800      	150.0000    	137.0000    	0.0000      	Open  	;
 962             	1025            	1621            	4.8600      	110.0000    	135.0000    	0.0000      	Open  	;
 963             	1484            	1620            	3.4600      	150.0000    	137.0000    	0.0000      	Open  	;
 964             	43              	44              	5.7900      	85.0000     	135.0000    	0.0000      	Open  	;
 965             	1618            	1551            	97.6600     	150.0000    	137.0000    	0.0000      	Open  	;
 966             	1617            	1618            	4.4500      	150.0000    	137.0000    	0.0000      	Open  	;
 967             	1567            	1497            	0.5800      	110.0000    	135.0000    	0.0000      	Open  	;
 968             	45              	46              	56.5300     	85.0000     	135.0000    	0.0000      	Open  	;
 969             	47              	48              	7.6100      	32.0000     	137.0000    	0.0000      	Open  	;
 970             	48              	49              	77.3900     	32.0000     	137.0000    	0.0000      	Open  	;
 971             	50              	51              	74.2400     	60.0000     	135.0000    	0.0000      	Open  	;
 972             	52              	53              	39.5000     	85.0000     	135.0000    	0.0000      	Open  	;
 973             	42              	43              	27.7400     	85.0000     	135.0000    	0.0000      	Open  	;
 974             	1519            	1520            	19.5900     	150.0000    	137.0000    	0.0000      	Open  	;
 975             	1518            	1519            	19.8200     	150.0000    	137.0000    	0.0000      	Open  	;
 976             	1517            	1518            	18.3900     	150.0000    	137.0000    	0.0000      	Open  	;
 979             	1423            	1424            	0.7400      	110.0000    	135.0000    	0.0000      	Open  	;
 980             	1360            	1423            	18.7400     	110.0000    	135.0000    	0.0000      	Open  	;
 981             	1422            	1420            	4.5200      	110.0000    	135.0000    	0.0000      	Open  	;
 982             	1421            	1422            	35.9700     	110.0000    	135.0000    	0.0000      	Open  	;
 985             	1418            	1419            	20.0100     	110.0000    	135.0000    	0.0000      	Open  	;
 986             	1417            	1418            	12.0400     	110.0000    	135.0000    	0.0000      	Open  	;
 987             	1416            	1417            	8.5000      	110.0000    	135.0000    	0.0000      	Open  	;
 988             	1415            	1416            	6.0800      	110.0000    	135.0000    	0.0000      	Open  	;
 989             	1414            	1415            	13.8500     	110.0000    	135.0000    	0.0000      	Open  	;
 990             	1413            	1414            	20.7300     	110.0000    	135.0000    	0.0000      	Open  	;
 991             	1419            	1420            	20.0800     	110.0000    	135.0000    	0.0000      	Open  	;
 995             	131             	106             	25.6200     	85.0000     	135.0000    	0.0000      	Open  	;
 996             	46              	132             	1.2400      	85.0000     	135.0000    	0.0000      	Open  	;
 997             	132             	133             	3.9600      	85.0000     	135.0000    	0.0000      	Open  	;
 998             	133             	134             	36.0900     	85.0000     	135.0000    	0.0000      	Open  	;
 999             	135             	136             	4.5000      	60.0000     	135.0000    	0.0000      	Open  	;
 1000            	137             	138             	76.3400     	60.0000     	135.0000    	0.0000      	Open  	;
 1001            	26              	137             	72.3800     	60.0000     	135.0000    	0.0000      	Open  	;
 1002            	24              	23              	74.0000     	60.0000     	135.0000    	0.0000      	Open  	;
 1003            	24              	139             	73.5900     	60.0000     	135.0000    	0.0000      	Open  	;
 1004            	1008            	1434            	2.5600      	150.0000    	137.0000    	0.0000      	Open  	;
 1010            	1412            	1413            	18.1500     	110.0000    	135.0000    	0.0000      	Open  	;
 1011            	127             	50              	73.3300     	60.0000     	135.0000    	0.0000      	Open  	;
 1012            	1411            	1412            	12.9800     	110.0000    	135.0000    	0.0000      	Open  	;
 1013            	1409            	1410            	23.7900     	110.0000    	135.0000    	0.0000      	Open  	;
 1014            	1386            	1387            	25.7000     	110.0000    	135.0000    	0.0000      	Open  	;
 1015            	1385            	1386            	18.6000     	110.0000    	135.0000    	0.0000      	Open  	;
 1016            	1384            	1385            	22.9600     	110.0000    	135.0000    	0.0000      	Open  	;
 1017            	1383            	1384            	18.5800     	110.0000    	135.0000    	0.0000      	Open  	;
 1018            	1382            	1383            	17.6400     	110.0000    	135.0000    	0.0000      	Open  	;
 1019            	1381            	1382            	26.7900     	110.0000    	135.0000    	0.0000      	Open  	;
 1020            	1387            	1388            	21.8600     	110.0000    	135.0000    	0.0000      	Open  	;
 1021            	1380            	1381            	22.7700     	110.0000    	135.0000    	0.0000      	Open  	;
 1022            	1378            	1379            	25.2800     	110.0000    	135.0000    	0.0000      	Open  	;
 1023            	1377            	1378            	12.9300     	110.0000    	135.0000    	0.0000      	Open  	;
 1024            	1377            	1360            	49.6300     	110.0000    	135.0000    	0.0000      	Open  	;
 1025            	1376            	1359            	21.9200     	110.0000    	135.0000    	0.0000      	Open  	;
 1026            	1375            	1376            	20.0900     	110.0000    	135.0000    	0.0000      	Open  	;
 1027            	1374            	1375            	19.4100     	110.0000    	135.0000    	0.0000      	Open  	;
 1028            	1379            	1380            	23.0900     	110.0000    	135.0000    	0.0000      	Open  	;
 1029            	1388            	1389            	21.5300     	110.0000    	135.0000    	0.0000      	Open  	;
 1030            	1389            	1390            	22.9400     	110.0000    	135.0000    	0.0000      	Open  	;
 1031            	1390            	1391            	23.0000     	110.0000    	135.0000    	0.0000      	Open  	;
 1032            	1407            	1408            	19.8400     	110.0000    	135.0000    	0.0000      	Open  	;
 1033            	1405            	1406            	32.9900     	110.0000    	135.0000    	0.0000      	Open  	;
 1034            	1404            	1405            	305.2500    	110.0000    	135.0000    	0.0000      	Open  	;
 1035            	1403            	1404            	0.4000      	110.0000    	135.0000    	0.0000      	Open  	;
 1036            	1401            	1402            	6.4800      	110.0000    	135.0000    	0.0000      	Open  	;
 1037            	1400            	1401            	13.9300     	110.0000    	135.0000    	0.0000      	Open  	;
 1038            	1399            	1400            	20.6000     	110.0000    	135.0000    	0.0000      	Open  	;
 1039            	1398            	1399            	20.5600     	110.0000    	135.0000    	0.0000      	Open  	;
 1040            	1397            	1398            	20.0500     	110.0000    	135.0000    	0.0000      	Open  	;
 1041            	1396            	1397            	20.1200     	110.0000    	135.0000    	0.0000      	Open  	;
 1042            	1395            	1396            	20.0800     	110.0000    	135.0000    	0.0000      	Open  	;
 1043            	1394            	1395            	23.1500     	110.0000    	135.0000    	0.0000      	Open  	;
 1044            	1393            	1394            	19.6000     	110.0000    	135.0000    	0.0000      	Open  	;
 1045            	1392            	1393            	19.8200     	110.0000    	135.0000    	0.0000      	Open  	;
 1046            	1391            	1392            	18.3800     	110.0000    	135.0000    	0.0000      	Open  	;
 1047            	1410            	1407            	20.8300     	110.0000    	135.0000    	0.0000      	Open  	;
 1048            	372             	1109            	10.8800     	32.0000     	137.0000    	0.0000      	Open  	;
 1049            	129             	130             	45.4700     	50.0000     	135.0000    	0.0000      	Open  	;
 1050            	50              	128             	47.9000     	50.0000     	135.0000    	0.0000      	Open  	;
 1051            	1403            	1493            	0.7000      	110.0000    	135.0000    	0.0000      	Open  	;
 1052            	1495            	1496            	18.6400     	150.0000    	137.0000    	0.0000      	Open  	;
 1053            	1494            	1495            	19.3800     	150.0000    	137.0000    	0.0000      	Open  	;
 1054            	1492            	1408            	18.6900     	110.0000    	135.0000    	0.0000      	Open  	;
 1055            	1491            	1492            	13.5000     	110.0000    	135.0000    	0.0000      	Open  	;
 1056            	187             	186             	0.8000      	60.0000     	135.0000    	0.0000      	Open  	;
 1057            	1497            	1498            	31.0200     	110.0000    	135.0000    	0.0000      	Open  	;
 1058            	1402            	1409            	11.7200     	110.0000    	135.0000    	0.0000      	Open  	;
 1066            	1499            	1500            	305.2300    	150.0000    	137.0000    	0.0000      	Open  	;
 1067            	1500            	1501            	0.4000      	150.0000    	137.0000    	0.0000      	Open  	;
 1068            	1501            	1494            	0.7000      	150.0000    	137.0000    	0.0000      	Open  	;
 1069            	1516            	1517            	22.9900     	150.0000    	137.0000    	0.0000      	Open  	;
 1070            	1515            	1516            	22.9300     	150.0000    	137.0000    	0.0000      	Open  	;
 1071            	1514            	1515            	21.5400     	150.0000    	137.0000    	0.0000      	Open  	;
 1072            	1513            	1514            	21.8600     	150.0000    	137.0000    	0.0000      	Open  	;
 1073            	1512            	1513            	25.6800     	150.0000    	137.0000    	0.0000      	Open  	;
 1074            	1511            	1512            	18.6200     	150.0000    	137.0000    	0.0000      	Open  	;
 1075            	1510            	1511            	22.9800     	150.0000    	137.0000    	0.0000      	Open  	;
 1076            	1509            	1510            	18.5900     	150.0000    	137.0000    	0.0000      	Open  	;
 1077            	1508            	1509            	17.6100     	150.0000    	137.0000    	0.0000      	Open  	;
 1078            	1507            	1508            	26.7500     	150.0000    	137.0000    	0.0000      	Open  	;
 1079            	1506            	1507            	22.7800     	150.0000    	137.0000    	0.0000      	Open  	;
 1080            	1505            	1506            	23.0600     	150.0000    	137.0000    	0.0000      	Open  	;
 1081            	1504            	1505            	25.2500     	150.0000    	137.0000    	0.0000      	Open  	;
 1082            	1503            	1504            	12.9300     	150.0000    	137.0000    	0.0000      	Open  	;
 1083            	1502            	1503            	1.0900      	150.0000    	137.0000    	0.0000      	Open  	;
 1085            	128             	129             	132.9300    	50.0000     	135.0000    	0.0000      	Open  	;
 1088            	111             	112             	50.6800     	60.0000     	135.0000    	0.0000      	Open  	;
 1089            	113             	114             	55.9300     	60.0000     	135.0000    	0.0000      	Open  	;
 1090            	115             	116             	13.5000     	85.0000     	135.0000    	0.0000      	Open  	;
 1091            	116             	117             	22.4900     	85.0000     	135.0000    	0.0000      	Open  	;
 1092            	1009            	1460            	0.3000      	100.0000    	97.0000     	0.0000      	Open  	;
 1093            	1459            	1007            	0.3000      	100.0000    	97.0000     	0.0000      	Open  	;
 1094            	109             	110             	13.4900     	85.0000     	135.0000    	0.0000      	Open  	;
 1098            	121             	122             	35.6700     	85.0000     	135.0000    	0.0000      	Open  	;
 1099            	123             	124             	51.2800     	60.0000     	135.0000    	0.0000      	Open  	;
 1100            	125             	126             	31.0000     	50.0000     	135.0000    	0.0000      	Open  	;
 1101            	127             	7               	226.3000    	50.0000     	135.0000    	0.0000      	Open  	;
 1105            	1434            	1466            	0.5000      	200.0000    	137.0000    	0.0000      	Open  	;
 1110            	14              	91              	71.6000     	50.0000     	135.0000    	0.0000      	Open  	;
 1111            	92              	93              	2.2900      	110.0000    	135.0000    	0.0000      	Open  	;
 1112            	96              	97              	35.5800     	60.0000     	135.0000    	0.0000      	Open  	;
 1113            	98              	99              	26.6500     	50.0000     	135.0000    	0.0000      	Open  	;
 1114            	99              	100             	84.6400     	50.0000     	135.0000    	0.0000      	Open  	;
 1115            	101             	102             	32.7200     	85.0000     	135.0000    	0.0000      	Open  	;
 1116            	103             	104             	6.6800      	60.0000     	135.0000    	0.0000      	Open  	;
 1117            	104             	105             	0.5300      	60.0000     	135.0000    	0.0000      	Open  	;
 1118            	106             	45              	0.5000      	85.0000     	135.0000    	0.0000      	Open  	;
 1119            	107             	108             	100.3700    	60.0000     	135.0000    	0.0000      	Open  	;
 1120            	108             	45              	9.7500      	60.0000     	135.0000    	0.0000      	Open  	;
 1122            	637             	612             	22.4100     	32.0000     	137.0000    	0.0000      	Open  	;
 1123            	255             	1132            	2.0300      	110.0000    	135.0000    	0.0000      	Open  	;
 1124            	636             	1108            	22.7000     	32.0000     	137.0000    	0.0000      	Open  	;
 1125            	746             	747             	19.5500     	50.0000     	135.0000    	0.0000      	Open  	;
 1126            	735             	748             	20.8600     	50.0000     	135.0000    	0.0000      	Open  	;
 1127            	748             	749             	21.7000     	50.0000     	135.0000    	0.0000      	Open  	;
 1128            	749             	750             	19.6900     	50.0000     	135.0000    	0.0000      	Open  	;
 1129            	750             	751             	22.5100     	50.0000     	135.0000    	0.0000      	Open  	;
 1130            	751             	752             	21.9600     	50.0000     	135.0000    	0.0000      	Open  	;
 1131            	752             	753             	20.3700     	50.0000     	135.0000    	0.0000      	Open  	;
 1132            	753             	754             	19.3200     	50.0000     	135.0000    	0.0000      	Open  	;
 1133            	740             	755             	17.9000     	50.0000     	135.0000    	0.0000      	Open  	;
 1134            	755             	756             	20.5300     	50.0000     	135.0000    	0.0000      	Open  	;
 1135            	756             	757             	20.9400     	50.0000     	135.0000    	0.0000      	Open  	;
 1136            	757             	758             	16.9300     	50.0000     	135.0000    	0.0000      	Open  	;
 1137            	758             	759             	21.9300     	50.0000     	135.0000    	0.0000      	Open  	;
 1138            	759             	760             	21.3700     	50.0000     	135.0000    	0.0000      	Open  	;
 1139            	745             	746             	21.4200     	50.0000     	135.0000    	0.0000      	Open  	;
 1140            	760             	761             	20.3900     	50.0000     	135.0000    	0.0000      	Open  	;
 1141            	763             	764             	1.7400      	50.0000     	135.0000    	0.0000      	Open  	;
 1142            	764             	765             	2.3300      	50.0000     	135.0000    	0.0000      	Open  	;
 1143            	722             	766             	20.2400     	50.0000     	135.0000    	0.0000      	Open  	;
 1144            	766             	767             	12.0900     	50.0000     	135.0000    	0.0000      	Open  	;
 1145            	767             	765             	8.7400      	50.0000     	135.0000    	0.0000      	Open  	;
 1146            	765             	768             	21.9500     	50.0000     	135.0000    	0.0000      	Open  	;
 1147            	768             	769             	0.5400      	50.0000     	135.0000    	0.0000      	Open  	;
 1148            	769             	770             	21.5900     	50.0000     	135.0000    	0.0000      	Open  	;
 1149            	770             	771             	20.2000     	50.0000     	135.0000    	0.0000      	Open  	;
 1150            	771             	772             	10.6400     	50.0000     	135.0000    	0.0000      	Open  	;
 1151            	772             	773             	5.2000      	50.0000     	135.0000    	0.0000      	Open  	;
 1152            	773             	774             	9.0900      	50.0000     	135.0000    	0.0000      	Open  	;
 1153            	754             	775             	15.8700     	50.0000     	135.0000    	0.0000      	Open  	;
 1154            	775             	776             	11.9900     	50.0000     	135.0000    	0.0000      	Open  	;
 1155            	762             	763             	6.1200      	50.0000     	135.0000    	0.0000      	Open  	;
 1156            	776             	777             	6.1500      	50.0000     	135.0000    	0.0000      	Open  	;
 1157            	744             	745             	20.8600     	50.0000     	135.0000    	0.0000      	Open  	;
 1158            	742             	743             	19.6200     	50.0000     	135.0000    	0.0000      	Open  	;
 1159            	564             	574             	1.9800      	110.0000    	135.0000    	0.0000      	Open  	;
 1160            	574             	562             	1.9800      	110.0000    	135.0000    	0.0000      	Open  	;
 1161            	563             	719             	1.9800      	110.0000    	135.0000    	0.0000      	Open  	;
 1162            	719             	559             	1.9800      	110.0000    	135.0000    	0.0000      	Open  	;
 1163            	561             	587             	1.9800      	110.0000    	135.0000    	0.0000      	Open  	;
 1164            	587             	553             	1.9800      	110.0000    	135.0000    	0.0000      	Open  	;
 1165            	151             	150             	0.2700      	50.0000     	135.0000    	0.0000      	Open  	;
 1166            	492             	720             	7.5400      	60.0000     	135.0000    	0.0000      	Open  	;
 1167            	554             	555             	106.5400    	110.0000    	135.0000    	0.0000      	Open  	;
 1168            	722             	723             	20.0900     	50.0000     	135.0000    	0.0000      	Open  	;
 1169            	723             	724             	19.7200     	50.0000     	135.0000    	0.0000      	Open  	;
 1170            	724             	725             	5.8800      	50.0000     	135.0000    	0.0000      	Open  	;
 1171            	725             	726             	2.3200      	50.0000     	135.0000    	0.0000      	Open  	;
 1172            	726             	727             	20.3900     	50.0000     	135.0000    	0.0000      	Open  	;
 1173            	736             	744             	21.2800     	50.0000     	135.0000    	0.0000      	Open  	;
 1174            	727             	728             	20.6000     	50.0000     	135.0000    	0.0000      	Open  	;
 1175            	729             	730             	14.4200     	50.0000     	135.0000    	0.0000      	Open  	;
 1176            	730             	731             	20.2200     	50.0000     	135.0000    	0.0000      	Open  	;
 1177            	731             	732             	6.2300      	100.0000    	97.0000     	0.0000      	Open  	;
 1178            	732             	733             	1.7900      	100.0000    	97.0000     	0.0000      	Open  	;
 1179            	733             	410             	2.4900      	100.0000    	97.0000     	0.0000      	Open  	;
 1180            	731             	734             	17.4400     	50.0000     	135.0000    	0.0000      	Open  	;
 1181            	734             	735             	19.8800     	50.0000     	135.0000    	0.0000      	Open  	;
 1182            	735             	736             	7.5300      	50.0000     	135.0000    	0.0000      	Open  	;
 1183            	736             	737             	4.6300      	50.0000     	135.0000    	0.0000      	Open  	;
 1184            	737             	738             	20.7400     	50.0000     	135.0000    	0.0000      	Open  	;
 1185            	738             	739             	19.1100     	50.0000     	135.0000    	0.0000      	Open  	;
 1186            	739             	740             	20.1500     	50.0000     	135.0000    	0.0000      	Open  	;
 1187            	740             	741             	9.2500      	50.0000     	135.0000    	0.0000      	Open  	;
 1188            	741             	742             	20.0600     	50.0000     	135.0000    	0.0000      	Open  	;
 1189            	728             	729             	22.7200     	50.0000     	135.0000    	0.0000      	Open  	;
 1190            	777             	778             	10.4000     	50.0000     	135.0000    	0.0000      	Open  	;
 1191            	778             	779             	19.9100     	50.0000     	135.0000    	0.0000      	Open  	;
 1192            	779             	780             	20.1000     	50.0000     	135.0000    	0.0000      	Open  	;
 1193            	812             	813             	20.4800     	50.0000     	135.0000    	0.0000      	Open  	;
 1194            	813             	814             	20.8600     	50.0000     	135.0000    	0.0000      	Open  	;
 1195            	814             	815             	2.1000      	50.0000     	135.0000    	0.0000      	Open  	;
 1196            	815             	816             	18.0300     	50.0000     	135.0000    	0.0000      	Open  	;
 1197            	816             	817             	21.4000     	50.0000     	135.0000    	0.0000      	Open  	;
 1198            	817             	818             	4.9200      	50.0000     	135.0000    	0.0000      	Open  	;
 1199            	818             	819             	4.2900      	50.0000     	135.0000    	0.0000      	Open  	;
 1200            	819             	820             	5.7300      	50.0000     	135.0000    	0.0000      	Open  	;
 1201            	820             	821             	4.7900      	50.0000     	135.0000    	0.0000      	Open  	;
 1202            	821             	822             	8.4400      	50.0000     	135.0000    	0.0000      	Open  	;
 1203            	743             	823             	21.5000     	50.0000     	135.0000    	0.0000      	Open  	;
 1204            	823             	824             	19.3500     	50.0000     	135.0000    	0.0000      	Open  	;
 1205            	824             	825             	21.8400     	50.0000     	135.0000    	0.0000      	Open  	;
 1206            	825             	826             	18.2500     	50.0000     	135.0000    	0.0000      	Open  	;
 1207            	811             	812             	20.8800     	50.0000     	135.0000    	0.0000      	Open  	;
 1208            	826             	827             	20.5200     	50.0000     	135.0000    	0.0000      	Open  	;
 1209            	828             	829             	20.4700     	50.0000     	135.0000    	0.0000      	Open  	;
 1210            	829             	830             	25.0400     	50.0000     	135.0000    	0.0000      	Open  	;
 1211            	830             	831             	19.8900     	50.0000     	135.0000    	0.0000      	Open  	;
 1212            	831             	832             	20.0900     	50.0000     	135.0000    	0.0000      	Open  	;
 1213            	832             	833             	21.5000     	50.0000     	135.0000    	0.0000      	Open  	;
 1214            	833             	834             	20.1500     	50.0000     	135.0000    	0.0000      	Open  	;
 1215            	834             	835             	17.0700     	50.0000     	135.0000    	0.0000      	Open  	;
 1216            	835             	836             	8.2600      	50.0000     	135.0000    	0.0000      	Open  	;
 1217            	836             	837             	7.2200      	50.0000     	135.0000    	0.0000      	Open  	;
 1218            	837             	838             	4.3800      	50.0000     	135.0000    	0.0000      	Open  	;
 1219            	838             	839             	4.8800      	50.0000     	135.0000    	0.0000      	Open  	;
 1220            	839             	840             	20.0800     	50.0000     	135.0000    	0.0000      	Open  	;
 1221            	840             	841             	19.0900     	50.0000     	135.0000    	0.0000      	Open  	;
 1222            	841             	842             	19.0600     	50.0000     	135.0000    	0.0000      	Open  	;
 1223            	827             	828             	20.9600     	50.0000     	135.0000    	0.0000      	Open  	;
 1224            	747             	811             	24.0100     	50.0000     	135.0000    	0.0000      	Open  	;
 1225            	809             	810             	9.9300      	50.0000     	135.0000    	0.0000      	Open  	;
 1226            	808             	809             	4.4900      	50.0000     	135.0000    	0.0000      	Open  	;
 1227            	780             	781             	22.8500     	50.0000     	135.0000    	0.0000      	Open  	;
 1228            	781             	782             	21.8000     	50.0000     	135.0000    	0.0000      	Open  	;
 1229            	782             	761             	20.5800     	50.0000     	135.0000    	0.0000      	Open  	;
 1230            	768             	783             	7.2700      	50.0000     	135.0000    	0.0000      	Open  	;
 1231            	783             	776             	3.5100      	50.0000     	135.0000    	0.0000      	Open  	;
 1232            	781             	784             	18.2700     	50.0000     	135.0000    	0.0000      	Open  	;
 1233            	784             	785             	21.7100     	50.0000     	135.0000    	0.0000      	Open  	;
 1234            	785             	786             	17.3100     	50.0000     	135.0000    	0.0000      	Open  	;
 1235            	786             	787             	12.9300     	50.0000     	135.0000    	0.0000      	Open  	;
 1236            	787             	788             	11.3300     	50.0000     	135.0000    	0.0000      	Open  	;
 1237            	788             	789             	11.3300     	50.0000     	135.0000    	0.0000      	Open  	;
 1238            	789             	790             	19.5500     	50.0000     	135.0000    	0.0000      	Open  	;
 1239            	790             	791             	21.1600     	50.0000     	135.0000    	0.0000      	Open  	;
 1240            	791             	792             	22.0000     	50.0000     	135.0000    	0.0000      	Open  	;
 1241            	792             	793             	19.8700     	50.0000     	135.0000    	0.0000      	Open  	;
 1242            	793             	794             	20.7900     	50.0000     	135.0000    	0.0000      	Open  	;
 1243            	794             	795             	19.9100     	50.0000     	135.0000    	0.0000      	Open  	;
 1244            	801             	808             	11.3000     	50.0000     	135.0000    	0.0000      	Open  	;
 1245            	806             	807             	8.1200      	50.0000     	135.0000    	0.0000      	Open  	;
 1246            	801             	806             	0.2100      	50.0000     	135.0000    	0.0000      	Open  	;
 1247            	805             	741             	16.2000     	50.0000     	135.0000    	0.0000      	Open  	;
 1248            	804             	805             	17.0800     	50.0000     	135.0000    	0.0000      	Open  	;
 1249            	803             	804             	12.4600     	50.0000     	135.0000    	0.0000      	Open  	;
 1250            	718             	598             	4.3200      	110.0000    	135.0000    	0.0000      	Open  	;
 1251            	802             	803             	5.0300      	50.0000     	135.0000    	0.0000      	Open  	;
 1252            	800             	801             	16.1600     	50.0000     	135.0000    	0.0000      	Open  	;
 1253            	1108            	279             	0.1000      	32.0000     	137.0000    	0.0000      	Open  	;
 1254            	798             	799             	2.2300      	50.0000     	135.0000    	0.0000      	Open  	;
 1255            	797             	798             	3.9600      	50.0000     	135.0000    	0.0000      	Open  	;
 1256            	796             	797             	1.8200      	50.0000     	135.0000    	0.0000      	Open  	;
 1257            	795             	796             	19.9700     	50.0000     	135.0000    	0.0000      	Open  	;
 1258            	801             	802             	20.9400     	50.0000     	135.0000    	0.0000      	Open  	;
 1259            	842             	843             	20.6800     	50.0000     	135.0000    	0.0000      	Open  	;
 1260            	717             	718             	42.1100     	110.0000    	135.0000    	0.0000      	Open  	;
 1261            	715             	716             	2.5200      	110.0000    	135.0000    	0.0000      	Open  	;
 1262            	594             	595             	16.9900     	85.0000     	135.0000    	0.0000      	Open  	;
 1263            	244             	596             	20.8900     	85.0000     	135.0000    	0.0000      	Open  	;
 1264            	596             	597             	20.7200     	85.0000     	135.0000    	0.0000      	Open  	;
 1265            	597             	592             	18.9800     	85.0000     	135.0000    	0.0000      	Open  	;
 1266            	598             	599             	13.0200     	85.0000     	135.0000    	0.0000      	Open  	;
 1267            	599             	600             	28.2700     	85.0000     	135.0000    	0.0000      	Open  	;
 1268            	600             	589             	19.8300     	85.0000     	135.0000    	0.0000      	Open  	;
 1269            	601             	602             	12.9500     	32.0000     	137.0000    	0.0000      	Open  	;
 1270            	602             	603             	111.5600    	32.0000     	137.0000    	0.0000      	Open  	;
 1271            	604             	605             	29.9600     	32.0000     	137.0000    	0.0000      	Open  	;
 1272            	605             	603             	27.8400     	32.0000     	137.0000    	0.0000      	Open  	;
 1273            	606             	607             	88.2800     	32.0000     	137.0000    	0.0000      	Open  	;
 1274            	607             	604             	5.6300      	32.0000     	137.0000    	0.0000      	Open  	;
 1275            	608             	609             	77.7600     	32.0000     	137.0000    	0.0000      	Open  	;
 1276            	593             	594             	20.3500     	85.0000     	135.0000    	0.0000      	Open  	;
 1277            	609             	610             	11.4900     	32.0000     	137.0000    	0.0000      	Open  	;
 1278            	291             	611             	11.1000     	32.0000     	137.0000    	0.0000      	Open  	;
 1279            	611             	276             	53.0000     	32.0000     	137.0000    	0.0000      	Open  	;
 1280            	612             	613             	0.0300      	32.0000     	137.0000    	0.0000      	Open  	;
 1281            	613             	614             	76.9600     	32.0000     	137.0000    	0.0000      	Open  	;
 1282            	614             	615             	10.1700     	32.0000     	137.0000    	0.0000      	Open  	;
 1283            	615             	616             	34.8400     	32.0000     	137.0000    	0.0000      	Open  	;
 1284            	616             	283             	14.2700     	32.0000     	137.0000    	0.0000      	Open  	;
 1285            	617             	618             	43.8000     	60.0000     	135.0000    	0.0000      	Open  	;
 1286            	619             	617             	1.9300      	60.0000     	135.0000    	0.0000      	Open  	;
 1287            	282             	620             	38.5100     	60.0000     	135.0000    	0.0000      	Open  	;
 1288            	620             	619             	13.0400     	60.0000     	135.0000    	0.0000      	Open  	;
 1289            	621             	622             	77.1800     	32.0000     	137.0000    	0.0000      	Open  	;
 1290            	622             	623             	54.5700     	32.0000     	137.0000    	0.0000      	Open  	;
 1291            	623             	97              	9.2100      	32.0000     	137.0000    	0.0000      	Open  	;
 1292            	273             	610             	54.9500     	32.0000     	137.0000    	0.0000      	Open  	;
 1293            	617             	624             	25.7200     	32.0000     	137.0000    	0.0000      	Open  	;
 1294            	592             	593             	22.4600     	85.0000     	135.0000    	0.0000      	Open  	;
 1295            	589             	590             	63.1800     	85.0000     	135.0000    	0.0000      	Open  	;
 1296            	559             	560             	44.3400     	60.0000     	135.0000    	0.0000      	Open  	;
 1297            	560             	561             	11.4600     	60.0000     	135.0000    	0.0000      	Open  	;
 1298            	562             	563             	161.6300    	60.0000     	135.0000    	0.0000      	Open  	;
 1299            	554             	564             	1.3900      	60.0000     	135.0000    	0.0000      	Open  	;
 1300            	565             	566             	7.6200      	32.0000     	137.0000    	0.0000      	Open  	;
 1301            	566             	567             	102.4500    	32.0000     	137.0000    	0.0000      	Open  	;
 1302            	567             	568             	57.5900     	32.0000     	137.0000    	0.0000      	Open  	;
 1303            	569             	570             	164.1300    	32.0000     	137.0000    	0.0000      	Open  	;
 1304            	570             	571             	6.8200      	32.0000     	137.0000    	0.0000      	Open  	;
 1305            	572             	505             	226.5700    	60.0000     	135.0000    	0.0000      	Open  	;
 1306            	573             	574             	1.3400      	60.0000     	135.0000    	0.0000      	Open  	;
 1307            	574             	575             	39.0800     	60.0000     	135.0000    	0.0000      	Open  	;
 1308            	575             	576             	10.4000     	60.0000     	135.0000    	0.0000      	Open  	;
 1309            	576             	577             	215.9500    	60.0000     	135.0000    	0.0000      	Open  	;
 1310            	590             	591             	22.0800     	85.0000     	135.0000    	0.0000      	Open  	;
 1311            	578             	579             	4.7700      	60.0000     	135.0000    	0.0000      	Open  	;
 1312            	580             	581             	37.9800     	60.0000     	135.0000    	0.0000      	Open  	;
 1313            	579             	582             	26.4000     	60.0000     	135.0000    	0.0000      	Open  	;
 1314            	582             	583             	25.9200     	60.0000     	135.0000    	0.0000      	Open  	;
 1315            	583             	584             	8.7500      	60.0000     	135.0000    	0.0000      	Open  	;
 1316            	569             	585             	4.9800      	60.0000     	135.0000    	0.0000      	Open  	;
 1317            	585             	568             	55.0400     	60.0000     	135.0000    	0.0000      	Open  	;
 1318            	480             	569             	20.0900     	60.0000     	135.0000    	0.0000      	Open  	;
 1319            	218             	586             	32.0200     	85.0000     	135.0000    	0.0000      	Open  	;
 1320            	586             	482             	23.5300     	85.0000     	135.0000    	0.0000      	Open  	;
 1321            	549             	218             	52.1500     	85.0000     	135.0000    	0.0000      	Open  	;
 1322            	584             	587             	2.3900      	85.0000     	135.0000    	0.0000      	Open  	;
 1323            	587             	588             	1.2400      	85.0000     	135.0000    	0.0000      	Open  	;
 1324            	588             	549             	29.3200     	85.0000     	135.0000    	0.0000      	Open  	;
 1325            	558             	584             	13.3900     	85.0000     	135.0000    	0.0000      	Open  	;
 1326            	568             	580             	3.4700      	60.0000     	135.0000    	0.0000      	Open  	;
 1327            	624             	625             	63.2000     	32.0000     	137.0000    	0.0000      	Open  	;
 1328            	626             	627             	0.0400      	32.0000     	137.0000    	0.0000      	Open  	;
 1329            	627             	628             	75.5700     	32.0000     	137.0000    	0.0000      	Open  	;
 1333            	284             	96              	2.6600      	60.0000     	135.0000    	0.0000      	Open  	;
 1334            	284             	131             	10.8600     	85.0000     	135.0000    	0.0000      	Closed	;
 1335            	413             	693             	61.9900     	50.0000     	135.0000    	0.0000      	Open  	;
 1336            	693             	694             	106.2800    	50.0000     	135.0000    	0.0000      	Open  	;
 1337            	694             	695             	39.8900     	50.0000     	135.0000    	0.0000      	Open  	;
 1338            	695             	125             	11.2700     	50.0000     	135.0000    	0.0000      	Open  	;
 1339            	154             	696             	13.1900     	50.0000     	135.0000    	0.0000      	Open  	;
 1340            	191             	696             	8.1000      	60.0000     	135.0000    	0.0000      	Open  	;
 1341            	533             	697             	5.7600      	110.0000    	135.0000    	0.0000      	Open  	;
 1342            	697             	698             	8.4800      	110.0000    	135.0000    	0.0000      	Open  	;
 1343            	698             	699             	12.0800     	110.0000    	135.0000    	0.0000      	Open  	;
 1345            	699             	700             	20.8700     	110.0000    	135.0000    	0.0000      	Open  	;
 1346            	701             	702             	17.4900     	110.0000    	135.0000    	0.0000      	Open  	;
 1347            	702             	703             	26.9300     	110.0000    	135.0000    	0.0000      	Open  	;
 1348            	703             	704             	5.4400      	110.0000    	135.0000    	0.0000      	Open  	;
 1349            	704             	705             	5.6600      	110.0000    	135.0000    	0.0000      	Open  	;
 1350            	705             	706             	10.7900     	110.0000    	135.0000    	0.0000      	Open  	;
 1351            	706             	707             	24.8000     	110.0000    	135.0000    	0.0000      	Open  	;
 1352            	707             	708             	25.9200     	110.0000    	135.0000    	0.0000      	Open  	;
 1353            	708             	709             	40.6100     	110.0000    	135.0000    	0.0000      	Open  	;
 1354            	709             	710             	13.0700     	110.0000    	135.0000    	0.0000      	Open  	;
 1355            	710             	711             	21.5800     	110.0000    	135.0000    	0.0000      	Open  	;
 1356            	711             	712             	22.2600     	110.0000    	135.0000    	0.0000      	Open  	;
 1357            	712             	713             	40.2400     	110.0000    	135.0000    	0.0000      	Open  	;
 1358            	713             	714             	21.2900     	110.0000    	135.0000    	0.0000      	Open  	;
 1359            	714             	715             	18.5300     	110.0000    	135.0000    	0.0000      	Open  	;
 1360            	700             	701             	24.3900     	110.0000    	135.0000    	0.0000      	Open  	;
 1362            	687             	515             	2.8300      	90.0000     	135.0000    	0.0000      	Open  	;
 1363            	686             	256             	8.5600      	110.0000    	135.0000    	0.0000      	Open  	;
 1364            	628             	629             	14.4000     	32.0000     	137.0000    	0.0000      	Open  	;
 1365            	630             	631             	72.8600     	32.0000     	137.0000    	0.0000      	Open  	;
 1366            	631             	632             	16.5200     	32.0000     	137.0000    	0.0000      	Open  	;
 1367            	632             	63              	45.6100     	60.0000     	135.0000    	0.0000      	Open  	;
 1368            	629             	632             	52.7600     	60.0000     	135.0000    	0.0000      	Open  	;
 1369            	618             	629             	59.5200     	60.0000     	135.0000    	0.0000      	Open  	;
 1370            	58              	633             	4.1300      	110.0000    	135.0000    	0.0000      	Open  	;
 1371            	633             	634             	5.8300      	110.0000    	135.0000    	0.0000      	Open  	;
 1372            	634             	635             	15.5600     	110.0000    	135.0000    	0.0000      	Open  	;
 1373            	635             	291             	27.7400     	110.0000    	135.0000    	0.0000      	Open  	;
 1374            	636             	58              	12.0000     	85.0000     	135.0000    	0.0000      	Open  	;
 1375            	637             	638             	24.7100     	85.0000     	135.0000    	0.0000      	Open  	;
 1376            	638             	636             	24.0200     	85.0000     	135.0000    	0.0000      	Open  	;
 1377            	216             	639             	2.4800      	85.0000     	135.0000    	0.0000      	Open  	;
 1378            	639             	640             	9.5200      	85.0000     	135.0000    	0.0000      	Open  	;
 1379            	640             	641             	0.0100      	85.0000     	135.0000    	0.0000      	Open  	;
 1380            	641             	637             	41.9700     	85.0000     	135.0000    	0.0000      	Open  	;
 1381            	393             	686             	1.7000      	110.0000    	135.0000    	0.0000      	Open  	;
 1382            	684             	618             	16.8800     	32.0000     	137.0000    	0.0000      	Open  	;
 1383            	683             	684             	70.8500     	32.0000     	137.0000    	0.0000      	Open  	;
 1384            	682             	573             	145.6800    	60.0000     	135.0000    	0.0000      	Open  	;
 1386            	62              	647             	17.9500     	85.0000     	135.0000    	0.0000      	Open  	;
 1387            	716             	717             	1.4500      	110.0000    	135.0000    	0.0000      	Open  	;
 1388            	648             	646             	12.7900     	85.0000     	135.0000    	0.0000      	Open  	;
 1389            	646             	645             	12.2500     	85.0000     	135.0000    	0.0000      	Open  	;
 1390            	645             	644             	35.6200     	85.0000     	135.0000    	0.0000      	Open  	;
 1391            	644             	642             	22.7500     	85.0000     	135.0000    	0.0000      	Open  	;
 1392            	643             	601             	18.3200     	85.0000     	135.0000    	0.0000      	Open  	;
 1393            	642             	643             	19.8100     	85.0000     	135.0000    	0.0000      	Open  	;
 1394            	601             	115             	7.8200      	85.0000     	135.0000    	0.0000      	Open  	;
 1395            	647             	648             	27.3600     	85.0000     	135.0000    	0.0000      	Open  	;
 1396            	843             	844             	21.0800     	50.0000     	135.0000    	0.0000      	Open  	;
 1397            	799             	800             	4.1300      	50.0000     	135.0000    	0.0000      	Open  	;
 1398            	845             	846             	24.4700     	50.0000     	135.0000    	0.0000      	Open  	;
 1401            	1024            	1025            	1.4700      	110.0000    	135.0000    	0.0000      	Open  	;
 1415            	176             	413             	10.5700     	60.0000     	135.0000    	0.0000      	Open  	;
 1416            	412             	98              	1.4100      	60.0000     	135.0000    	0.0000      	Open  	;
 1417            	411             	412             	55.8300     	60.0000     	135.0000    	0.0000      	Open  	;
 1418            	8               	411             	8.0900      	60.0000     	135.0000    	0.0000      	Open  	;
 1419            	409             	410             	11.0700     	60.0000     	135.0000    	0.0000      	Open  	;
 1420            	408             	409             	26.3000     	60.0000     	135.0000    	0.0000      	Open  	;
 1421            	407             	408             	16.8400     	60.0000     	135.0000    	0.0000      	Open  	;
 1422            	173             	407             	89.3900     	60.0000     	135.0000    	0.0000      	Open  	;
 1423            	406             	1               	70.8800     	60.0000     	135.0000    	0.0000      	Open  	;
 1428            	578             	682             	18.3900     	60.0000     	135.0000    	0.0000      	Open  	;
 1429            	239             	57              	39.8200     	110.0000    	135.0000    	0.0000      	Open  	;
 1430            	577             	556             	11.5000     	60.0000     	135.0000    	0.0000      	Open  	;
 1431            	556             	595             	5.4500      	85.0000     	135.0000    	0.0000      	Open  	;
 1432            	592             	572             	16.6600     	60.0000     	135.0000    	0.0000      	Open  	;
 1433            	993             	994             	0.8600      	110.0000    	135.0000    	0.0000      	Open  	;
 1434            	994             	995             	13.8300     	110.0000    	135.0000    	0.0000      	Open  	;
 1435            	995             	996             	13.8300     	110.0000    	135.0000    	0.0000      	Open  	;
 1436            	996             	223             	14.2800     	110.0000    	135.0000    	0.0000      	Open  	;
 1437            	161             	155             	14.5100     	60.0000     	135.0000    	0.0000      	Open  	;
 1438            	244             	240             	14.4400     	85.0000     	135.0000    	0.0000      	Open  	;
 1440            	405             	406             	104.3800    	60.0000     	135.0000    	0.0000      	Open  	;
 1442            	171             	164             	5.9300      	110.0000    	135.0000    	0.0000      	Open  	;
 1443            	417             	418             	0.7600      	32.0000     	137.0000    	0.0000      	Open  	;
 1444            	185             	417             	66.4900     	32.0000     	137.0000    	0.0000      	Open  	;
 1446            	1005            	1006            	4.1900      	150.0000    	137.0000    	0.0000      	Open  	;
 1447            	1007            	1006            	0.9300      	100.0000    	97.0000     	0.0000      	Open  	;
 1448            	1006            	1008            	3.9900      	150.0000    	137.0000    	0.0000      	Open  	;
 1449            	1008            	1009            	1.2200      	100.0000    	97.0000     	0.0000      	Open  	;
 1453            	844             	845             	13.1300     	50.0000     	135.0000    	0.0000      	Open  	;
 1454            	164             	497             	17.3600     	60.0000     	135.0000    	0.0000      	Open  	;
 1455            	141             	405             	2.4600      	60.0000     	135.0000    	0.0000      	Open  	;
 1456            	290             	404             	13.5300     	110.0000    	135.0000    	0.0000      	Open  	;
 1457            	404             	278             	103.3700    	85.0000     	135.0000    	0.0000      	Open  	;
 1458            	282             	374             	5.7600      	32.0000     	137.0000    	0.0000      	Open  	;
 1459            	210             	373             	6.0700      	32.0000     	137.0000    	0.0000      	Open  	;
 1460            	371             	372             	0.0100      	32.0000     	137.0000    	0.0000      	Open  	;
 1461            	370             	371             	64.4800     	32.0000     	137.0000    	0.0000      	Open  	;
 1462            	369             	370             	100.9800    	32.0000     	137.0000    	0.0000      	Open  	;
 1463            	60              	369             	6.3200      	32.0000     	137.0000    	0.0000      	Open  	;
 1468            	64              	1100            	0.0600      	60.0000     	135.0000    	0.0000      	Open  	;
 1469            	1100            	61              	14.0000     	60.0000     	135.0000    	0.0000      	Open  	;
 1470            	374             	375             	72.5900     	32.0000     	137.0000    	0.0000      	Open  	;
 1475            	62              	1105            	7.1300      	32.0000     	137.0000    	0.0000      	Open  	;
 1476            	1105            	270             	0.6700      	32.0000     	137.0000    	0.0000      	Open  	;
 1477            	645             	626             	11.5300     	32.0000     	137.0000    	0.0000      	Open  	;
 1478            	646             	608             	25.9800     	32.0000     	137.0000    	0.0000      	Open  	;
 1479            	647             	1106            	12.5900     	32.0000     	137.0000    	0.0000      	Open  	;
 1480            	1106            	630             	0.0300      	32.0000     	137.0000    	0.0000      	Open  	;
 1481            	213             	1107            	14.3600     	32.0000     	137.0000    	0.0000      	Open  	;
 1482            	1107            	214             	0.0600      	32.0000     	137.0000    	0.0000      	Open  	;
 1483            	216             	621             	14.8900     	32.0000     	137.0000    	0.0000      	Open  	;
 1485            	992             	578             	7.2600      	60.0000     	135.0000    	0.0000      	Open  	;
 1486            	106             	376             	4.8700      	32.0000     	137.0000    	0.0000      	Open  	;
 1487            	46              	378             	6.0800      	32.0000     	137.0000    	0.0000      	Open  	;
 1488            	222             	403             	24.5500     	32.0000     	137.0000    	0.0000      	Open  	;
 1489            	401             	402             	0.8200      	110.0000    	135.0000    	0.0000      	Open  	;
 1490            	400             	401             	0.3400      	110.0000    	135.0000    	0.0000      	Open  	;
 1491            	399             	400             	0.9100      	110.0000    	135.0000    	0.0000      	Open  	;
 1492            	398             	399             	0.6400      	110.0000    	135.0000    	0.0000      	Open  	;
 1493            	397             	398             	2.8800      	110.0000    	135.0000    	0.0000      	Open  	;
 1494            	395             	396             	2.2300      	110.0000    	135.0000    	0.0000      	Open  	;
 1495            	394             	395             	3.1300      	110.0000    	135.0000    	0.0000      	Open  	;
 1496            	392             	393             	2.7400      	110.0000    	135.0000    	0.0000      	Open  	;
 1497            	391             	387             	0.1700      	60.0000     	135.0000    	0.0000      	Open  	;
 1498            	188             	391             	3.2800      	60.0000     	135.0000    	0.0000      	Open  	;
 1499            	390             	10              	14.1100     	60.0000     	135.0000    	0.0000      	Open  	;
 1500            	376             	377             	146.7800    	32.0000     	137.0000    	0.0000      	Open  	;
 1501            	389             	390             	3.3000      	60.0000     	135.0000    	0.0000      	Open  	;
 1502            	387             	388             	4.5800      	60.0000     	135.0000    	0.0000      	Open  	;
 1503            	197             	122             	0.4500      	85.0000     	135.0000    	0.0000      	Open  	;
 1504            	386             	122             	1.6700      	85.0000     	135.0000    	0.0000      	Open  	;
 1505            	189             	110             	20.5700     	60.0000     	135.0000    	0.0000      	Open  	;
 1506            	196             	385             	2.2200      	50.0000     	135.0000    	0.0000      	Open  	;
 1507            	385             	11              	183.4400    	50.0000     	135.0000    	0.0000      	Open  	;
 1508            	105             	384             	8.4700      	60.0000     	135.0000    	0.0000      	Open  	;
 1509            	261             	383             	12.6300     	32.0000     	137.0000    	0.0000      	Open  	;
 1510            	260             	382             	7.3600      	32.0000     	137.0000    	0.0000      	Open  	;
 1511            	380             	381             	84.6600     	32.0000     	137.0000    	0.0000      	Open  	;
 1512            	198             	380             	7.3900      	32.0000     	137.0000    	0.0000      	Open  	;
 1513            	378             	379             	161.8200    	32.0000     	137.0000    	0.0000      	Open  	;
 1514            	388             	389             	4.9600      	60.0000     	135.0000    	0.0000      	Open  	;
 1515            	581             	992             	6.0600      	60.0000     	135.0000    	0.0000      	Open  	;
 1516            	1               	2               	19.0600     	60.0000     	135.0000    	0.0000      	Open  	;
 1517            	492             	493             	4.4700      	60.0000     	135.0000    	0.0000      	Open  	;
 1518            	529             	530             	14.7200     	32.0000     	137.0000    	0.0000      	Open  	;
 1519            	530             	531             	48.7600     	32.0000     	137.0000    	0.0000      	Open  	;
 1520            	531             	532             	5.4100      	32.0000     	137.0000    	0.0000      	Open  	;
 1521            	533             	534             	8.6100      	110.0000    	135.0000    	0.0000      	Open  	;
 1522            	534             	535             	17.0700     	110.0000    	135.0000    	0.0000      	Open  	;
 1523            	1683            	396             	1.6000      	110.0000    	135.0000    	0.0000      	Open  	;
 1524            	535             	536             	8.4100      	110.0000    	135.0000    	0.0000      	Open  	;
 1525            	536             	537             	8.4100      	110.0000    	135.0000    	0.0000      	Open  	;
 1526            	537             	394             	4.4900      	110.0000    	135.0000    	0.0000      	Open  	;
 1527            	295             	538             	6.6200      	110.0000    	135.0000    	0.0000      	Open  	;
 1528            	527             	528             	61.1600     	32.0000     	137.0000    	0.0000      	Open  	;
 1529            	538             	539             	18.3700     	110.0000    	135.0000    	0.0000      	Open  	;
 1530            	540             	247             	3.1100      	110.0000    	135.0000    	0.0000      	Open  	;
 1532            	247             	541             	4.0600      	110.0000    	135.0000    	0.0000      	Open  	;
 1533            	295             	542             	1.6500      	110.0000    	135.0000    	0.0000      	Open  	;
 1534            	542             	543             	3.1300      	110.0000    	135.0000    	0.0000      	Open  	;
 1535            	543             	285             	9.7300      	110.0000    	135.0000    	0.0000      	Open  	;
 1536            	477             	478             	6.3400      	60.0000     	135.0000    	0.0000      	Open  	;
 1537            	544             	545             	13.8300     	32.0000     	137.0000    	0.0000      	Open  	;
 1538            	545             	546             	52.1200     	32.0000     	137.0000    	0.0000      	Open  	;
 1539            	544             	547             	5.3400      	60.0000     	135.0000    	0.0000      	Open  	;
 1540            	539             	540             	17.0400     	110.0000    	135.0000    	0.0000      	Open  	;
 1541            	526             	527             	7.9900      	32.0000     	137.0000    	0.0000      	Open  	;
 1542            	524             	525             	7.9100      	32.0000     	137.0000    	0.0000      	Open  	;
 1543            	523             	524             	52.0600     	32.0000     	137.0000    	0.0000      	Open  	;
 1545            	148             	512             	0.7100      	110.0000    	135.0000    	0.0000      	Open  	;
 1546            	512             	513             	0.2300      	110.0000    	135.0000    	0.0000      	Open  	;
 1547            	514             	143             	6.5600      	110.0000    	135.0000    	0.0000      	Open  	;
 1548            	497             	488             	221.1900    	60.0000     	135.0000    	0.0000      	Open  	;
 1549            	496             	491             	211.7200    	60.0000     	135.0000    	0.0000      	Open  	;
 1550            	495             	496             	10.0300     	60.0000     	135.0000    	0.0000      	Open  	;
 1551            	494             	495             	10.0300     	60.0000     	135.0000    	0.0000      	Open  	;
 1552            	493             	494             	5.0000      	60.0000     	135.0000    	0.0000      	Open  	;
 1553            	515             	516             	1.0700      	110.0000    	135.0000    	0.0000      	Open  	;
 1554            	490             	491             	5.6900      	60.0000     	135.0000    	0.0000      	Open  	;
 1555            	489             	490             	37.5800     	60.0000     	135.0000    	0.0000      	Open  	;
 1556            	488             	489             	8.6700      	60.0000     	135.0000    	0.0000      	Open  	;
 1557            	241             	487             	159.0500    	60.0000     	135.0000    	0.0000      	Open  	;
 1558            	486             	487             	14.4600     	60.0000     	135.0000    	0.0000      	Open  	;
 1559            	485             	486             	46.0200     	60.0000     	135.0000    	0.0000      	Open  	;
 1560            	147             	484             	16.3100     	40.0000     	135.0000    	0.0000      	Open  	;
 1561            	516             	514             	0.2300      	110.0000    	135.0000    	0.0000      	Open  	;
 1562            	477             	259             	168.3400    	60.0000     	135.0000    	0.0000      	Open  	;
 1563            	481             	482             	13.0000     	60.0000     	135.0000    	0.0000      	Open  	;
 1564            	480             	481             	43.8000     	60.0000     	135.0000    	0.0000      	Open  	;
 1565            	478             	479             	45.2000     	60.0000     	135.0000    	0.0000      	Open  	;
 1566            	522             	523             	9.8800      	32.0000     	137.0000    	0.0000      	Open  	;
 1567            	547             	548             	45.2500     	60.0000     	135.0000    	0.0000      	Open  	;
 1568            	548             	220             	3.4600      	60.0000     	135.0000    	0.0000      	Open  	;
 1569            	505             	485             	0.7000      	60.0000     	135.0000    	0.0000      	Open  	;
 1570            	846             	847             	25.3300     	50.0000     	135.0000    	0.0000      	Open  	;
 1571            	526             	529             	55.1500     	60.0000     	135.0000    	0.0000      	Open  	;
 1572            	522             	526             	65.7500     	60.0000     	135.0000    	0.0000      	Open  	;
 1573            	847             	810             	20.0300     	50.0000     	135.0000    	0.0000      	Open  	;
 1574            	549             	550             	15.9800     	60.0000     	135.0000    	0.0000      	Open  	;
 1575            	550             	551             	8.0500      	60.0000     	135.0000    	0.0000      	Open  	;
 1576            	553             	55              	13.7700     	110.0000    	135.0000    	0.0000      	Open  	;
 1577            	552             	522             	4.6300      	60.0000     	135.0000    	0.0000      	Open  	;
 1578            	529             	544             	66.5800     	60.0000     	135.0000    	0.0000      	Open  	;
 1579            	551             	552             	49.8900     	60.0000     	135.0000    	0.0000      	Open  	;
 1580            	419             	420             	9.5600      	60.0000     	135.0000    	0.0000      	Open  	;
 1581            	428             	426             	69.6900     	60.0000     	135.0000    	0.0000      	Open  	;
 1582            	427             	423             	47.7300     	60.0000     	135.0000    	0.0000      	Open  	;
 1583            	426             	427             	15.2000     	60.0000     	135.0000    	0.0000      	Open  	;
 1584            	1667            	1668            	15.2900     	63.0000     	140.0000    	0.0000      	Open  	;
 1585            	425             	422             	5.4700      	60.0000     	135.0000    	0.0000      	Open  	;
 1586            	422             	419             	52.2600     	60.0000     	135.0000    	0.0000      	Open  	;
 1587            	1666            	1667            	13.3900     	63.0000     	140.0000    	0.0000      	Open  	;
 1588            	1665            	1666            	14.4400     	63.0000     	140.0000    	0.0000      	Open  	;
 1589            	423             	424             	11.9800     	60.0000     	135.0000    	0.0000      	Open  	;
 1590            	429             	428             	98.5000     	60.0000     	135.0000    	0.0000      	Open  	;
 1591            	1664            	1665            	20.7200     	63.0000     	140.0000    	0.0000      	Open  	;
 1592            	424             	425             	35.9300     	60.0000     	135.0000    	0.0000      	Open  	;
 1593            	36              	429             	103.7300    	85.0000     	135.0000    	0.0000      	Open  	;
 1594            	1672            	1673            	7.8900      	63.0000     	140.0000    	0.0000      	Open  	;
 1595            	1669            	1670            	23.8800     	63.0000     	140.0000    	0.0000      	Open  	;
 1596            	1670            	1671            	32.2800     	63.0000     	140.0000    	0.0000      	Open  	;
 1597            	1671            	1672            	8.9700      	63.0000     	140.0000    	0.0000      	Open  	;
 1598            	1663            	1664            	21.3700     	63.0000     	140.0000    	0.0000      	Open  	;
 1599            	1673            	1674            	26.4200     	63.0000     	140.0000    	0.0000      	Open  	;
 1600            	1674            	1675            	12.5700     	63.0000     	140.0000    	0.0000      	Open  	;
 1601            	1675            	1676            	6.2600      	63.0000     	140.0000    	0.0000      	Open  	;
 1602            	1676            	1677            	18.5900     	63.0000     	140.0000    	0.0000      	Open  	;
 1603            	1677            	1678            	1.9900      	63.0000     	140.0000    	0.0000      	Open  	;
 1604            	1678            	1679            	1.9700      	63.0000     	140.0000    	0.0000      	Open  	;
 1605            	1679            	1680            	2.0000      	63.0000     	140.0000    	0.0000      	Open  	;
 1606            	1680            	1677            	1.9300      	63.0000     	140.0000    	0.0000      	Open  	;
 1607            	1676            	665             	2.5100      	63.0000     	140.0000    	0.0000      	Open  	;
 1608            	1668            	1669            	25.3500     	63.0000     	140.0000    	0.0000      	Open  	;
 1609            	1662            	1663            	5.5100      	63.0000     	140.0000    	0.0000      	Open  	;
 1610            	420             	421             	103.3000    	60.0000     	135.0000    	0.0000      	Open  	;
 1611            	1660            	1661            	13.2800     	63.0000     	140.0000    	0.0000      	Open  	;
 1612            	421             	32              	2.0000      	60.0000     	135.0000    	0.0000      	Open  	;
 1613            	426             	1652            	8.0900      	63.0000     	140.0000    	0.0000      	Open  	;
 1614            	30              	31              	8.0600      	32.0000     	137.0000    	0.0000      	Open  	;
 1615            	1652            	1653            	17.2500     	63.0000     	140.0000    	0.0000      	Open  	;
 1616            	1661            	1662            	4.2800      	63.0000     	140.0000    	0.0000      	Open  	;
 1617            	1654            	1655            	5.5600      	63.0000     	140.0000    	0.0000      	Open  	;
 1618            	1655            	1656            	20.9800     	63.0000     	140.0000    	0.0000      	Open  	;
 1619            	1656            	1657            	28.0800     	63.0000     	140.0000    	0.0000      	Open  	;
 1620            	1652            	1658            	18.7500     	63.0000     	140.0000    	0.0000      	Open  	;
 1621            	32              	33              	8.4600      	60.0000     	135.0000    	0.0000      	Open  	;
 1622            	1658            	1659            	20.3300     	63.0000     	140.0000    	0.0000      	Open  	;
 1623            	1653            	1654            	25.7900     	63.0000     	140.0000    	0.0000      	Open  	;
 1624            	33              	669             	6.0000      	60.0000     	135.0000    	0.0000      	Open  	;
 1625            	665             	666             	30.3700     	32.0000     	137.0000    	0.0000      	Open  	;
 1626            	423             	30              	137.8500    	32.0000     	137.0000    	0.0000      	Open  	;
 1627            	422             	667             	7.6800      	32.0000     	137.0000    	0.0000      	Open  	;
 1628            	1659            	1660            	22.1400     	63.0000     	140.0000    	0.0000      	Open  	;
 1629            	667             	668             	120.2200    	32.0000     	137.0000    	0.0000      	Open  	;
 1630            	1096            	1099            	13.4300     	110.0000    	132.0000    	0.0000      	Open  	;
 1631            	1099            	67              	0.0300      	110.0000    	132.0000    	0.0000      	Open  	;
 1632            	462             	460             	3.8400      	110.0000    	132.0000    	0.0000      	Open  	;
 1633            	457             	518             	5.0200      	60.0000     	132.0000    	0.0000      	Open  	;
 1634            	39              	40              	136.1000    	60.0000     	132.0000    	0.0000      	Open  	;
 1635            	509             	444             	7.8100      	32.0000     	135.0000    	0.0000      	Open  	;
 1636            	508             	509             	137.0600    	32.0000     	135.0000    	0.0000      	Open  	;
 1637            	454             	508             	9.0900      	32.0000     	135.0000    	0.0000      	Open  	;
 1638            	507             	500             	12.1700     	32.0000     	135.0000    	0.0000      	Open  	;
 1639            	506             	507             	87.0100     	32.0000     	135.0000    	0.0000      	Open  	;
 1640            	1098            	517             	0.0300      	85.0000     	132.0000    	0.0000      	Open  	;
 1641            	1097            	1098            	12.5400     	85.0000     	132.0000    	0.0000      	Open  	;
 1642            	1095            	1094            	0.2600      	85.0000     	132.0000    	0.0000      	Open  	;
 1643            	27              	28              	8.2600      	85.0000     	132.0000    	0.0000      	Open  	;
 1644            	591             	1096            	1.6800      	110.0000    	132.0000    	0.0000      	Open  	;
 1645            	519             	520             	88.9900     	85.0000     	132.0000    	0.0000      	Open  	;
 1646            	448             	506             	8.5300      	32.0000     	135.0000    	0.0000      	Open  	;
 1647            	1094            	456             	8.7500      	85.0000     	132.0000    	0.0000      	Open  	;
 1648            	37              	38              	31.8000     	60.0000     	132.0000    	0.0000      	Open  	;
 1649            	35              	36              	44.5500     	85.0000     	132.0000    	0.0000      	Open  	;
 1650            	34              	35              	2.4600      	85.0000     	132.0000    	0.0000      	Open  	;
 1651            	459             	521             	100.0000    	85.0000     	132.0000    	0.0000      	Open  	;
 1652            	517             	28              	84.4100     	85.0000     	132.0000    	0.0000      	Open  	;
 1653            	518             	504             	20.8500     	60.0000     	132.0000    	0.0000      	Open  	;
 1654            	591             	1097            	1.1800      	85.0000     	132.0000    	0.0000      	Open  	;
 1655            	520             	1095            	2.0100      	85.0000     	132.0000    	0.0000      	Open  	;
 1656            	445             	446             	16.7700     	60.0000     	132.0000    	0.0000      	Open  	;
 1657            	503             	73              	34.4700     	85.0000     	132.0000    	0.0000      	Open  	;
 1658            	451             	452             	12.5000     	60.0000     	132.0000    	0.0000      	Open  	;
 1659            	452             	448             	45.7100     	60.0000     	132.0000    	0.0000      	Open  	;
 1660            	430             	453             	16.7900     	85.0000     	132.0000    	0.0000      	Open  	;
 1661            	453             	454             	42.1100     	85.0000     	132.0000    	0.0000      	Open  	;
 1662            	120             	434             	33.7800     	85.0000     	132.0000    	0.0000      	Open  	;
 1663            	434             	455             	8.4200      	85.0000     	132.0000    	0.0000      	Open  	;
 1664            	455             	430             	38.7600     	85.0000     	132.0000    	0.0000      	Open  	;
 1665            	456             	457             	94.4900     	85.0000     	132.0000    	0.0000      	Open  	;
 1666            	118             	119             	2.4600      	85.0000     	132.0000    	0.0000      	Open  	;
 1667            	458             	459             	100.0000    	85.0000     	132.0000    	0.0000      	Open  	;
 1668            	450             	445             	8.1900      	60.0000     	132.0000    	0.0000      	Open  	;
 1669            	460             	461             	11.1600     	60.0000     	132.0000    	0.0000      	Open  	;
 1670            	66              	462             	23.7500     	110.0000    	132.0000    	0.0000      	Open  	;
 1671            	119             	120             	73.0900     	85.0000     	132.0000    	0.0000      	Open  	;
 1672            	463             	464             	10.3200     	32.0000     	135.0000    	0.0000      	Open  	;
 1673            	464             	465             	39.7600     	32.0000     	135.0000    	0.0000      	Open  	;
 1674            	466             	463             	55.7500     	32.0000     	135.0000    	0.0000      	Open  	;
 1675            	463             	467             	3.9900      	60.0000     	132.0000    	0.0000      	Open  	;
 1676            	71              	463             	123.3600    	60.0000     	132.0000    	0.0000      	Open  	;
 1677            	468             	469             	3.6800      	32.0000     	135.0000    	0.0000      	Open  	;
 1678            	470             	468             	32.2000     	32.0000     	135.0000    	0.0000      	Open  	;
 1679            	471             	470             	50.6500     	32.0000     	135.0000    	0.0000      	Open  	;
 1680            	461             	458             	100.0000    	60.0000     	132.0000    	0.0000      	Open  	;
 1681            	449             	450             	21.5000     	60.0000     	132.0000    	0.0000      	Open  	;
 1682            	68              	69              	10.6100     	32.0000     	135.0000    	0.0000      	Open  	;
 1683            	448             	449             	6.7200      	60.0000     	132.0000    	0.0000      	Open  	;
 1684            	444             	433             	59.9100     	60.0000     	132.0000    	0.0000      	Open  	;
 1685            	443             	437             	42.5600     	60.0000     	132.0000    	0.0000      	Open  	;
 1686            	433             	443             	5.5600      	60.0000     	132.0000    	0.0000      	Open  	;
 1687            	442             	440             	5.1000      	60.0000     	132.0000    	0.0000      	Open  	;
 1688            	441             	442             	17.0700     	60.0000     	132.0000    	0.0000      	Open  	;
 1689            	94              	95              	53.1100     	60.0000     	132.0000    	0.0000      	Open  	;
 1690            	437             	441             	10.7000     	60.0000     	132.0000    	0.0000      	Open  	;
 1691            	439             	440             	9.7800      	60.0000     	132.0000    	0.0000      	Open  	;
 1692            	438             	439             	164.9900    	60.0000     	132.0000    	0.0000      	Open  	;
 1693            	120             	438             	3.8200      	60.0000     	132.0000    	0.0000      	Open  	;
 1694            	436             	437             	9.8900      	32.0000     	135.0000    	0.0000      	Open  	;
 1695            	435             	436             	158.3200    	32.0000     	135.0000    	0.0000      	Open  	;
 1696            	434             	435             	7.2900      	32.0000     	135.0000    	0.0000      	Open  	;
 1697            	432             	433             	5.1500      	32.0000     	135.0000    	0.0000      	Open  	;
 1698            	431             	432             	146.0500    	32.0000     	135.0000    	0.0000      	Open  	;
 1699            	430             	431             	14.5800     	32.0000     	135.0000    	0.0000      	Open  	;
 1700            	34              	27              	103.1200    	85.0000     	132.0000    	0.0000      	Open  	;
 1701            	27              	118             	10.5900     	85.0000     	132.0000    	0.0000      	Open  	;
 1702            	74              	71              	10.3300     	85.0000     	132.0000    	0.0000      	Open  	;
 1703            	73              	74              	1.0600      	85.0000     	132.0000    	0.0000      	Open  	;
 1704            	71              	72              	5.6800      	60.0000     	132.0000    	0.0000      	Open  	;
 1705            	68              	70              	21.9200     	32.0000     	135.0000    	0.0000      	Open  	;
 1706            	447             	444             	7.3100      	60.0000     	132.0000    	0.0000      	Open  	;
 1707            	471             	472             	64.7900     	60.0000     	132.0000    	0.0000      	Open  	;
 1708            	504             	39              	6.0800      	60.0000     	132.0000    	0.0000      	Open  	;
 1709            	473             	471             	1.2100      	60.0000     	132.0000    	0.0000      	Open  	;
 1710            	40              	476             	8.3000      	60.0000     	132.0000    	0.0000      	Open  	;
 1711            	660             	659             	52.8000     	32.0000     	135.0000    	0.0000      	Open  	;
 1712            	658             	659             	3.0100      	32.0000     	135.0000    	0.0000      	Open  	;
 1713            	657             	658             	86.3600     	32.0000     	135.0000    	0.0000      	Open  	;
 1714            	656             	657             	21.5600     	32.0000     	135.0000    	0.0000      	Open  	;
 1715            	655             	651             	16.9200     	32.0000     	135.0000    	0.0000      	Open  	;
 1716            	654             	655             	91.8300     	32.0000     	135.0000    	0.0000      	Open  	;
 1717            	653             	466             	12.2300     	32.0000     	135.0000    	0.0000      	Open  	;
 1718            	652             	653             	34.0500     	32.0000     	135.0000    	0.0000      	Open  	;
 1719            	651             	652             	6.7200      	32.0000     	135.0000    	0.0000      	Open  	;
 1720            	650             	466             	18.7600     	32.0000     	135.0000    	0.0000      	Open  	;
 1721            	656             	661             	15.0300     	32.0000     	135.0000    	0.0000      	Open  	;
 1722            	649             	650             	106.6700    	32.0000     	135.0000    	0.0000      	Open  	;
 1723            	467             	483             	8.4400      	60.0000     	132.0000    	0.0000      	Open  	;
 1724            	446             	447             	29.9800     	60.0000     	132.0000    	0.0000      	Open  	;
 1725            	69              	498             	0.1400      	32.0000     	135.0000    	0.0000      	Open  	;
 1726            	498             	499             	44.9600     	32.0000     	135.0000    	0.0000      	Open  	;
 1727            	499             	500             	1.8900      	32.0000     	135.0000    	0.0000      	Open  	;
 1728            	70              	501             	64.8000     	32.0000     	135.0000    	0.0000      	Open  	;
 1729            	501             	451             	20.9900     	32.0000     	135.0000    	0.0000      	Open  	;
 1730            	72              	502             	6.2000      	60.0000     	132.0000    	0.0000      	Open  	;
 1731            	502             	451             	35.6700     	60.0000     	132.0000    	0.0000      	Open  	;
 1732            	454             	503             	6.9300      	85.0000     	132.0000    	0.0000      	Open  	;
 1733            	37              	649             	12.0000     	32.0000     	135.0000    	0.0000      	Open  	;
 1734            	661             	662             	31.6100     	32.0000     	135.0000    	0.0000      	Open  	;
 1735            	65              	66              	26.2500     	110.0000    	132.0000    	0.0000      	Open  	;
 1736            	67              	65              	71.5500     	110.0000    	132.0000    	0.0000      	Open  	;
 1737            	476             	474             	40.0200     	60.0000     	132.0000    	0.0000      	Open  	;
 1738            	465             	68              	24.1400     	32.0000     	135.0000    	0.0000      	Open  	;
 1739            	521             	519             	100.0000    	85.0000     	132.0000    	0.0000      	Open  	;
 1740            	475             	674             	53.9200     	60.0000     	132.0000    	0.0000      	Open  	;
 1741            	674             	94              	51.5500     	60.0000     	132.0000    	0.0000      	Open  	;
 1742            	95              	473             	54.0500     	60.0000     	132.0000    	0.0000      	Open  	;
 1743            	680             	681             	81.4400     	60.0000     	132.0000    	0.0000      	Open  	;
 1744            	472             	680             	4.3700      	60.0000     	132.0000    	0.0000      	Open  	;
 1745            	678             	679             	110.7300    	32.0000     	135.0000    	0.0000      	Open  	;
 1746            	474             	678             	12.7700     	32.0000     	135.0000    	0.0000      	Open  	;
 1747            	475             	676             	119.0000    	32.0000     	135.0000    	0.0000      	Open  	;
 1748            	676             	677             	6.1500      	32.0000     	135.0000    	0.0000      	Open  	;
 1749            	674             	675             	112.4000    	32.0000     	135.0000    	0.0000      	Open  	;
 1750            	672             	673             	79.7600     	32.0000     	135.0000    	0.0000      	Open  	;
 1751            	94              	672             	22.0500     	32.0000     	135.0000    	0.0000      	Open  	;
 1752            	671             	37              	40.5500     	60.0000     	132.0000    	0.0000      	Open  	;
 1753            	71              	671             	14.7700     	60.0000     	132.0000    	0.0000      	Open  	;
 1754            	670             	664             	10.6200     	32.0000     	135.0000    	0.0000      	Open  	;
 1755            	38              	670             	14.1600     	32.0000     	135.0000    	0.0000      	Open  	;
 1756            	664             	654             	37.3000     	32.0000     	135.0000    	0.0000      	Open  	;
 1757            	654             	656             	40.5500     	32.0000     	135.0000    	0.0000      	Open  	;
 1758            	663             	660             	101.9600    	32.0000     	135.0000    	0.0000      	Open  	;
 1759            	662             	663             	6.3500      	32.0000     	135.0000    	0.0000      	Open  	;
 1760            	474             	475             	50.5200     	60.0000     	132.0000    	0.0000      	Open  	;
 1761            	673             	685             	5.7800      	32.0000     	135.0000    	0.0000      	Open  	;
 1762            	C1              	1458            	0.1000      	100.0000    	118.0000    	0.0000      	Open  	;
 1763            	C2              	1459            	0.1000      	100.0000    	97.0000     	0.0000      	Open  	;
 1764            	C3              	1460            	0.1000      	100.0000    	97.0000     	0.0000      	Open  	;
 1765            	C4              	1470            	0.1000      	150.0000    	140.0000    	0.0000      	Open  	;
 1766            	C5              	1472            	0.1000      	150.0000    	140.0000    	0.0000      	Open  	;
 1767            	C6              	1474            	0.1000      	150.0000    	140.0000    	0.0000      	Open  	;
 1770            	774             	848             	0.1000      	50.0000     	132.0000    	0.0000      	Open  	;
 1771            	1533            	1552            	0.1000      	150.0000    	137.0000    	0.0000      	Open  	;
 1772            	1528            	1530            	0.1000      	150.0000    	137.0000    	0.0000      	Open  	;
 1773            	1563            	1564            	0.1000      	85.0000     	135.0000    	0.0000      	Open  	;
 1774            	1532            	1529            	0.1000      	150.0000    	137.0000    	0.0000      	Open  	;
 32              	1133            	77              	0.1000      	110.0000    	135.0000    	0.0000      	Open  	;
 33              	77              	1116            	0.1000      	110.0000    	135.0000    	0.0000      	Open  	;
 34              	513             	76              	0.1000      	110.0000    	135.0000    	0.0000      	Open  	;
 35              	76              	687             	0.1000      	110.0000    	135.0000    	0.0000      	Open  	;

[PUMPS]
;ID              	Node1           	Node2           	Parameters

[VALVES]
;ID              	Node1           	Node2           	Diameter    	Type	Setting     	MinorLoss   

[TAGS]

[DEMANDS]
;Junction        	Demand      	Pattern         	Category

[STATUS]
;ID              	Status/Setting

[PATTERNS]
;ID              	Multipliers

[CURVES]
;ID              	X-Value     	Y-Value

[CONTROLS]


[RULES]


[ENERGY]
 Global Efficiency  	75.0000
 Global Price       	0
 Demand Charge      	0.0000

[EMITTERS]
;Junction        	Coefficient

[QUALITY]
;Node            	InitQual

[SOURCES]
;Node            	Type        	Quality     	Pattern

[REACTIONS]
;Type     	Pipe/Tank       	Coefficient


[REACTIONS]
 Order Bulk            	1.00
 Order Tank            	1.00
 Order Wall            	1
 Global Bulk           	0.000000
 Global Wall           	0.000000
 Limiting Potential    	0
 Roughness Correlation 	0

[MIXING]
;Tank            	Model

[TIMES]
 Duration           	24:00 
 Hydraulic Timestep 	1:00 
 Quality Timestep   	0:06 
 Pattern Timestep   	1:00 
 Pattern Start      	0:00 
 Report Timestep    	1:00 
 Report Start       	0:00 
 Start ClockTime    	0:00:00
 Statistic          	NONE

[REPORT]
 Status             	No
 Summary            	No
 Page               	0

[OPTIONS]
 Units              	LPS
 Headloss           	H-W
 Specific Gravity   	1.000000
 Viscosity          	1.000000
 Trials             	40
 Accuracy           	0.00100000
 CHECKFREQ          	10
 MAXCHECK           	10
 DAMPLIMIT          	0.00000000
 Unbalanced         	Continue 10
 Pattern            	1
 Demand Multiplier  	1.0000
 Emitter Exponent   	0.5000
 Quality            	NONE mg/L
 Diffusivity        	1.000000
 Tolerance          	0.01000000

[COORDINATES]
;Node            	X-Coord           	Y-Coord
1               	154625.562        	8234781.111       
2               	154606.581        	8234782.881       
3               	154605.087        	8234782.989       
4               	154365.579        	8234854.285       
5               	154293.464        	8234825.656       
6               	154435.325        	8234876.319       
7               	154582.607        	8234784.065       
8               	154625.052        	8234745.614       
9               	154583.862        	8235012.860       
10              	154255.689        	8235017.782       
11              	154292.988        	8235014.690       
12              	154284.608        	8235014.849       
13              	154263.223        	8235015.263       
14              	154235.586        	8235015.707       
15              	154223.087        	8235204.673       
16              	154222.261        	8235059.960       
17              	154228.236        	8235022.232       
18              	154293.220        	8235020.776       
19              	154297.530        	8235229.784       
20              	154364.348        	8235019.182       
21              	154589.754        	8235245.507       
22              	154587.554        	8235105.374       
23              	154585.873        	8235013.849       
24              	154511.909        	8235016.173       
25              	154514.276        	8235094.608       
26              	154516.056        	8235248.103       
27              	153300.849        	8234806.198       
28              	153307.727        	8234801.621       
29              	154217.066        	8235202.323       
30              	153038.943        	8234808.622       
31              	153039.897        	8234800.617       
32              	153022.029        	8234916.475       
33              	153030.478        	8234916.888       
34              	153203.608        	8234771.871       
35              	153201.300        	8234771.032       
36              	153158.465        	8234758.805       
37              	153130.854        	8235031.311       
38              	153102.438        	8235017.033       
39              	154044.187        	8235239.229       
40              	154154.324        	8235319.185       
41              	153933.661        	8234731.307       
42              	153944.411        	8234737.580       
43              	153968.366        	8234751.558       
44              	153973.443        	8234754.345       
45              	153712.862        	8234608.926       
46              	153761.902        	8234637.046       
47              	153888.038        	8234707.573       
48              	153891.718        	8234700.912       
49              	153928.907        	8234633.043       
50              	154512.275        	8235011.329       
51              	154438.037        	8235012.326       
52              	154244.413        	8234809.300       
53              	154227.488        	8234844.990       
54              	154281.122        	8234821.301       
55              	154019.980        	8234256.722       
56              	154022.009        	8234257.500       
57              	154023.728        	8234258.169       
58              	153573.747        	8234449.264       
59              	153570.800        	8234448.112       
60              	153556.353        	8234444.706       
61              	153418.988        	8234794.696       
62              	153431.813        	8234767.301       
63              	153513.366        	8234834.660       
64              	153431.679        	8234800.751       
65              	153468.691        	8234892.242       
66              	153489.815        	8234907.826       
67              	153407.735        	8234854.773       
68              	153173.747        	8235174.952       
69              	153183.247        	8235179.675       
70              	153183.625        	8235155.385       
71              	153180.157        	8235056.370       
72              	153185.122        	8235059.122       
73              	153185.323        	8235046.216       
74              	153184.851        	8235047.169       
91              	154259.387        	8234948.179       
92              	153720.831        	8234362.097       
93              	153721.333        	8234364.327       
94              	154050.133        	8235494.913       
95              	154027.710        	8235543.053       
96              	153679.641        	8234593.004       
97              	153664.735        	8234625.311       
98              	154562.689        	8234726.326       
99              	154536.800        	8234720.016       
100             	154452.168        	8234721.429       
101             	154173.980        	8234821.028       
102             	154203.923        	8234834.213       
103             	154025.838        	8234783.108       
104             	154022.523        	8234788.908       
105             	154022.262        	8234789.364       
106             	153712.433        	8234608.671       
107             	153668.000        	8234709.473       
108             	153709.492        	8234618.076       
109             	154224.512        	8235017.630       
110             	154219.680        	8235030.223       
111             	153431.899        	8234512.300       
112             	153476.656        	8234488.521       
113             	153536.569        	8234512.547       
114             	153513.349        	8234563.434       
115             	153502.731        	8234607.733       
116             	153508.272        	8234595.421       
117             	153517.690        	8234575.000       
118             	153299.808        	8234816.736       
119             	153299.560        	8234819.182       
120             	153269.804        	8234885.944       
121             	154209.457        	8234875.720       
122             	154222.052        	8234842.350       
123             	154185.509        	8234709.543       
124             	154141.512        	8234683.196       
125             	154633.774        	8235011.722       
126             	154602.779        	8235012.295       
127             	154585.594        	8235010.345       
128             	154511.430        	8234963.433       
129             	154510.010        	8234830.513       
130             	154508.747        	8234785.057       
131             	153690.371        	8234595.645       
132             	153762.954        	8234637.706       
133             	153766.555        	8234639.350       
134             	153798.816        	8234655.525       
135             	154634.524        	8234963.211       
136             	154639.021        	8234963.213       
137             	154443.739        	8235251.185       
138             	154367.407        	8235252.186       
139             	154438.330        	8235017.525       
140             	154368.143        	8235013.264       
141             	154627.670        	8234958.813       
142             	154627.724        	8234963.211       
143             	153730.137        	8234357.360       
144             	153725.564        	8234357.258       
145             	153719.900        	8234356.930       
146             	153716.621        	8234356.733       
147             	153518.410        	8234837.542       
148             	153727.634        	8234365.377       
149             	153726.623        	8234365.342       
150             	154435.750        	8234785.355       
151             	154435.749        	8234785.628       
152             	154439.390        	8235055.193       
153             	154218.053        	8234948.957       
154             	154216.135        	8234872.981       
155             	154128.249        	8234005.999       
156             	153913.116        	8233924.276       
157             	153887.286        	8233978.977       
158             	153892.301        	8233968.153       
159             	154115.295        	8234066.036       
160             	154102.719        	8234061.034       
161             	154141.558        	8234011.784       
162             	154132.556        	8234030.445       
163             	154123.047        	8234050.142       
164             	154159.738        	8233974.651       
165             	154151.027        	8233992.538       
166             	154187.059        	8233918.870       
167             	154183.290        	8233926.278       
168             	154180.590        	8233931.584       
169             	154174.793        	8233944.112       
170             	154168.996        	8233956.639       
171             	154162.416        	8233969.356       
172             	154637.187        	8235007.483       
173             	154637.187        	8234987.352       
174             	154598.127        	8235008.301       
175             	154638.714        	8235245.725       
176             	154638.695        	8235241.625       
177             	154612.301        	8235246.019       
178             	154352.184        	8234452.507       
179             	154338.837        	8234448.173       
180             	154311.401        	8234439.091       
181             	154330.018        	8234505.975       
182             	154321.454        	8234503.093       
183             	154310.467        	8234499.402       
184             	154312.251        	8234384.220       
185             	154366.308        	8234402.809       
186             	154371.693        	8234405.448       
187             	154371.999        	8234404.710       
188             	154225.763        	8235014.399       
189             	154214.573        	8235050.148       
190             	154212.474        	8234962.110       
191             	154224.140        	8234853.257       
192             	154246.912        	8234962.946       
193             	154281.731        	8234829.160       
194             	154282.093        	8234852.958       
195             	154290.130        	8234828.042       
196             	154290.130        	8234829.042       
197             	154222.460        	8234842.543       
198             	153842.861        	8234680.843       
199             	153848.502        	8234684.020       
200             	153890.848        	8234709.381       
201             	153925.121        	8234726.324       
202             	154046.378        	8234746.425       
203             	154054.676        	8234751.057       
204             	154091.488        	8234770.594       
205             	154183.166        	8234806.160       
206             	154223.054        	8234734.927       
207             	154224.784        	8234731.837       
208             	154136.824        	8234797.155       
209             	154168.546        	8234813.421       
210             	153443.231        	8234532.926       
211             	153436.964        	8234530.591       
212             	153417.410        	8234522.192       
213             	153509.537        	8234571.157       
214             	153496.356        	8234565.318       
215             	153445.370        	8234533.873       
216             	153526.760        	8234553.876       
217             	153983.011        	8234330.379       
218             	153971.498        	8234326.430       
219             	154162.160        	8234449.590       
220             	154298.174        	8234379.380       
221             	154300.838        	8234371.624       
222             	154312.969        	8234337.939       
223             	154164.506        	8233970.226       
224             	154161.643        	8233975.566       
225             	154153.054        	8233993.287       
226             	154143.673        	8234012.337       
227             	154134.141        	8234031.805       
228             	154124.648        	8234051.451       
229             	154117.506        	8234066.417       
230             	154108.020        	8234085.850       
231             	154098.450        	8234105.090       
232             	154093.084        	8234116.420       
233             	154083.953        	8234135.337       
234             	154075.205        	8234153.235       
235             	154066.995        	8234170.303       
236             	154061.817        	8234180.618       
237             	154056.638        	8234190.932       
238             	154047.422        	8234209.487       
239             	154041.240        	8234222.407       
240             	154077.789        	8234110.112       
241             	154011.724        	8234084.635       
242             	154105.921        	8234085.078       
243             	154096.600        	8234104.540       
244             	154091.218        	8234115.426       
245             	153724.204        	8234365.216       
246             	153725.414        	8234365.279       
247             	153709.172        	8234359.052       
248             	153709.894        	8234359.353       
249             	153710.872        	8234359.761       
250             	153724.311        	8234362.204       
251             	153724.099        	8234362.444       
252             	153724.306        	8234362.473       
253             	153724.196        	8234364.822       
254             	153724.682        	8234356.376       
255             	153724.428        	8234359.190       
256             	153724.915        	8234354.387       
257             	153801.925        	8234649.195       
258             	153835.769        	8234575.644       
259             	153838.534        	8234569.667       
260             	154000.563        	8234613.449       
261             	154039.199        	8234639.502       
262             	154141.764        	8234787.909       
263             	154182.149        	8234715.521       
264             	154097.163        	8234762.086       
265             	154138.607        	8234688.444       
266             	154094.006        	8234658.634       
267             	154090.994        	8234664.155       
268             	154052.561        	8234735.133       
269             	154029.059        	8234777.420       
270             	153424.713        	8234764.076       
271             	153397.722        	8234751.962       
272             	153334.854        	8234721.487       
273             	153331.589        	8234719.934       
274             	153699.846        	8234402.449       
275             	153685.144        	8234439.444       
276             	153679.671        	8234452.767       
277             	153717.405        	8234469.851       
278             	153729.192        	8234474.663       
279             	153589.399        	8234470.569       
280             	153688.368        	8234512.940       
281             	153709.082        	8234521.957       
282             	153642.102        	8234672.495       
283             	153699.395        	8234548.383       
284             	153680.760        	8234590.592       
285             	153701.967        	8234389.613       
286             	153706.411        	8234386.944       
287             	153725.370        	8234383.373       
288             	153740.636        	8234378.375       
289             	153766.580        	8234369.338       
290             	153775.307        	8234367.253       
291             	153621.338        	8234426.210       
292             	153644.325        	8234415.718       
293             	153663.286        	8234407.161       
294             	153673.970        	8234402.231       
295             	153688.920        	8234395.966       
296             	154341.431        	8234478.445       
369             	153550.500        	8234447.097       
370             	153457.507        	8234486.448       
371             	153397.689        	8234510.526       
372             	153397.682        	8234510.529       
373             	153440.800        	8234538.492       
374             	153639.609        	8234677.692       
375             	153609.410        	8234743.703       
376             	153714.021        	8234604.072       
377             	153779.590        	8234472.752       
378             	153764.544        	8234631.569       
379             	153832.230        	8234484.582       
380             	153846.328        	8234674.320       
381             	153885.910        	8234599.483       
382             	154006.960        	8234617.083       
383             	154050.000        	8234646.053       
384             	154018.040        	8234796.703       
385             	154290.140        	8234831.267       
386             	154220.563        	8234841.591       
387             	154229.014        	8235015.578       
388             	154233.374        	8235016.965       
389             	154238.289        	8235017.600       
390             	154241.579        	8235017.838       
391             	154228.850        	8235015.518       
392             	153712.474        	8234350.825       
393             	153714.983        	8234351.939       
394             	153707.973        	8234353.880       
395             	153711.672        	8234355.569       
396             	153712.860        	8234356.061       
397             	153715.423        	8234361.201       
398             	153718.221        	8234361.881       
399             	153718.864        	8234361.884       
400             	153719.769        	8234361.909       
401             	153720.108        	8234361.906       
402             	153720.928        	8234361.900       
403             	154321.291        	8234314.843       
404             	153770.487        	8234379.900       
405             	154627.641        	8234956.353       
406             	154626.581        	8234851.983       
407             	154726.559        	8234985.683       
408             	154742.468        	8234980.151       
409             	154764.183        	8234965.304       
410             	154774.814        	8234962.233       
411             	154617.643        	8234742.372       
412             	154564.037        	8234726.752       
413             	154638.630        	8235231.051       
417             	154388.042        	8234339.969       
418             	154388.291        	8234339.253       
419             	152907.174        	8234915.349       
420             	152916.737        	8234915.441       
421             	153020.029        	8234916.456       
422             	152906.813        	8234863.091       
423             	152901.102        	8234810.168       
424             	152904.006        	8234821.792       
425             	152906.226        	8234857.650       
426             	152887.580        	8234748.839       
427             	152889.149        	8234763.957       
428             	152957.269        	8234748.990       
429             	153055.680        	8234744.842       
430             	153230.731        	8234956.800       
431             	153243.704        	8234963.464       
432             	153373.611        	8235030.199       
433             	153378.200        	8235032.534       
434             	153252.550        	8234914.980       
435             	153259.035        	8234918.313       
436             	153399.845        	8234990.688       
437             	153408.617        	8234995.253       
438             	153273.192        	8234887.703       
439             	153419.626        	8234963.723       
440             	153428.020        	8234968.745       
441             	153415.385        	8234986.960       
442             	153425.007        	8234972.861       
443             	153381.668        	8235028.194       
444             	153340.798        	8235079.338       
445             	153306.638        	8235121.232       
446             	153316.923        	8235107.981       
447             	153336.177        	8235085.005       
448             	153274.282        	8235104.555       
449             	153280.299        	8235107.541       
450             	153299.362        	8235117.481       
451             	153222.130        	8235078.714       
452             	153233.168        	8235084.590       
453             	153223.145        	8234971.775       
454             	153203.768        	8235009.157       
455             	153248.247        	8234922.221       
456             	153959.869        	8235170.137       
457             	154043.408        	8235214.298       
458             	153609.330        	8234977.918       
459             	153697.419        	8235025.250       
460             	153512.172        	8234923.965       
461             	153521.562        	8234929.994       
462             	153508.865        	8234922.010       
463             	153123.329        	8235165.863       
464             	153130.796        	8235172.993       
465             	153162.869        	8235196.500       
466             	153068.881        	8235153.889       
467             	153121.650        	8235169.482       
468             	153925.560        	8235512.337       
469             	153928.669        	8235514.308       
470             	153941.401        	8235484.303       
471             	153983.291        	8235512.775       
472             	153960.170        	8235573.293       
473             	153983.724        	8235511.642       
474             	154130.182        	8235361.032       
475             	154104.525        	8235404.553       
476             	154150.155        	8235326.357       
477             	153916.820        	8234420.642       
478             	153922.940        	8234422.302       
479             	153935.675        	8234378.938       
480             	153896.481        	8234357.412       
481             	153937.450        	8234372.892       
482             	153949.613        	8234377.484       
483             	153117.261        	8235176.691       
484             	153532.534        	8234845.699       
485             	153837.878        	8234081.935       
486             	153856.179        	8234039.715       
487             	153863.409        	8234027.197       
488             	153937.325        	8233888.405       
489             	153940.524        	8233880.346       
490             	153954.391        	8233845.417       
491             	153956.490        	8233840.130       
492             	154182.299        	8233925.004       
493             	154178.205        	8233923.219       
494             	154173.626        	8233921.221       
495             	154164.289        	8233917.547       
496             	154154.951        	8233913.873       
497             	154143.610        	8233968.237       
498             	153183.374        	8235179.738       
499             	153223.683        	8235199.653       
500             	153225.376        	8235200.490       
501             	153212.830        	8235097.533       
502             	153190.547        	8235062.130       
503             	153200.595        	8235015.319       
504             	154039.263        	8235235.655       
505             	153837.601        	8234082.573       
506             	153270.374        	8235112.139       
507             	153230.248        	8235189.341       
508             	153211.857        	8235013.300       
509             	153333.848        	8235075.782       
512             	153727.655        	8234364.691       
513             	153727.684        	8234364.456       
514             	153729.935        	8234363.920       
515             	153729.270        	8234363.915       
516             	153729.710        	8234363.976       
517             	153382.794        	8234840.224       
518             	154047.839        	8235216.653       
519             	153874.884        	8235117.434       
520             	153950.664        	8235164.093       
521             	153785.481        	8235072.633       
522             	154068.763        	8234304.370       
523             	154071.949        	8234295.020       
524             	154088.551        	8234245.677       
525             	154091.080        	8234238.182       
526             	154132.141        	8234321.862       
527             	154134.759        	8234314.314       
528             	154154.021        	8234256.262       
529             	154183.468        	8234342.038       
530             	154188.124        	8234328.072       
531             	154203.308        	8234281.735       
532             	154205.001        	8234276.592       
533             	153687.123        	8234395.918       
534             	153691.602        	8234388.568       
535             	153698.400        	8234372.908       
536             	153702.118        	8234365.368       
537             	153705.837        	8234357.828       
538             	153691.684        	8234389.950       
539             	153699.194        	8234373.184       
540             	153706.362        	8234357.722       
541             	153712.294        	8234351.507       
542             	153690.403        	8234395.244       
543             	153693.218        	8234393.874       
544             	154246.892        	8234362.300       
545             	154251.255        	8234349.176       
546             	154268.001        	8234299.823       
547             	154251.983        	8234363.926       
548             	154294.895        	8234378.288       
549             	153994.246        	8234279.506       
550             	154009.403        	8234284.575       
551             	154017.039        	8234287.128       
552             	154064.368        	8234302.903       
553             	154007.149        	8234251.721       
554             	153790.206        	8234173.260       
555             	153747.797        	8234270.996       
556             	154033.585        	8234221.542       
557             	154024.536        	8234241.612       
558             	154018.545        	8234253.752       
559             	153950.851        	8234231.678       
560             	153992.768        	8234246.146       
561             	154003.450        	8234250.302       
562             	153795.231        	8234175.088       
563             	153947.130        	8234230.322       
564             	153791.510        	8234173.732       
565             	153769.151        	8234227.708       
566             	153776.331        	8234230.256       
567             	153872.979        	8234264.245       
568             	153927.248        	8234283.510       
569             	153903.122        	8234338.453       
570             	153748.594        	8234283.152       
571             	153742.385        	8234280.327       
572             	154049.092        	8234163.848       
573             	153792.785        	8234175.616       
574             	153793.371        	8234174.408       
575             	153810.433        	8234139.244       
576             	153820.205        	8234142.804       
577             	154022.952        	8234217.154       
578             	153946.730        	8234232.339       
579             	153948.708        	8234227.998       
580             	153928.664        	8234280.338       
581             	153941.583        	8234244.627       
582             	153973.785        	8234236.241       
583             	153997.995        	8234245.511       
584             	154006.120        	8234248.769       
585             	153904.768        	8234333.753       
586             	153958.530        	8234355.710       
587             	154005.299        	8234251.011       
588             	154004.850        	8234252.169       
589             	153432.194        	8234768.747       
590             	153404.747        	8234827.673       
591             	153394.586        	8234847.276       
592             	154064.623        	8234169.868       
593             	154054.664        	8234189.999       
594             	154045.990        	8234208.405       
595             	154038.593        	8234223.701       
596             	154082.210        	8234134.279       
597             	154072.982        	8234152.826       
598             	153452.702        	8234716.414       
599             	153449.061        	8234725.603       
600             	153437.850        	8234751.556       
601             	153499.607        	8234614.898       
602             	153487.633        	8234609.959       
603             	153384.796        	8234566.719       
604             	153365.856        	8234621.147       
605             	153373.565        	8234592.194       
606             	153451.391        	8234659.914       
607             	153370.989        	8234623.456       
608             	153431.737        	8234702.969       
609             	153360.203        	8234672.485       
610             	153349.614        	8234668.025       
611             	153631.577        	8234430.485       
612             	153569.515        	8234514.035       
613             	153569.545        	8234514.035       
614             	153640.375        	8234544.126       
615             	153650.546        	8234543.906       
616             	153685.122        	8234548.221       
617             	153595.635        	8234650.522       
618             	153577.609        	8234690.441       
619             	153596.458        	8234648.781       
620             	153607.288        	8234656.043       
621             	153541.191        	8234557.555       
622             	153608.055        	8234596.107       
623             	153656.322        	8234621.556       
624             	153572.905        	8234638.485       
625             	153514.973        	8234613.227       
626             	153471.329        	8234707.749       
627             	153471.370        	8234707.766       
628             	153540.191        	8234738.973       
629             	153553.363        	8234744.795       
630             	153450.546        	8234756.710       
631             	153517.116        	8234786.313       
632             	153532.178        	8234793.109       
633             	153576.556        	8234446.239       
634             	153581.610        	8234443.336       
635             	153595.572        	8234436.478       
636             	153569.041        	8234460.305       
637             	153549.110        	8234504.773       
638             	153559.143        	8234482.187       
639             	153527.835        	8234551.643       
640             	153531.200        	8234542.736       
641             	153531.202        	8234542.730       
642             	153484.781        	8234650.026       
643             	153492.327        	8234631.714       
644             	153474.702        	8234670.423       
645             	153460.735        	8234703.192       
646             	153455.198        	8234714.124       
647             	153439.303        	8234750.988       
648             	153449.853        	8234725.742       
649             	153125.302        	8235041.950       
650             	153075.946        	8235136.512       
651             	153018.337        	8235137.941       
652             	153024.755        	8235139.923       
653             	153057.216        	8235150.208       
654             	153063.378        	8235039.166       
655             	153023.151        	8235121.718       
656             	153025.546        	8235024.577       
657             	153018.970        	8235045.108       
658             	152991.818        	8235127.092       
659             	152989.911        	8235129.424       
660             	152941.820        	8235107.627       
661             	153011.520        	8235019.169       
662             	152980.591        	8235012.668       
663             	152974.455        	8235011.028       
664             	153080.289        	8235005.920       
665             	152833.057        	8234972.197       
666             	152845.401        	8234944.450       
667             	152914.493        	8234863.043       
668             	153034.711        	8234862.294       
669             	153034.280        	8234921.530       
670             	153089.778        	8235010.685       
671             	153167.243        	8235049.210       
672             	154031.874        	8235482.559       
673             	153967.413        	8235435.578       
674             	154076.666        	8235450.716       
675             	153985.752        	8235384.623       
676             	154007.193        	8235336.087       
677             	154010.734        	8235331.053       
678             	154119.819        	8235353.570       
679             	154030.194        	8235288.544       
680             	153956.088        	8235571.742       
681             	153879.019        	8235545.433       
682             	153929.616        	8234225.615       
683             	153497.207        	8234655.343       
684             	153562.157        	8234683.647       
685             	153970.644        	8235430.784       
686             	153716.530        	8234352.641       
687             	153728.248        	8234363.897       
693             	154638.130        	8235169.063       
694             	154633.620        	8235062.883       
695             	154634.030        	8235022.993       
696             	154221.087        	8234860.756       
697             	153681.843        	8234398.218       
698             	153674.031        	8234401.516       
699             	153663.038        	8234406.523       
700             	153644.023        	8234415.129       
701             	153621.621        	8234424.765       
702             	153605.666        	8234431.940       
703             	153580.959        	8234442.655       
704             	153576.111        	8234445.119       
705             	153572.839        	8234449.733       
706             	153568.620        	8234459.661       
707             	153558.655        	8234482.369       
708             	153547.789        	8234505.903       
709             	153530.699        	8234542.747       
710             	153525.866        	8234554.895       
711             	153516.278        	8234574.233       
712             	153508.024        	8234594.908       
713             	153491.765        	8234631.722       
714             	153483.618        	8234651.394       
715             	153474.669        	8234667.615       
716             	153474.262        	8234668.541       
717             	153472.867        	8234671.138       
718             	153455.770        	8234709.618       
719             	153948.988        	8234230.997       
720             	154185.810        	8233918.329       
721             	154188.081        	8233919.312       
722             	154816.033        	8235094.401       
723             	154810.611        	8235075.057       
724             	154805.521        	8235056.002       
725             	154811.167        	8235054.363       
726             	154810.508        	8235052.139       
727             	154805.227        	8235032.443       
728             	154799.924        	8235012.538       
729             	154793.877        	8234990.637       
730             	154790.170        	8234976.704       
731             	154784.064        	8234957.424       
732             	154778.736        	8234960.658       
733             	154777.234        	8234961.631       
734             	154800.233        	8234950.876       
735             	154819.423        	8234945.692       
736             	154826.617        	8234943.483       
737             	154831.078        	8234942.228       
738             	154851.053        	8234936.630       
739             	154869.464        	8234931.506       
740             	154888.891        	8234926.167       
741             	154887.048        	8234917.098       
742             	154881.466        	8234897.826       
743             	154875.846        	8234879.033       
744             	154819.644        	8234923.378       
745             	154814.111        	8234903.264       
746             	154808.466        	8234882.602       
747             	154803.617        	8234863.667       
748             	154825.157        	8234965.748       
749             	154830.666        	8234986.738       
750             	154835.450        	8235005.833       
751             	154841.336        	8235027.556       
752             	154846.997        	8235048.778       
753             	154852.155        	8235068.481       
754             	154857.458        	8235087.061       
755             	154894.016        	8234943.319       
756             	154899.346        	8234963.147       
757             	154904.801        	8234983.366       
758             	154909.370        	8234999.671       
759             	154915.376        	8235020.762       
760             	154921.123        	8235041.341       
761             	154926.483        	8235061.014       
762             	154828.748        	8235114.081       
763             	154831.678        	8235119.449       
764             	154832.724        	8235120.844       
765             	154833.583        	8235123.015       
766             	154821.775        	8235113.814       
767             	154825.174        	8235125.414       
768             	154854.595        	8235116.657       
769             	154855.075        	8235116.905       
770             	154861.614        	8235137.478       
771             	154866.571        	8235157.065       
772             	154869.267        	8235167.362       
773             	154871.114        	8235172.225       
774             	154875.100        	8235180.398       
775             	154862.021        	8235102.263       
776             	154865.008        	8235113.871       
777             	154866.538        	8235119.831       
778             	154876.710        	8235117.680       
779             	154896.098        	8235113.136       
780             	154915.612        	8235108.330       
781             	154937.544        	8235101.926       
782             	154931.904        	8235080.864       
783             	154861.622        	8235114.793       
784             	154954.970        	8235096.425       
785             	154975.736        	8235090.078       
786             	154992.442        	8235085.559       
787             	155004.921        	8235082.186       
788             	155003.801        	8235070.912       
789             	155002.414        	8235059.666       
790             	154997.395        	8235040.771       
791             	154991.668        	8235020.396       
792             	154986.113        	8234999.106       
793             	154980.861        	8234979.945       
794             	154975.651        	8234959.814       
795             	154970.467        	8234940.590       
796             	154964.929        	8234921.407       
797             	154964.531        	8234919.631       
798             	154963.185        	8234915.902       
799             	154961.749        	8234914.202       
800             	154959.912        	8234910.502       
801             	154955.123        	8234895.065       
802             	154935.075        	8234901.106       
803             	154930.557        	8234903.326       
804             	154919.160        	8234908.365       
805             	154902.596        	8234912.550       
806             	154955.315        	8234894.978       
807             	154963.247        	8234893.252       
808             	154952.853        	8234883.993       
809             	154952.234        	8234879.548       
810             	154949.522        	8234869.995       
811             	154797.738        	8234840.385       
812             	154791.731        	8234820.386       
813             	154786.663        	8234800.539       
814             	154780.831        	8234780.509       
815             	154780.274        	8234778.488       
816             	154775.480        	8234761.107       
817             	154769.613        	8234740.525       
818             	154769.377        	8234735.611       
819             	154770.220        	8234731.407       
820             	154772.301        	8234726.064       
821             	154774.879        	8234722.022       
822             	154780.082        	8234715.377       
823             	154870.407        	8234858.232       
824             	154865.134        	8234839.612       
825             	154859.607        	8234818.481       
826             	154854.792        	8234800.878       
827             	154849.584        	8234781.029       
828             	154843.954        	8234760.839       
829             	154839.040        	8234740.963       
830             	154832.975        	8234716.671       
831             	154827.247        	8234697.628       
832             	154822.167        	8234678.191       
833             	154843.635        	8234679.370       
834             	154863.624        	8234681.934       
835             	154880.541        	8234684.182       
836             	154888.707        	8234685.408       
837             	154895.651        	8234687.377       
838             	154899.628        	8234689.209       
839             	154901.873        	8234693.546       
840             	154909.044        	8234712.304       
841             	154912.595        	8234731.059       
842             	154916.913        	8234749.627       
843             	154921.853        	8234769.707       
844             	154927.642        	8234789.977       
845             	154931.106        	8234802.638       
846             	154937.349        	8234826.302       
847             	154944.340        	8234850.646       
848             	154875.222        	8235180.552       
849             	154889.885        	8235206.274       
850             	154896.007        	8235217.642       
851             	154891.225        	8235220.332       
852             	154876.694        	8235229.565       
853             	154864.613        	8235239.089       
854             	154864.598        	8235246.638       
855             	154865.686        	8235263.120       
856             	154866.620        	8235285.711       
857             	154868.098        	8235309.370       
858             	154868.429        	8235313.571       
859             	154868.943        	8235314.756       
860             	154870.925        	8235316.091       
861             	154876.319        	8235318.384       
862             	154893.114        	8235324.084       
863             	154910.738        	8235330.446       
864             	154913.935        	8235331.404       
865             	154912.241        	8235337.119       
866             	154913.340        	8235332.818       
867             	154915.619        	8235330.364       
868             	154924.235        	8235316.005       
869             	154931.140        	8235308.641       
870             	154934.653        	8235306.216       
871             	154938.849        	8235302.444       
872             	154936.389        	8235299.088       
873             	154924.228        	8235273.103       
874             	154898.528        	8235222.991       
875             	154908.636        	8235240.787       
876             	154915.959        	8235255.565       
877             	154917.617        	8235200.114       
878             	154929.521        	8235217.059       
879             	154950.698        	8235241.725       
880             	154962.531        	8235255.322       
881             	154974.083        	8235268.958       
882             	154975.805        	8235271.083       
883             	154952.678        	8235289.837       
884             	154973.836        	8235272.526       
885             	154988.220        	8235260.358       
886             	155004.439        	8235246.749       
887             	155011.381        	8235240.697       
888             	155012.106        	8235240.065       
889             	155002.727        	8235228.714       
890             	154989.327        	8235213.348       
891             	154975.464        	8235197.035       
892             	154964.915        	8235184.689       
893             	154960.679        	8235179.780       
894             	154990.974        	8235137.141       
895             	155003.651        	8235152.713       
896             	155017.290        	8235168.489       
897             	155029.978        	8235183.120       
898             	155043.594        	8235198.946       
899             	155050.626        	8235207.223       
900             	155077.644        	8235159.274       
901             	155086.585        	8235175.278       
902             	155026.847        	8235227.314       
903             	155049.761        	8235208.091       
904             	155049.769        	8235208.139       
905             	155053.714        	8235212.808       
906             	155069.115        	8235190.912       
907             	155082.092        	8235179.416       
908             	155091.514        	8235180.636       
909             	155101.046        	8235190.300       
910             	155119.514        	8235211.282       
911             	155133.000        	8235227.174       
912             	155146.252        	8235242.941       
913             	155165.035        	8235264.995       
914             	155177.752        	8235279.957       
915             	155185.568        	8235289.724       
916             	155186.260        	8235293.331       
917             	155194.905        	8235224.606       
918             	155214.809        	8235242.738       
919             	155221.774        	8235249.160       
920             	155228.977        	8235255.802       
921             	155222.511        	8235262.808       
922             	155208.364        	8235274.943       
923             	155197.817        	8235284.037       
924             	155178.355        	8235299.803       
925             	155163.306        	8235312.710       
926             	155149.850        	8235324.223       
927             	155060.789        	8235221.211       
928             	155077.353        	8235240.292       
929             	155093.593        	8235258.758       
930             	155110.151        	8235277.786       
931             	155122.003        	8235291.792       
932             	155138.005        	8235310.129       
933             	155011.392        	8235240.710       
934             	155016.334        	8235246.544       
935             	155026.504        	8235258.358       
936             	155042.941        	8235276.580       
937             	155057.594        	8235293.693       
938             	155070.696        	8235309.224       
939             	155086.754        	8235327.776       
940             	155103.041        	8235346.487       
941             	155111.224        	8235356.119       
942             	155145.898        	8235327.730       
943             	155132.872        	8235338.926       
944             	155121.245        	8235348.450       
945             	155111.701        	8235355.754       
946             	155102.880        	8235364.712       
947             	155089.058        	8235376.171       
948             	155076.421        	8235386.066       
949             	155072.222        	8235389.418       
950             	155069.046        	8235385.437       
951             	155060.672        	8235374.942       
952             	155047.190        	8235358.309       
953             	155032.369        	8235340.782       
954             	155019.537        	8235325.700       
955             	155004.751        	8235308.715       
956             	154992.797        	8235294.687       
957             	154978.724        	8235278.087       
958             	154941.379        	8235315.881       
959             	154947.635        	8235321.864       
960             	154951.665        	8235324.746       
961             	154965.151        	8235332.472       
962             	154974.287        	8235337.250       
963             	153383.781        	8234525.128       
964             	153365.960        	8234533.430       
965             	153346.187        	8234542.666       
966             	153327.192        	8234552.114       
967             	153317.884        	8234557.024       
968             	153313.618        	8234559.491       
969             	153309.999        	8234562.061       
970             	153293.633        	8234575.080       
971             	153277.898        	8234588.073       
972             	153260.508        	8234602.242       
973             	153245.099        	8234614.695       
974             	153229.040        	8234627.536       
975             	153208.621        	8234643.449       
976             	153190.516        	8234657.127       
977             	153174.903        	8234668.934       
978             	153163.428        	8234677.636       
979             	153148.782        	8234688.951       
980             	153146.109        	8234698.678       
981             	153162.407        	8234704.536       
982             	153189.649        	8234713.278       
983             	153243.922        	8234731.276       
984             	153258.323        	8234734.978       
985             	153280.963        	8234743.326       
986             	153319.399        	8234755.638       
987             	153341.179        	8234763.196       
988             	153362.786        	8234770.843       
989             	153380.879        	8234781.837       
990             	153394.802        	8234786.830       
991             	153412.269        	8234793.094       
992             	153943.999        	8234239.071       
993             	154182.011        	8233931.177       
994             	154181.651        	8233931.958       
995             	154175.831        	8233944.505       
996             	154170.010        	8233957.051       
1000            	154185.548        	8233923.497       
1001            	154186.320        	8233922.387       
1002            	154188.169        	8233918.806       
1003            	154185.132        	8233924.207       
1004            	154205.048        	8233952.524       
1005            	154205.815        	8233952.751       
1006            	154207.034        	8233948.741       
1007            	154206.135        	8233948.503       
1008            	154208.196        	8233944.919       
1009            	154207.018        	8233944.608       
1024            	154185.132        	8233924.210       
1025            	154184.592        	8233925.577       
1080            	153948.117        	8235166.576       
1081            	153914.289        	8235207.721       
1082            	153904.891        	8235218.966       
1083            	153873.764        	8235257.828       
1084            	153876.904        	8235493.525       
1085            	153909.334        	8235454.158       
1086            	153920.989        	8235439.424       
1087            	153938.953        	8235416.391       
1088            	153939.402        	8235415.682       
1089            	153936.130        	8235411.533       
1090            	153963.904        	8235369.632       
1091            	153990.737        	8235326.706       
1092            	153875.689        	8235492.626       
1093            	153858.352        	8235513.433       
1094            	153952.557        	8235165.336       
1095            	153952.342        	8235165.195       
1096            	153396.073        	8234848.065       
1097            	153393.614        	8234846.616       
1098            	153382.817        	8234840.236       
1099            	153407.713        	8234854.760       
1100            	153431.624        	8234800.728       
1101            	153412.296        	8234793.103       
1102            	153416.516        	8234794.877       
1103            	153417.948        	8234795.651       
1104            	153418.484        	8234795.801       
1105            	153425.320        	8234764.349       
1106            	153450.521        	8234756.699       
1107            	153496.403        	8234565.347       
1108            	153589.330        	8234470.531       
1109            	153387.683        	8234514.822       
1110            	153324.787        	8234542.491       
1111            	153304.246        	8234554.978       
1112            	153293.833        	8234564.217       
1113            	153277.309        	8234578.439       
1114            	153265.119        	8234588.774       
1115            	153254.369        	8234596.921       
1116            	153722.198        	8234365.083       
1117            	153721.766        	8234364.705       
1118            	153721.736        	8234364.679       
1119            	153721.599        	8234364.559       
1120            	154210.136        	8233871.259       
1121            	154049.503        	8233810.662       
1122            	154005.415        	8233794.031       
1123            	154258.021        	8233775.578       
1124            	154065.567        	8234416.818       
1125            	153956.692        	8234379.867       
1126            	154063.653        	8234422.373       
1127            	154020.650        	8234547.124       
1128            	153733.957        	8234298.419       
1129            	153724.945        	8234318.231       
1130            	153717.431        	8234333.953       
1131            	153710.016        	8234349.657       
1132            	153724.121        	8234361.194       
1133            	153723.201        	8234365.150       
1134            	153724.293        	8234361.743       
1144            	153400.567        	8234517.205       
1145            	154186.472        	8233918.071       
1146            	153855.575        	8235279.342       
1147            	153851.843        	8235284.202       
1148            	153823.558        	8235317.342       
1149            	153823.270        	8235317.682       
1150            	153802.249        	8235342.457       
1151            	153790.911        	8235356.375       
1152            	153790.717        	8235356.673       
1153            	153760.242        	8235393.232       
1154            	153758.737        	8235394.665       
1155            	153727.313        	8235432.413       
1156            	153726.863        	8235432.946       
1157            	153695.329        	8235470.294       
1158            	153659.867        	8235513.456       
1159            	153657.678        	8235516.125       
1160            	153885.160        	8235265.502       
1161            	153908.972        	8235277.767       
1162            	153933.856        	8235291.998       
1163            	153943.065        	8235298.223       
1164            	153963.432        	8235370.387       
1165            	153935.569        	8235348.324       
1166            	153908.755        	8235324.582       
1167            	153887.673        	8235307.741       
1168            	153883.657        	8235304.412       
1169            	153810.309        	8235249.278       
1170            	153803.759        	8235242.895       
1171            	153800.973        	8235298.986       
1172            	153752.280        	8235258.650       
1173            	153753.377        	8235326.297       
1174            	153740.711        	8235380.157       
1175            	153701.247        	8235347.245       
1176            	153690.356        	8235337.272       
1177            	153665.203        	8235446.403       
1178            	153638.246        	8235422.233       
1179            	153769.465        	8235469.636       
1180            	153788.120        	8235486.273       
1181            	153802.007        	8235496.293       
1182            	153783.627        	8235415.062       
1183            	153847.102        	8235468.280       
1184            	153862.483        	8235482.855       
1185            	153859.658        	8235414.195       
1186            	153881.844        	8235432.688       
1187            	153949.832        	8235392.453       
1188            	153953.641        	8235386.749       
1189            	153869.930        	8235356.676       
1190            	153874.381        	8235360.264       
1191            	153879.177        	8235363.920       
1192            	153899.403        	8235382.030       
1193            	153916.025        	8235396.402       
1194            	153606.845        	8235397.461       
1195            	153643.562        	8235362.900       
1196            	153675.792        	8235324.497       
1197            	153708.652        	8235288.932       
1198            	153748.728        	8235256.034       
1199            	153783.476        	8235226.736       
1200            	153820.976        	8235511.604       
1201            	153909.660        	8235219.957       
1202            	153915.565        	8235221.402       
1203            	153949.426        	8235243.781       
1204            	153989.464        	8235267.833       
1205            	154010.094        	8235281.412       
1206            	153923.205        	8234783.273       
1207            	153891.520        	8234765.542       
1208            	153856.090        	8234745.379       
1209            	153829.978        	8234731.344       
1210            	153827.383        	8234736.842       
1211            	153854.272        	8234751.107       
1212            	153890.471        	8234771.472       
1213            	153920.982        	8234788.129       
1214            	153903.514        	8234828.879       
1215            	153872.112        	8234811.831       
1216            	153830.143        	8234788.295       
1217            	153799.870        	8234771.324       
1218            	153796.893        	8234776.505       
1219            	153828.227        	8234793.848       
1220            	153869.027        	8234816.686       
1221            	153901.866        	8234833.520       
1222            	153940.849        	8234745.481       
1223            	153931.973        	8234765.333       
1224            	153900.657        	8234836.058       
1225            	153898.622        	8234840.588       
1226            	153882.572        	8234876.032       
1227            	153860.853        	8234864.472       
1228            	153801.231        	8234830.629       
1229            	153783.363        	8234821.271       
1230            	153781.400        	8234825.165       
1231            	153798.931        	8234834.563       
1232            	153851.302        	8234864.623       
1233            	153881.098        	8234880.928       
1234            	153876.609        	8234892.225       
1235            	153873.666        	8234898.473       
1236            	153862.975        	8234920.734       
1237            	153836.106        	8234906.667       
1238            	153793.148        	8234883.183       
1239            	153756.627        	8234863.707       
1240            	153754.776        	8234868.122       
1241            	153791.094        	8234886.993       
1242            	153832.143        	8234907.976       
1243            	153861.126        	8234924.706       
1244            	153851.125        	8234948.491       
1245            	153848.652        	8234954.486       
1246            	153843.625        	8234964.959       
1247            	153839.092        	8234963.250       
1248            	153792.556        	8234939.331       
1249            	153756.999        	8234920.848       
1250            	153738.957        	8234910.755       
1251            	153736.467        	8234915.220       
1252            	153752.151        	8234923.737       
1253            	153792.217        	8234944.995       
1254            	153837.151        	8234967.339       
1255            	153841.862        	8234969.031       
1256            	153879.953        	8234971.368       
1257            	153928.531        	8234998.323       
1258            	153971.254        	8235022.787       
1259            	154014.856        	8235046.769       
1260            	154046.530        	8235064.772       
1261            	153881.474        	8234966.424       
1262            	153929.247        	8234993.313       
1263            	153975.214        	8235017.719       
1264            	154018.151        	8235040.599       
1265            	154043.675        	8235052.471       
1266            	154063.667        	8235032.848       
1267            	154084.408        	8234988.389       
1268            	154102.392        	8234953.466       
1269            	153924.203        	8234849.335       
1270            	153948.312        	8234861.314       
1271            	153962.787        	8234831.998       
1272            	153970.270        	8234815.855       
1273            	153972.076        	8234812.787       
1274            	153977.489        	8234814.059       
1275            	154007.308        	8234831.153       
1276            	154033.239        	8234846.237       
1277            	154018.458        	8234875.910       
1278            	154009.819        	8234894.257       
1279            	154063.456        	8234809.853       
1280            	154075.292        	8234789.087       
1281            	154093.121        	8234799.048       
1282            	154098.235        	8234801.973       
1283            	154091.288        	8234803.225       
1284            	154061.208        	8234868.947       
1285            	154041.818        	8234913.029       
1286            	154096.408        	8234806.167       
1287            	154063.733        	8234876.441       
1288            	154047.234        	8234915.986       
1289            	154072.911        	8234929.131       
1290            	154095.418        	8234942.150       
1291            	154106.853        	8234917.573       
1292            	154128.964        	8234868.690       
1293            	154144.347        	8234835.930       
1294            	154149.048        	8234838.123       
1295            	154135.156        	8234869.687       
1296            	154112.838        	8234919.930       
1297            	154100.947        	8234945.406       
1298            	154127.370        	8234960.633       
1299            	154149.942        	8234971.368       
1300            	153944.291        	8234866.400       
1301            	154005.894        	8234899.873       
1302            	154050.116        	8234923.799       
1303            	154095.802        	8234950.289       
1304            	154126.753        	8234966.184       
1305            	154147.856        	8234977.003       
1306            	153925.103        	8234919.870       
1307            	153978.658        	8234947.557       
1308            	154032.965        	8234979.177       
1309            	154059.476        	8234993.539       
1310            	154068.881        	8234997.844       
1311            	154072.563        	8234997.405       
1312            	154075.870        	8234994.391       
1313            	153923.850        	8234924.591       
1314            	153975.705        	8234952.779       
1315            	154039.212        	8234988.496       
1316            	154063.249        	8235002.729       
1317            	154066.583        	8235005.055       
1318            	154067.994        	8235008.964       
1319            	154047.411        	8235048.700       
1320            	154057.088        	8235031.365       
1321            	153832.460        	8234989.922       
1322            	153819.096        	8235019.795       
1323            	153866.367        	8235045.247       
1324            	153903.806        	8235066.938       
1325            	153948.852        	8235090.834       
1326            	154033.754        	8235138.681       
1327            	154068.413        	8235155.291       
1328            	154071.387        	8235150.398       
1329            	154102.317        	8235083.162       
1330            	154136.207        	8235004.487       
1331            	154158.392        	8234952.470       
1332            	154173.487        	8234913.398       
1333            	154197.086        	8234853.049       
1334            	154202.322        	8234838.407       
1335            	154202.759        	8234837.262       
1336            	153481.769        	8234918.126       
1337            	153475.683        	8234926.077       
1338            	153440.117        	8234970.663       
1339            	153407.664        	8235010.005       
1340            	153376.417        	8235048.138       
1341            	153362.537        	8235064.030       
1342            	153464.124        	8235096.174       
1343            	153503.260        	8235062.374       
1344            	153580.631        	8235048.495       
1345            	153610.888        	8235065.338       
1346            	153479.778        	8234920.944       
1347            	154113.862        	8234433.209       
1348            	154158.864        	8234448.483       
1349            	154112.306        	8234438.886       
1350            	154075.537        	8234573.053       
1351            	154160.387        	8234455.204       
1352            	154134.858        	8234536.083       
1353            	153901.941        	8234578.926       
1354            	153915.170        	8234540.825       
1355            	153964.382        	8234413.296       
1356            	154009.362        	8234427.584       
1357            	153952.741        	8234580.513       
1358            	154184.138        	8233934.865       
1359            	154232.804        	8233833.507       
1360            	154530.143        	8233923.135       
1361            	154510.694        	8233917.434       
1362            	154492.495        	8233910.216       
1363            	154473.255        	8233902.681       
1364            	154454.785        	8233894.830       
1365            	154447.032        	8233892.267       
1366            	154440.788        	8233891.118       
1367            	154431.273        	8233890.747       
1368            	154410.333        	8233886.485       
1369            	154390.020        	8233880.344       
1370            	154370.154        	8233874.658       
1371            	154349.538        	8233868.973       
1372            	154330.823        	8233863.757       
1373            	154311.663        	8233858.592       
1374            	154291.276        	8233852.285       
1375            	154272.897        	8233846.047       
1376            	154253.767        	8233839.917       
1377            	154575.772        	8233942.647       
1378            	154569.686        	8233954.056       
1379            	154557.665        	8233976.293       
1380            	154547.970        	8233997.249       
1381            	154538.550        	8234017.983       
1382            	154527.225        	8234042.257       
1383            	154521.007        	8234058.762       
1384            	154514.231        	8234076.065       
1385            	154505.831        	8234097.431       
1386            	154498.282        	8234114.434       
1387            	154488.044        	8234138.004       
1388            	154479.783        	8234158.240       
1389            	154471.011        	8234177.904       
1390            	154461.851        	8234198.931       
1391            	154452.826        	8234220.084       
1392            	154445.660        	8234237.011       
1393            	154437.679        	8234255.148       
1394            	154430.026        	8234273.187       
1395            	154420.970        	8234294.488       
1396            	154413.266        	8234313.028       
1397            	154404.453        	8234331.120       
1398            	154396.156        	8234349.368       
1399            	154388.410        	8234368.410       
1400            	154383.202        	8234388.344       
1401            	154380.080        	8234401.917       
1402            	154377.747        	8234407.958       
1403            	154334.362        	8234514.376       
1404            	154334.219        	8234514.751       
1405            	154228.565        	8234801.135       
1406            	154216.825        	8234831.970       
1407            	154356.051        	8234459.946       
1408            	154348.141        	8234478.141       
1409            	154373.524        	8234418.892       
1410            	154364.170        	8234440.767       
1411            	154212.451        	8234840.962       
1412            	154208.068        	8234853.184       
1413            	154201.713        	8234870.180       
1414            	154194.341        	8234889.553       
1415            	154189.521        	8234902.539       
1416            	154187.404        	8234908.243       
1417            	154184.327        	8234916.166       
1418            	154179.970        	8234927.385       
1419            	154172.933        	8234946.117       
1420            	154165.465        	8234964.761       
1421            	154205.671        	8234964.399       
1422            	154169.745        	8234966.217       
1423            	154542.381        	8233937.324       
1424            	154542.687        	8233936.648       
1434            	154208.939        	8233942.474       
1446            	154208.019        	8233942.237       
1447            	154205.114        	8233941.489       
1448            	154188.043        	8233936.140       
1449            	154185.596        	8233935.373       
1450            	154211.714        	8233932.047       
1451            	154205.088        	8233930.119       
1452            	154205.138        	8233930.792       
1453            	154193.233        	8233926.390       
1458            	154204.760        	8233952.439       
1459            	154205.845        	8233948.427       
1460            	154206.728        	8233944.531       
1465            	154205.161        	8233931.091       
1466            	154209.068        	8233941.991       
1467            	154209.406        	8233940.721       
1468            	154210.272        	8233937.465       
1469            	154211.168        	8233934.098       
1470            	154207.810        	8233940.300       
1471            	154208.100        	8233940.376       
1472            	154208.824        	8233937.083       
1473            	154209.114        	8233937.159       
1474            	154209.665        	8233933.736       
1475            	154209.957        	8233933.806       
1476            	154188.404        	8233924.871       
1477            	154186.925        	8233924.405       
1478            	154186.733        	8233924.345       
1479            	154192.949        	8233927.292       
1480            	154191.267        	8233926.763       
1481            	154188.962        	8233926.038       
1482            	154189.242        	8233925.134       
1483            	154184.117        	8233934.910       
1484            	154182.906        	8233934.530       
1485            	154316.351        	8234507.589       
1486            	154327.814        	8234511.439       
1487            	153972.781        	8234391.532       
1488            	153891.515        	8234362.252       
1489            	153875.131        	8234357.236       
1490            	154333.948        	8234513.499       
1491            	154336.706        	8234508.223       
1492            	154341.512        	8234495.611       
1493            	154334.611        	8234513.722       
1494            	154335.546        	8234514.078       
1495            	154342.447        	8234495.966       
1496            	154349.075        	8234478.570       
1497            	154226.925        	8234802.631       
1498            	154215.887        	8234831.621       
1499            	154227.634        	8234800.771       
1500            	154335.155        	8234515.104       
1501            	154335.296        	8234514.732       
1502            	154577.167        	8233942.156       
1503            	154576.654        	8233943.118       
1504            	154570.567        	8233954.529       
1505            	154558.560        	8233976.741       
1506            	154548.879        	8233997.666       
1507            	154539.458        	8234018.401       
1508            	154528.147        	8234042.645       
1509            	154521.941        	8234059.121       
1510            	154515.162        	8234076.430       
1511            	154506.754        	8234097.817       
1512            	154499.198        	8234114.836       
1513            	154488.966        	8234138.392       
1514            	154480.703        	8234158.633       
1515            	154471.926        	8234178.307       
1516            	154462.769        	8234199.327       
1517            	154453.746        	8234220.475       
1518            	154446.578        	8234237.407       
1519            	154438.597        	8234255.545       
1520            	154430.946        	8234273.578       
1521            	154421.892        	8234294.876       
1522            	154414.178        	8234313.439       
1523            	154405.358        	8234331.546       
1524            	154397.075        	8234349.764       
1525            	154389.361        	8234368.726       
1526            	154384.173        	8234388.583       
1527            	154381.039        	8234402.211       
1528            	154374.457        	8234419.252       
1529            	154356.815        	8234461.014       
1530            	154374.444        	8234419.285       
1531            	154365.090        	8234441.159       
1532            	154356.972        	8234460.336       
1533            	154530.424        	8233922.175       
1534            	154511.020        	8233916.487       
1535            	154492.862        	8233909.286       
1536            	154473.633        	8233901.755       
1537            	154455.138        	8233893.894       
1538            	154447.281        	8233891.296       
1539            	154440.899        	8233890.122       
1540            	154431.393        	8233889.751       
1541            	154410.578        	8233885.514       
1542            	154390.302        	8233879.385       
1543            	154370.425        	8233873.695       
1544            	154349.805        	8233868.009       
1545            	154331.087        	8233862.793       
1546            	154311.941        	8233857.631       
1547            	154291.585        	8233851.334       
1548            	154273.210        	8233845.097       
1549            	154254.066        	8233838.963       
1550            	154233.096        	8233832.551       
1551            	154231.959        	8233832.203       
1552            	154530.536        	8233922.216       
1553            	154576.165        	8233941.728       
1554            	154325.534        	8234511.411       
1555            	154289.739        	8234609.714       
1557            	154218.069        	8234800.523       
1558            	154207.730        	8234828.589       
1559            	154325.778        	8234510.755       
1560            	154206.980        	8234828.310       
1561            	154204.194        	8234827.275       
1562            	154215.293        	8234833.303       
1563            	154213.335        	8234838.269       
1564            	154213.584        	8234838.447       
1565            	154215.392        	8234839.264       
1566            	154219.828        	8234841.217       
1567            	154227.253        	8234801.889       
1568            	154378.026        	8234852.180       
1569            	154403.409        	8234861.216       
1570            	154418.031        	8234865.612       
1571            	154421.206        	8234863.660       
1572            	154423.312        	8234862.240       
1573            	154425.438        	8234860.824       
1574            	154427.385        	8234859.507       
1575            	154429.353        	8234858.193       
1576            	154429.767        	8234855.482       
1577            	154430.181        	8234852.771       
1578            	154430.717        	8234846.591       
1579            	154431.252        	8234840.410       
1580            	154432.954        	8234817.826       
1581            	154435.545        	8234799.086       
1582            	154439.284        	8234779.831       
1583            	154442.372        	8234761.590       
1584            	154443.116        	8234755.995       
1585            	154443.854        	8234750.395       
1586            	154447.332        	8234728.722       
1587            	154448.576        	8234724.438       
1588            	154242.112        	8234807.701       
1589            	154257.855        	8234812.836       
1590            	154268.751        	8234816.482       
1591            	154279.647        	8234820.128       
1592            	154305.113        	8234828.649       
1593            	154332.175        	8234837.262       
1594            	154357.449        	8234845.626       
1595            	154234.376        	8234804.703       
1596            	154239.904        	8234806.968       
1597            	154230.749        	8234803.394       
1598            	154450.370        	8234721.525       
1599            	154454.286        	8234718.985       
1600            	154459.472        	8234716.551       
1601            	154465.081        	8234714.540       
1602            	154470.161        	8234714.011       
1603            	154535.566        	8234711.789       
1604            	154564.459        	8234717.927       
1605            	154622.773        	8234737.295       
1606            	154767.493        	8234782.013       
1607            	154715.264        	8234773.916       
1608            	154629.123        	8234747.031       
1609            	155111.383        	8235355.998       
1610            	155011.955        	8235240.196       
1611            	155011.531        	8235240.566       
1612            	155048.429        	8235376.025       
1613            	155156.623        	8235190.413       
1614            	155080.026        	8235138.026       
1615            	155070.501        	8235136.835       
1616            	155012.954        	8235081.669       
1617            	154186.927        	8233923.827       
1618            	154188.492        	8233919.661       
1619            	154182.275        	8233930.604       
1620            	154184.123        	8233931.292       
1621            	154182.559        	8233929.988       
1622            	154184.536        	8233930.191       
1623            	154186.390        	8233925.257       
1624            	154185.460        	8233924.907       
1625            	154185.584        	8233924.642       
1626            	154186.011        	8233917.871       
1627            	153994.594        	8233793.001       
1636            	153006.138        	8234939.534       
1637            	152993.159        	8234957.383       
1638            	152987.625        	8234964.569       
1639            	152984.331        	8234969.642       
1640            	152980.246        	8234976.955       
1641            	153563.330        	8235102.068       
1642            	153564.281        	8235102.696       
1643            	153564.455        	8235102.462       
1644            	153564.693        	8235102.631       
1645            	153564.357        	8235103.108       
1646            	153564.112        	8235102.949       
1647            	153568.724        	8235162.087       
1648            	153568.879        	8235161.836       
1649            	153569.135        	8235161.982       
1650            	153568.821        	8235162.470       
1651            	153568.565        	8235162.324       
1652            	152879.537        	8234749.699       
1653            	152862.291        	8234749.744       
1654            	152836.629        	8234747.214       
1655            	152836.985        	8234741.669       
1656            	152816.022        	8234740.927       
1657            	152788.305        	8234736.454       
1658            	152883.668        	8234767.985       
1659            	152888.581        	8234787.709       
1660            	152893.924        	8234809.190       
1661            	152897.088        	8234822.092       
1662            	152895.662        	8234826.128       
1663            	152890.743        	8234828.607       
1664            	152869.491        	8234830.869       
1665            	152848.886        	8234833.072       
1666            	152834.858        	8234836.489       
1667            	152825.320        	8234845.892       
1668            	152819.117        	8234859.866       
1669            	152809.181        	8234883.184       
1670            	152800.161        	8234905.299       
1671            	152787.846        	8234935.136       
1672            	152788.142        	8234944.102       
1673            	152793.408        	8234949.979       
1674            	152815.914        	8234963.810       
1675            	152826.589        	8234970.442       
1676            	152831.579        	8234974.224       
1677            	152846.202        	8234985.700       
1678            	152847.777        	8234986.911       
1679            	152849.009        	8234985.369       
1680            	152847.398        	8234984.190       
1681            	153825.280        	8234346.473       
1682            	153713.392        	8234360.708       
1683            	153714.364        	8234356.597       
C1              	154203.978        	8233952.110       
C2              	154205.088        	8233948.123       
C3              	154206.148        	8233944.287       
C4              	154207.157        	8233940.149       
C5              	154208.268        	8233936.919       
C6              	154209.025        	8233933.487       
76              	153728.228        	8234364.493       
77              	153722.679        	8234365.196       

[VERTICES]
;Link            	X-Coord           	Y-Coord

[LABELS]
;X-Coord             Y-Coord             Label & Anchor Node
154218.176        	8233947.915       	"REL.AGQ.001"	
153728.761        	8234365.557       	"REL.AGQ.002"	
154875.473        	8235180.439       	"CONECTADO"	
154530.771        	8233916.085       	"CONECTADO"	
154374.629        	8234419.356       	"CONECTADO"	
154213.673        	8234838.233       	"CONECTADO"	
154357.599        	8234461.583       	"CONECTADO"	
153712.655        	8234351.787       	"F"	
153693.757        	8234589.529       	"F"	

[BACKDROP]
  DIMENSIONS  	152665.790        	8233685.692       	155351.034        	8235663.179       
 UNITS          	None
 FILE           	
 OFFSET         	0.00            	0.00            

[END]
