[JUNCTIONS]
0 1040.0 0.0
1 1040.099975585938 0.0
2 1039.890014648438 0.0
3 1039.890014648438 0.0
4 1039.890014648438 0.0
5 1039.280029296875 0.0
6 1039.130004882812 0.0
7 1039.130004882812 0.0
8 1039.130004882812 0.0
9 1038.5 0.0
10 1038.5 0.0
11 1038.5 0.0
12 1037.930053710938 0.0
13 1037.930053710938 0.0
14 1037.930053710938 0.0
15 1037.930053710938 0.0
16 1037.68994140625 0.0
17 1037.68994140625 0.0
18 1033.93994140625 0.0
19 1032.77001953125 0.0
20 1032.77001953125 0.0
21 1032.77001953125 0.0
22 1032.77001953125 0.0
23 1032.77001953125 0.0
24 1032.77001953125 0.0
25 1032.77001953125 0.0
26 1032.77001953125 0.0
27 1035.780029296875 0.0
28 1041.31005859375 0.0
29 1042.160034179688 0.0
30 1039.75 0.0
31 1039.75 0.0
32 1017.150024414062 0.0
33 1018.530029296875 0.0
34 1039.109985351562 0.0
35 1016.590026855469 0.0
36 1017.659973144531 0.0
37 1015.359985351562 0.0
38 1014.960021972656 0.0
39 1041.31005859375 0.0
40 1016.590026855469 0.0
41 1042.150024414062 0.0
42 1139.410034179688 0.0
43 1139.160034179688 0.0
44 1139.140014648438 0.009567901234567902
45 1155.31005859375 0.0
46 1154.859985351562 0.0
47 1153.93994140625 0.0
48 1152.900024414062 0.0
49 1151.760009765625 0.0
50 1151.06005859375 0.0
51 1149.97998046875 0.0
52 1149.31005859375 0.0
53 1148.280029296875 0.0
54 1147.530029296875 0.0
55 1146.77001953125 0.0
56 1146.109985351562 0.0
57 1145.680053710938 0.0
58 1145.469970703125 0.0
59 1145.099975585938 0.0
60 1144.52001953125 0.0
61 1143.469970703125 0.0
62 1142.920043945312 0.0
63 1115.109985351562 0.0
64 1115.0 0.0
65 1125.25 0.008564814814814815
66 1125.0 0.0
67 1125.0 0.0
68 1125.0 0.0
69 1124.06005859375 0.0
70 1085.68994140625 0.0117283950617284
71 1085.43994140625 0.08024691358024691
72 1088.800048828125 0.0
73 1089.0400390625 0.003240740740740741
76 1161.839965820312 0.01358024691358025
77 1162.239990234375 0.008487654320987654
78 1162.449951171875 0.01041666666666667
79 1162.650024414062 0.02669753086419753
80 1163.010009765625 0.03564814814814815
81 1163.2900390625 0.02160493827160494
82 1163.640014648438 0.01959876543209877
83 1164.030029296875 0.1339063856960409
84 1164.319946289062 0.0
85 1151.800048828125 0.1605267560664113
86 1151.400024414062 0.01813271604938272
87 1151.400024414062 0.01921296296296296
88 1168.430053710938 0.005555555555555556
89 1167.300048828125 0.08140432098765432
90 1166.670043945312 0.06319444444444444
91 1166.010009765625 0.008410493827160494
92 1145.410034179688 0.02723765432098765
93 1145.410034179688 0.0
94 1144.619995117188 0.0242283950617284
95 1143.819946289062 0.02291666666666667
96 1143.319946289062 0.0
97 1143.079956054688 0.01419753086419753
98 1143.079956054688 0.0
99 1143.079956054688 0.04675925925925926
100 1145.890014648438 0.0
101 1145.890014648438 0.0
102 1145.880004882812 0.003240740740740741
103 1145.650024414062 0.01010802469135802
104 1164.680053710938 0.1427026819923372
105 1165.140014648438 0.0158179012345679
106 1165.140014648438 0.0
107 1165.140014648438 0.0
108 1165.619995117188 0.0
109 1166.510009765625 0.01026234567901235
110 1167.06005859375 0.004398148148148148
111 1165.619995117188 0.0
112 1172.010009765625 0.001774691358024691
113 1172.359985351562 0.009104938271604938
114 1173.239990234375 0.008410493827160494
115 1174.099975585938 0.0
116 1173.969970703125 0.002469135802469136
117 1173.680053710938 0.0
118 1173.680053710938 0.0
119 1174.109985351562 0.01635802469135803
120 1174.109985351562 0.0
121 1174.109985351562 0.0
122 1168.97998046875 0.0
123 1168.7099609375 0.0
124 1169.420043945312 0.009027777777777779
125 1168.97998046875 0.009645061728395061
126 1168.97998046875 0.01404320987654321
127 1167.75 0.004089506172839506
128 1167.9599609375 0.0216820987654321
129 1167.219970703125 0.0
130 1167.9599609375 0.0
131 1161.640014648438 0.03001543209876543
132 1163.06005859375 0.01898148148148148
133 1162.589965820312 0.03263888888888889
134 1164.319946289062 0.004783950617283951
135 1163.010009765625 0.02746913580246914
136 1164.160034179688 0.006018518518518519
137 1153.839965820312 0.008101851851851851
138 1153.130004882812 0.02118055555555556
139 1152.410034179688 0.0
140 1146.819946289062 0.0
141 1146.589965820312 0.1173940400170285
142 1150.109985351562 0.0
143 1150.329956054688 0.0
144 1150.56005859375 0.009722222222222222
145 1151.02001953125 0.003472222222222222
146 1151.260009765625 0.0
147 1165.099975585938 0.0
148 1166.099975585938 0.0
149 1166.400024414062 0.0
150 1167.609985351562 0.0
151 1167.75 0.0
152 1168.489990234375 0.0
153 1169.410034179688 0.0
154 1170.0 0.0
155 1170.930053710938 0.0
156 1171.859985351562 0.0
157 1172.430053710938 0.0
158 1172.9599609375 0.0
159 1173.359985351562 0.0
160 1173.739990234375 0.0
161 1174.300048828125 0.0
162 1138.510009765625 0.0
163 1138.510009765625 0.0
164 1138.670043945312 0.0
165 1140.699951171875 0.0
166 1145.180053710938 0.02229938271604938
167 1143.670043945312 0.03016975308641975
168 1142.349975585938 0.1558971264367816
169 1141.31005859375 0.01566358024691358
170 1140.280029296875 0.0
171 1140.0 0.0
172 1146.849975585938 0.0
173 1141.0400390625 0.003626543209876543
174 1147.449951171875 0.003009259259259259
175 1146.410034179688 0.03302469135802469
176 1145.31005859375 0.1832119412515965
177 1143.869995117188 0.08495370370370371
178 1152.68994140625 0.1163137931034483
179 1151.800048828125 0.02615740740740741
180 1150.22998046875 0.1116512345679012
181 1149.52001953125 0.04513888888888889
182 1149.52001953125 0.002854938271604938
183 1149.27001953125 0.0
184 1151.150024414062 0.1518076202639421
185 1150.030029296875 0.06118827160493827
186 1148.5400390625 0.05273276748971194
187 1147.06005859375 0.02719907407407407
188 1152.359985351562 0.1389218177948063
189 1152.359985351562 0.1528878671775224
190 1152.81005859375 0.02121913580246914
191 1152.619995117188 0.0349537037037037
192 1153.589965820312 0.0
193 1153.109985351562 0.03449074074074074
194 1147.97998046875 0.005169753086419753
195 1148.0 0.006095679012345679
196 1151.0 0.2251100893997446
197 1148.930053710938 0.09143518518518519
198 1159.640014648438 0.0
199 1159.25 0.001003086419753086
200 1157.81005859375 0.0
201 1163.130004882812 0.1830576202639421
202 1164.170043945312 0.1720236696466582
203 1148.670043945312 0.05486111111111111
204 1148.319946289062 0.0775462962962963
205 1153.609985351562 0.163767496807152
206 1152.390014648438 0.1337520647083866
207 1152.069946289062 0.0
208 1160.4599609375 0.01327160493827161
209 1160.920043945312 0.009104938271604938
210 1153.819946289062 0.05401234567901234
211 1152.47998046875 0.09390432098765432
212 1155.160034179688 0.007021604938271605
213 1155.180053710938 0.02554012345679012
214 1158.170043945312 0.05316358024691357
215 1155.77001953125 0.06111111111111111
216 1155.4599609375 0.0
217 1158.569946289062 0.1558971264367816
218 1160.170043945312 0.1579032992762878
219 1161.930053710938 0.0386574074074074
220 1161.7099609375 0.02608024691358025
221 1164.329956054688 0.005864197530864198
222 1141.0400390625 0.0
223 1155.5 0.04212962962962963
224 1155.260009765625 0.0429783950617284
225 1154.390014648438 0.1348251028806584
226 1153.869995117188 0.05817901234567902
227 1157.2900390625 0.005941358024691358
228 1157.010009765625 0.01149691358024691
229 1156.7900390625 0.06743827160493827
230 1155.890014648438 0.110108024691358
231 1152.150024414062 0.1295082375478927
232 1151.5400390625 0.0
233 1161.650024414062 0.0
234 1161.650024414062 0.0
235 1159.239990234375 0.01558641975308642
236 1159.31005859375 0.1337520647083866
237 1159.339965820312 0.0
238 1159.280029296875 0.002237654320987654
239 1159.06005859375 0.0
240 1158.9599609375 0.006327160493827161
241 1158.530029296875 0.0
242 1158.530029296875 0.0
243 1154.25 0.007561728395061728
244 1153.589965820312 0.290497956577267
245 1155.030029296875 0.06087962962962963
246 1154.390014648438 0.01342592592592593
247 1155.920043945312 0.0224537037037037
248 1155.469970703125 0.01111111111111111
249 1156.630004882812 0.04498456790123457
250 1156.630004882812 0.1179341634738187
251 1157.47998046875 0.0
252 1157.47998046875 0.0
253 1157.0400390625 0.0
254 1170.489990234375 0.0
255 1170.2099609375 0.004783950617283951
256 1170.030029296875 0.005015432098765432
257 1123.43994140625 0.0
258 1123.43994140625 0.0
259 1149.430053710938 0.0253858024691358
260 1150.609985351562 0.01404320987654321
261 1149.52001953125 0.02106481481481481
262 1156.699951171875 0.00625
263 1158.359985351562 0.0
264 1158.079956054688 0.004320987654320987
265 1158.75 0.0
266 1154.7099609375 0.004861111111111111
267 1155.7900390625 0.06967592592592593
268 1156.72998046875 0.01820987654320988
269 1161.27001953125 0.005246913580246914
270 1161.630004882812 0.0
271 1161.599975585938 0.0150462962962963
272 1161.75 0.01747685185185185
273 1162.640014648438 0.1497242869306088
274 1168.5400390625 0.05354938271604938
275 1167.170043945312 0.260714005959983
276 1170.02001953125 0.05733024691358025
277 1171.25 0.1361440400170285
278 1169.619995117188 0.0
279 1170.02001953125 0.0006172839506172839
280 1168.68994140625 0.0496141975308642
281 1150.890014648438 0.06118827160493827
282 1151.579956054688 0.0242283950617284
283 1169.640014648438 0.08410493827160494
284 1171.859985351562 0.1196316943380162
285 1169.619995117188 0.02029320987654321
286 1166.949951171875 0.0341820987654321
287 1168.0 0.02222222222222222
288 1168.180053710938 0.0
289 1168.640014648438 0.004398148148148148
290 1154.2900390625 0.0378858024691358
291 1154.52001953125 0.005941358024691358
292 1154.75 0.03070987654320988
293 1146.880004882812 0.002006172839506173
294 1147.599975585938 0.01242283950617284
295 1147.839965820312 0.0
296 1147.839965820312 0.002237654320987654
297 1147.829956054688 0.0
298 1159.890014648438 0.04212962962962963
299 1160.359985351562 0.1306327160493827
300 1160.890014648438 0.1246471264367816
301 1158.650024414062 0.008796296296296297
302 1158.829956054688 0.2233353980417199
303 1155.0 0.04313271604938271
304 1155.089965820312 0.05779320987654321
305 1159.489990234375 0.0
306 1159.489990234375 0.0
307 1158.380004882812 0.08024691358024691
308 1157.349975585938 0.06844135802469135
309 1155.650024414062 0.04893904320987654
310 1154.380004882812 0.0386574074074074
311 1153.880004882812 0.45287656449553
312 1165.72998046875 0.008641975308641976
313 1164.739990234375 0.07361111111111111
314 1161.930053710938 0.04066358024691358
315 1137.56005859375 0.007175925925925926
316 1139.329956054688 0.008024691358024692
317 1135.0 0.03827160493827161
318 1135.0 0.01118827160493827
319 1135.0 0.0
320 1135.0 0.0
321 1135.0 0.0
322 1135.0 0.0
323 1135.0 0.0
324 1135.0 0.0
325 1109.780029296875 0.0
326 1109.430053710938 0.0
327 1109.640014648438 0.0
328 1109.640014648438 0.0
329 1109.400024414062 0.0
330 1109.069946289062 0.0
331 1108.4599609375 0.0
332 1107.569946289062 0.0
333 1106.569946289062 0.0
334 1105.569946289062 0.0
335 1143.579956054688 0.0
336 1143.239990234375 0.0
337 1143.239990234375 0.0
338 1143.239990234375 0.0
339 1143.239990234375 0.0
340 1143.069946289062 0.0
341 1143.069946289062 0.0
342 1121.43994140625 0.0
343 1121.43994140625 0.0
344 1146.97998046875 0.0
345 1146.510009765625 0.002700617283950617
346 1146.089965820312 0.005169753086419753
347 1145.630004882812 0.01967592592592592
348 1145.079956054688 0.02862654320987654
349 1145.0 0.1608353980417199
350 1144.410034179688 0.02947530864197531
351 1144.22998046875 0.01751543209876543
352 1139.47998046875 0.03279320987654321
353 1139.47998046875 0.0
354 1142.589965820312 0.001003086419753086
355 1142.18994140625 0.01628086419753087
356 1099.119995117188 0.0
357 1099.569946289062 0.0
358 1100.0 0.01396604938271605
359 1130.329956054688 0.06165123456790123
360 1131.630004882812 0.04429012345679012
361 1105.839965820312 0.07222222222222222
362 1105.0 0.0
363 1149.359985351562 0.0
364 1149.670043945312 0.0
365 1150.0 0.02060185185185185
366 1155.369995117188 0.2471337590464028
367 1152.22998046875 0.14262552149851
368 1152.329956054688 0.1005401234567901
369 1152.329956054688 0.05594135802469136
370 1153.319946289062 0.0006172839506172839
371 1149.02001953125 0.1903107066836952
372 1150.589965820312 0.174338484461473
373 1145.579956054688 0.0220679012345679
374 1144.280029296875 0.02075617283950617
375 1152.550048828125 0.09884259259259259
376 1149.4599609375 0.1773477437207323
377 1146.56005859375 0.2886461047254151
378 1134.9599609375 0.28525104299702
379 1133.880004882812 0.142162558535547
380 1145.380004882812 0.03186728395061728
381 1145.380004882812 0.02592592592592593
382 1145.859985351562 0.005478395061728395
383 1148.920043945312 0.271747956577267
384 1149.630004882812 0.0091820987654321
385 1142.2900390625 0.1366841634738186
386 1143.609985351562 0.02044753086419753
387 1140.06005859375 0.3330905491698595
388 1138.829956054688 0.3315473392933163
389 1141.430053710938 0.1453703703703704
390 1155.0 0.06427469135802469
391 1154.5 0.05177469135802469
392 1130.489990234375 0.01496913580246914
393 1130.900024414062 0.02924382716049383
394 1158.199951171875 0.006558641975308642
395 1157.43994140625 0.004706790123456791
396 1158.75 0.0
397 1158.849975585938 0.0
398 1158.849975585938 0.0
399 1099.839965820312 0.0
400 1099.510009765625 0.01666666666666667
401 1099.449951171875 0.1198631758194977
402 1124.930053710938 0.0
403 1124.72998046875 0.0
404 1124.989990234375 0.0
405 1124.849975585938 0.0
406 1124.800048828125 0.0
407 1099.160034179688 0.0
408 1099.630004882812 0.0
409 1098.599975585938 0.0
410 1097.550048828125 0.0
411 1100.800048828125 0.0
412 1100.239990234375 0.0
413 1100.0 0.0
414 1099.81005859375 0.0
415 1099.880004882812 0.0
416 1099.920043945312 0.0
417 1099.969970703125 0.0
418 1105.0 0.0
419 1105.0 0.0
420 1104.640014648438 0.0
421 1103.81005859375 0.0
422 1102.359985351562 0.0
423 1101.43994140625 0.0
424 1114.430053710938 0.0
425 1114.06005859375 0.0
426 1113.7099609375 0.0
427 1113.47998046875 0.0
428 1113.410034179688 0.0
429 1114.380004882812 0.0
430 1116.97998046875 0.0
431 1116.430053710938 0.0
432 1115.410034179688 0.0
433 1115.280029296875 0.0
434 1115.0 0.0
435 1115.0 0.0
436 1115.0 0.0
437 1115.0 0.0
438 1114.760009765625 0.0
439 1120.0 0.0
440 1120.0 0.0
441 1120.0 0.0
442 1119.7099609375 0.0
443 1119.77001953125 0.0
444 1119.109985351562 0.0
445 1118.609985351562 0.0
446 1124.7099609375 0.0
447 1125.0 0.0
448 1125.0 0.0
449 1115.0 0.0
450 1107.56005859375 0.1163137931034483
451 1106.930053710938 0.0
452 1157.030029296875 0.00779320987654321
453 1160.140014648438 0.0
454 1160.359985351562 0.0
455 1160.81005859375 0.0
456 1159.670043945312 0.0
457 1159.670043945312 0.0
458 1159.77001953125 0.0
459 1159.77001953125 0.0
460 1159.77001953125 0.0
461 1159.7099609375 0.0
462 1159.550048828125 0.02561728395061728
463 1159.550048828125 0.0
464 1152.31005859375 0.0
465 1152.31005859375 0.01527777777777778
466 1066.819946289062 0.0
467 1066.819946289062 0.0
468 1066.819946289062 0.0
469 1067.0 0.0
470 1067.0 0.0
471 1067.119995117188 0.0
472 1067.119995117188 0.0
473 1067.119995117188 0.0
477 1150.0 0.0
478 1149.949951171875 0.0
479 1149.390014648438 0.007253086419753087
480 1148.949951171875 0.01041666666666667
481 1148.469970703125 0.01064814814814815
482 1147.9599609375 0.01882716049382716
483 1147.660034179688 0.007484567901234568
484 1147.660034179688 0.003626543209876543
485 1133.219970703125 0.0
486 1133.219970703125 0.0
487 1133.219970703125 0.0
488 1133.489990234375 0.0
489 1133.489990234375 0.0
490 1164.300048828125 0.0
491 1164.18994140625 0.0
492 1099.119995117188 0.0
493 1141.77001953125 0.0
494 1141.77001953125 0.0
495 1141.77001953125 0.0
496 1141.77001953125 0.0
497 1107.5400390625 0.0
498 1107.5400390625 0.01095679012345679
499 1107.56005859375 0.0
500 1107.31005859375 0.0
501 1107.31005859375 0.00154320987654321
502 1153.06005859375 0.05069444444444444
503 1152.81005859375 0.004938271604938272
504 1152.56005859375 0.0
505 1152.0 0.0
506 1151.949951171875 0.0
507 1151.890014648438 0.01080246913580247
508 1112.579956054688 0.0
509 1112.579956054688 0.0
510 1111.380004882812 0.0
511 1110.0 0.0
512 1110.0 0.0
513 1109.75 0.0
537 1014.72998046875 0.0
538 1121.530029296875 0.0
539 1123.0400390625 0.0
540 1124.2900390625 0.0
541 1125.0400390625 0.0
542 1125.68994140625 0.0
543 1125.949951171875 0.0
544 1126.599975585938 0.0
545 1126.72998046875 0.0
546 1150.97998046875 0.0
547 1150.97998046875 0.0
548 1151.130004882812 0.0
549 1151.81005859375 0.0
550 1152.489990234375 0.0
551 1153.839965820312 0.0
552 1154.800048828125 0.0
553 1155.0 0.0
554 1155.0 0.0
555 1155.0 0.0
556 1155.130004882812 0.0
557 1155.680053710938 0.0
558 1155.97998046875 0.0
559 1156.56005859375 0.0
560 1156.72998046875 0.0
561 1157.199951171875 0.0
562 1157.859985351562 0.0
563 1157.97998046875 0.0
564 1158.109985351562 0.0
565 1158.4599609375 0.0
566 1158.9599609375 0.0
567 1159.489990234375 0.0
568 1160.0 0.0
569 1160.5400390625 0.0
570 1160.739990234375 0.0
571 1161.050048828125 0.0
572 1161.52001953125 0.0
573 1161.52001953125 0.0
574 1161.650024414062 0.0
613 1142.9599609375 0.0
614 1143.319946289062 0.0
615 1143.859985351562 0.0
616 1144.219970703125 0.0
624 1163.849975585938 0.0
625 1163.849975585938 0.0
639 1164.079956054688 0.0
640 1162.52001953125 0.0
641 1162.599975585938 0.0
642 1162.47998046875 0.0
643 1162.31005859375 0.0
644 1162.31005859375 0.0
645 1162.31005859375 0.0
667 1126.800048828125 0.02307098765432099
668 1130.0 0.02021604938271605
669 1108.93994140625 0.02291666666666667
670 1108.75 0.001774691358024691
671 1102.52001953125 0.0
672 1101.68994140625 0.02283950617283951
673 1102.52001953125 0.0
674 1101.859985351562 0.0
675 1101.859985351562 0.0
676 1121.43994140625 0.04375
677 1121.43994140625 0.0
678 1121.430053710938 0.0
679 1121.430053710938 0.0
680 1117.199951171875 0.0
681 1117.75 0.0
682 1117.75 0.03055555555555556
683 1126.319946289062 0.03850308641975309
684 1126.859985351562 0.08467078189300412
685 1128.920043945312 0.008564814814814815
686 1127.900024414062 0.0246141975308642
687 1128.910034179688 0.02191358024691358
688 1105.0 0.008796296296296295
689 1105.0 0.009799382716049382
690 1105.599975585938 0.1313600893997446
691 1149.359985351562 0.0
692 1149.359985351562 0.0
693 1148.77001953125 0.0
694 1123.650024414062 0.03341049382716049
695 1129.43994140625 0.02839506172839506
696 1134.869995117188 0.01350308641975309
697 1135.7900390625 0.3238312899106003
698 1130.7099609375 0.182517496807152
699 1132.06005859375 0.03101851851851852
700 1129.489990234375 0.1234125585355471
701 1129.140014648438 0.05640432098765432
702 1129.849975585938 0.1163137931034483
703 1146.97998046875 0.0
704 1146.97998046875 0.1163137931034483
705 1126.359985351562 0.0
706 1125.5400390625 0.04945987654320988
707 1126.890014648438 0.0
787 1100.0 0.0
788 1100.0 0.0
789 1139.280029296875 0.01404320987654321
790 1139.650024414062 0.0183641975308642
791 1140.390014648438 0.02569444444444444
792 1140.739990234375 0.0
793 1140.739990234375 0.005555555555555556
794 1141.2099609375 0.0
795 1141.2099609375 0.0
796 1141.2099609375 0.0
797 1141.02001953125 0.0
798 1141.02001953125 0.002160493827160494
799 1140.869995117188 0.0
800 1140.890014648438 0.004089506172839506
801 1135.0 0.0
802 1135.0 0.0
810 1163.849975585938 0.0
811 1163.640014648438 0.0
864 1050.449951171875 0.009722222222222222
865 1049.219970703125 0.1076003086419753
866 1115.52001953125 0.0
867 1115.52001953125 0.0
868 1115.949951171875 0.0
869 1115.949951171875 0.0
870 1115.829956054688 0.0
871 1115.52001953125 0.0
872 1115.079956054688 0.0
875 1148.859985351562 0.0
876 1149.160034179688 0.0
877 1156.489990234375 0.01049382716049383
878 1156.489990234375 0.01342592592592593
879 1171.140014648438 0.003549382716049383
880 1170.75 0.002854938271604938
881 1152.619995117188 0.02044753086419753
882 1152.069946289062 0.0
883 1151.510009765625 0.01003086419753086
884 1151.280029296875 0.0
885 1158.75 0.0
886 1158.839965820312 0.004706790123456791
887 1159.18994140625 0.001080246913580247
888 1161.420043945312 0.01921296296296296
889 1135.0 0.0
890 1004.179992675781 0.0
891 1004.039978027344 0.0
892 1026.93994140625 0.0
893 1007.700012207031 0.0
894 1031.339965820312 0.0
895 1029.569946289062 0.1163137931034483
896 1034.27001953125 0.0
897 1031.030029296875 0.0
898 1032.900024414062 0.0
899 1036.319946289062 0.0
900 1035.0 0.0
901 1034.199951171875 0.0
902 1033.430053710938 0.1163137931034483
903 1036.900024414062 0.0
904 1042.930053710938 0.0
905 1044.390014648438 0.1163137931034483
906 1053.489990234375 0.0
907 1161.72998046875 0.0
908 1161.72998046875 0.0
909 1153.420043945312 0.01489197530864198
910 1152.969970703125 0.004629629629629629
911 1152.420043945312 0.01203703703703704
912 1152.239990234375 0.01064814814814815
913 1167.2900390625 0.0
914 1167.18994140625 0.0
915 1167.18994140625 0.003549382716049383
916 1153.589965820312 0.01990740740740741
917 1140.140014648438 0.003780864197530864
918 1140.369995117188 0.009259259259259259
919 1159.56005859375 0.004783950617283951
920 1159.56005859375 0.0
921 1159.359985351562 0.001929012345679012
922 1155.349975585938 0.0
923 1155.550048828125 0.0
924 1155.550048828125 0.0
925 1139.119995117188 0.01203703703703704
926 1139.430053710938 0.005709876543209876
927 1139.430053710938 0.00794753086419753
928 1139.780029296875 0.01651234567901235
929 1140.030029296875 0.0
930 1139.75 0.001388888888888889
931 1139.239990234375 0.0
932 1138.739990234375 0.001851851851851852
933 1136.869995117188 0.008641975308641976
934 1137.109985351562 0.00802469135802469
935 1137.219970703125 0.01026234567901235
936 1137.319946289062 0.003858024691358024
937 1137.27001953125 0.006018518518518519
938 1137.27001953125 0.006944444444444444
939 1137.339965820312 0.003780864197530864
940 1137.25 0.0
941 1137.359985351562 0.002469135802469136
942 1137.599975585938 0.009336419753086418
943 1138.109985351562 0.01049382716049383
944 1138.449951171875 0.00787037037037037
945 1138.4599609375 0.02530864197530864
946 1138.420043945312 0.005864197530864198
947 1138.300048828125 0.0
948 1138.449951171875 0.006018518518518519
949 1138.449951171875 0.0
950 1138.449951171875 0.0
951 1138.949951171875 0.0
952 1135.0 0.0
953 1135.0 0.0
954 1135.0 0.0
955 1135.0 0.0
956 1135.0 0.01049382716049383
957 1135.0 0.0
958 1135.0 0.0
959 1135.0 0.01304012345679012
960 1135.0 0.0
961 1135.0 0.0
962 1135.0 0.0
963 1135.0 0.0
964 1135.0 0.0
965 1134.550048828125 0.0
966 1132.47998046875 0.0
967 1131.4599609375 0.0
968 1150.0 0.0
969 1150.0 0.04945987654320987
970 1133.880004882812 0.01520061728395062
971 1135.0 0.0
972 1141.550048828125 0.0
973 1140.969970703125 0.1329032992762878
974 1125.0 0.0
975 1124.77001953125 0.0
976 1131.380004882812 0.1436286079182631
977 1136.829956054688 0.2068230523627075
978 1137.239990234375 0.01273148148148148
979 1130.0 0.1494928054491273
980 1135.2900390625 0.002932098765432099
981 1135.0 0.0183641975308642
982 1129.910034179688 0.2179341634738187
983 1113.81005859375 0.0
984 1113.469970703125 0.0
985 1113.140014648438 0.008873456790123456
986 1112.300048828125 0.002932098765432099
987 1111.619995117188 0.00308641975308642
988 1110.780029296875 0.01612654320987654
989 1110.0 0.0
990 1109.0400390625 0.009645061728395061
991 1107.81005859375 0.01149691358024691
992 1106.640014648438 0.01967592592592593
993 1105.199951171875 0.0195216049382716
994 1105.0 0.004861111111111111
995 1104.510009765625 0.003935185185185185
996 1103.43994140625 0.0
997 1102.910034179688 0.009722222222222222
998 1102.219970703125 0.005401234567901234
999 1101.430053710938 0.01165123456790123
1000 1100.0 0.005555555555555556
1001 1096.670043945312 0.0
1002 1096.119995117188 0.0
1003 1095.609985351562 0.0
1004 1095.099975585938 0.0
1005 1094.369995117188 0.0
1006 1093.599975585938 0.0
1007 1092.5400390625 0.0
1008 1091.380004882812 0.0
1009 1090.609985351562 0.0
1010 1089.329956054688 0.0
1011 1161.260009765625 0.006558641975308642
1012 1161.650024414062 0.002237654320987654
1013 1162.349975585938 0.02862654320987654
1014 1163.0400390625 0.02885802469135802
1015 1164.280029296875 0.003395061728395062
1016 1169.089965820312 0.0
1017 1169.150024414062 0.0
1018 1169.260009765625 0.0
1019 1169.260009765625 0.004166666666666667
1020 1169.180053710938 0.0
1021 1168.22998046875 0.0
1022 1167.780029296875 0.007330246913580247
1023 1166.089965820312 0.1261903363133248
1024 1174.0400390625 0.03819444444444444
1025 1174.199951171875 0.0
1026 1166.329956054688 0.0
1027 1166.22998046875 0.0
1028 1166.329956054688 0.0
1029 1166.329956054688 0.0
1030 1166.75 0.0
1031 1166.75 0.0
1032 1166.75 0.0
1033 1174.199951171875 0.03186728395061728
1034 1177.18994140625 0.05563271604938272
1035 1132.300048828125 0.0
1036 1132.300048828125 0.0
1037 1132.300048828125 0.0
1038 1138.93994140625 0.0
1039 1138.93994140625 0.0
1040 1138.859985351562 0.0
1041 1155.2900390625 0.0
1042 1155.170043945312 0.0
1043 1155.170043945312 0.0
1044 1161.319946289062 0.0
1045 1161.319946289062 0.001003086419753086
1046 1135.0 0.0
1047 1135.0 0.0
1048 1135.0 0.0
1049 1131.390014648438 0.02013888888888889
1050 1130.329956054688 0.00794753086419753
1051 1130.0 0.0
1052 1129.43994140625 0.0
1053 1128.849975585938 0.0
1054 1128.349975585938 0.2363312899106003
1055 1128.109985351562 0.0
1056 1127.420043945312 0.0
1057 1126.420043945312 0.533912037037037
1058 1125.369995117188 0.0
1059 1124.760009765625 0.0
1060 1123.219970703125 0.0
1061 1122.150024414062 0.0
1062 1121.199951171875 0.0
1063 1120.0 0.1317129629629629
1064 1118.0400390625 0.0006944444444444445
1065 1115.93994140625 0.0
1066 1115.0 0.0
1067 1115.0 0.0
1068 1114.430053710938 0.0
1069 1114.5 0.0
1070 1140.77001953125 0.0
1071 1140.930053710938 0.0
1072 1141.089965820312 0.009336419753086418
1073 1140.9599609375 0.006712962962962963
1074 1140.699951171875 0.006635802469135803
1075 1140.400024414062 0.003549382716049383
1076 1140.280029296875 0.0
1077 1140.150024414062 0.0
1078 1135.77001953125 0.009799382716049382
1079 1136.300048828125 0.0
1080 1135.819946289062 0.01697530864197531
1081 1136.329956054688 0.0
1082 1143.18994140625 0.0
1083 1142.989990234375 0.01049382716049383
1084 1142.219970703125 0.004783950617283951
1085 1114.2900390625 0.0
1086 1115.0 0.0
1087 1115.0 0.0
1088 1115.260009765625 0.0
1089 1115.660034179688 0.0
1090 1116.150024414062 0.0
1091 1117.089965820312 0.0
1092 1117.530029296875 0.003240740740740741
1093 1118.469970703125 0.0
1094 1119.77001953125 0.0
1095 1120.0 0.002623456790123457
1096 1120.0 0.004320987654320987
1097 1120.0 0.01427469135802469
1098 1120.0 0.02237654320987654
1099 1120.0 0.01481481481481482
1100 1120.0 0.0
1101 1120.2099609375 0.0
1102 1121.849975585938 0.0
1103 1115.0 0.0
1104 1115.0 0.0
1105 1166.150024414062 0.1228724350787569
1106 1165.93994140625 0.0095679012345679
1107 1165.630004882812 0.003395061728395062
1108 1121.849975585938 0.0
1109 1121.75 0.0
1110 1136.920043945312 0.0804783950617284
1111 1136.97998046875 0.0
1112 1103.27001953125 0.02114197530864197
1113 1103.640014648438 0.08256172839506173
1114 1073.900024414062 0.0
1115 1072.859985351562 0.0003858024691358024
1116 1134.880004882812 0.01450617283950617
1117 1134.869995117188 0.01095679012345679
1118 1135.349975585938 0.03942901234567901
1119 1149.819946289062 0.0
1120 1149.819946289062 0.0
1121 1103.030029296875 0.0
1122 1102.380004882812 0.0
1123 1128.510009765625 0.002719907407407407
1124 1128.510009765625 0.008796296296296295
1125 1170.0 0.0
1126 1166.969970703125 0.006095679012345679
1127 1166.739990234375 0.003472222222222222
1128 1166.670043945312 0.0
1129 1161.7900390625 0.01257716049382716
1130 1161.7900390625 0.0
1131 1161.7900390625 0.0
1132 1132.550048828125 0.0
1133 1133.430053710938 0.1433199659429545
1134 1135.0 0.02376543209876543
1135 1129.56005859375 0.0
1136 1129.56005859375 0.0
1137 1129.56005859375 0.0
1138 1130.0 0.007175925925925926
1139 1132.06005859375 0.1271934227330779
1140 1163.699951171875 0.01427469135802469
1141 1163.699951171875 0.0
1142 1135.0 0.0
1143 1152.650024414062 0.0
1144 1151.97998046875 0.003395061728395062
1145 1158.319946289062 0.008024691358024692
1146 1158.420043945312 0.0
1147 1155.75 0.0
1148 1155.75 0.0
1149 1155.9599609375 0.0
1150 1135.0 0.0
1151 1135.0 0.0
1152 1100.069946289062 0.0
1153 1100.069946289062 0.0
1154 1099.81005859375 0.0
1155 1099.449951171875 0.0
1156 1114.109985351562 0.02307098765432099
1157 1113.359985351562 0.0
1158 1152.7900390625 0.0
1159 1152.7900390625 0.002237654320987654
1160 1157.880004882812 0.0
1161 1157.829956054688 0.0
1162 1160.859985351562 0.0
1163 1135.680053710938 0.0
1164 1135.660034179688 0.0
1165 1135.660034179688 0.0004822530864197531
1166 1172.079956054688 0.0
1167 1172.079956054688 0.0
1168 1161.660034179688 0.0
1169 1161.660034179688 0.0
1170 1143.369995117188 0.006558641975308642
1171 1143.18994140625 0.0
1172 1158.219970703125 0.007330246913580247
1173 1158.219970703125 0.0
1174 1157.47998046875 0.01180555555555556
1175 1157.47998046875 0.0
1176 1148.93994140625 0.003549382716049383
1177 1148.72998046875 0.1539681140911026
1178 1147.150024414062 0.08950617283950618
1179 1145.81005859375 0.02592592592592593
1180 1144.7099609375 0.01381172839506173
1181 1144.010009765625 0.006867283950617284
1182 1157.849975585938 0.009027777777777777
1183 1157.849975585938 0.04621913580246913
1184 1149.719970703125 0.0
1185 1149.4599609375 0.01882716049382716
1186 1148.77001953125 0.01412037037037037
1187 1159.329956054688 0.02646604938271605
1188 1159.0 0.01628086419753087
1189 1095.0 0.0
1190 1094.489990234375 0.0
1191 1116.510009765625 0.0
1192 1116.510009765625 0.1163137931034483
1193 1090.099975585938 0.0
1194 1090.099975585938 0.0
1195 1096.72998046875 0.01790123456790123
1196 1099.06005859375 0.01103395061728395
1197 1095.680053710938 0.1378415708812261
1198 1093.7099609375 0.03009259259259259
1199 1095.0 0.01358024691358025
1200 1095.0 0.1447860153256705
1201 1096.77001953125 0.06983024691358025
1202 1096.869995117188 0.02816358024691358
1203 1098.97998046875 0.01612654320987654
1204 1098.97998046875 0.0
1205 1100.0 0.0
1206 1100.0 0.0658179012345679
1207 1100.4599609375 0.03912037037037037
1208 1101.75 0.1497242869306088
1209 1121.180053710938 0.01628086419753087
1210 1122.699951171875 0.2127644103873989
1211 1121.839965820312 0.0209104938271605
1212 1128.780029296875 0.04745370370370371
1213 1115.920043945312 0.1163137931034483
1214 1117.25 0.1920853980417199
1215 1133.260009765625 0.01905864197530864
1216 1133.469970703125 0.01319444444444444
1217 1133.260009765625 0.01412037037037037
1218 1127.069946289062 0.02854938271604938
1219 1127.890014648438 0.1460205832269051
1220 1130.680053710938 0.1525792252022137
1221 1127.900024414062 0.2275792252022137
1222 1135.660034179688 0.1482582375478927
1223 1136.359985351562 0.1163137931034483
1224 1101.819946289062 0.0
1225 1102.619995117188 0.2425041294167731
1226 1102.319946289062 0.2019619412515964
1227 1100.910034179688 0.1815915708812261
1228 1100.25 0.0
1229 1100.119995117188 0.2259588548318434
1230 1105.0 0.00910493827160494
1231 1105.0 0.1163137931034483
1232 1118.140014648438 0.0
1233 1119.97998046875 0.00787037037037037
1234 1138.06005859375 0.01473765432098765
1235 1137.72998046875 0.01041666666666667
1236 1137.52001953125 0.004861111111111111
1237 1137.170043945312 0.03194444444444444
1238 1137.089965820312 0.02662037037037037
1239 1136.640014648438 0.04537037037037037
1240 1136.349975585938 0.03279320987654321
1241 1136.300048828125 0.1319773733503619
1242 1136.25 0.0154320987654321
1243 1136.069946289062 0.01658950617283951
1244 1135.77001953125 0.02677469135802469
1245 1139.469970703125 0.001851851851851852
1246 1139.109985351562 0.01550925925925926
1247 1141.06005859375 0.007561728395061728
1248 1140.819946289062 0.005478395061728395
1249 1140.349975585938 0.0158179012345679
1250 1159.780029296875 0.02307098765432099
1251 1159.739990234375 0.003240740740740741
1252 1159.010009765625 0.2649691358024691
1253 1158.069946289062 0.2257273733503619
1254 1156.859985351562 0.08171296296296296
1255 1154.760009765625 0.1729495955725841
1256 1154.030029296875 0.1163137931034483
1257 1155.739990234375 0.05609567901234568
1258 1135.2099609375 0.3955463175819498
1259 1136.760009765625 0.06929012345679013
1260 1134.72998046875 0.0521604938271605
1261 1135.329956054688 0.4184629842486165
1262 1139.160034179688 0.04359567901234568
1263 1138.660034179688 0.04398148148148148
1264 1148.869995117188 0.2198631758194977
1265 1147.22998046875 0.4754074286930609
1266 1150.079956054688 0.07461419753086419
1267 1148.510009765625 0.08263888888888889
1268 1153.599975585938 0.01026234567901235
1269 1151.93994140625 0.208179012345679
1270 1162.0 0.0
1271 1162.7900390625 0.0
1272 1163.349975585938 0.0
1273 1163.900024414062 0.0
1274 1165.0 0.0
1275 1165.140014648438 0.0
1276 1165.569946289062 0.0
1277 1166.150024414062 0.0
1278 1166.579956054688 0.0
1279 1167.160034179688 0.0
1280 1167.4599609375 0.0
1281 1167.890014648438 0.0
1282 1168.319946289062 0.0
1283 1168.800048828125 0.0
1284 1169.180053710938 0.0
1285 1169.300048828125 0.0
1286 1169.81005859375 0.0
1287 1169.81005859375 0.0
1288 1169.72998046875 0.0
1289 1169.660034179688 0.0
1290 1169.239990234375 0.0
1291 1168.77001953125 0.0
1292 1167.219970703125 0.0
1293 1166.589965820312 0.0
1294 1166.140014648438 0.0
1295 1165.47998046875 0.0
1296 1164.760009765625 0.0
1297 1163.739990234375 0.0
1298 1159.489990234375 0.0
1299 1155.0 0.02716049382716049
1300 1154.969970703125 0.07669753086419753
1301 1153.579956054688 0.03973765432098765
1302 1155.140014648438 0.04027777777777778
1303 1156.140014648438 0.0537037037037037
1304 1155.75 0.06203703703703704
1305 1155.0 0.211838484461473
1306 1153.97998046875 0.06651234567901235
1307 1153.199951171875 0.02291666666666667
1308 1150.099975585938 0.007330246913580247
1309 1149.160034179688 0.006404320987654321
1310 1150.099975585938 0.04205246913580247
1311 1152.969970703125 0.05432098765432099
1312 1151.890014648438 0.1192901234567901
1313 1152.390014648438 0.03225308641975309
1314 1151.079956054688 0.1709434227330779
1318 1040.160034179688 0.0
1319 1039.390014648438 0.0
1320 1036.130004882812 0.0
1321 1035.180053710938 0.1163137931034483
1322 1035.380004882812 0.0
1323 1047.829956054688 0.0
1324 1028.77001953125 0.1163137931034483
1325 1027.819946289062 0.0
1326 1149.089965820312 0.0
1327 1149.089965820312 0.0
1328 1149.089965820312 0.01628086419753087
1329 1115.0 0.0
1330 1113.819946289062 0.0
1331 1157.660034179688 0.005169753086419753
1332 1180.0 0.0
1333 1180.0 0.0
1334 1180.0 0.0
1335 1180.0 0.0
1336 1164.079956054688 0.01697530864197531
1337 1163.839965820312 0.0
1338 1030.839965820312 0.0
1339 1030.839965820312 0.0
1340 1121.849975585938 0.0
1341 1121.949951171875 0.009799382716049382
1342 1112.0 0.0
1343 1111.880004882812 0.0
1344 1134.280029296875 0.1500329289059174
1345 1135.0 0.4609012558535547
1346 1087.489990234375 0.0
1347 1091.829956054688 0.5075617283950618
1348 1099.219970703125 0.510857024265645
1349 1113.030029296875 0.01350308641975309
1350 1114.069946289062 0.2217150276713495
1351 1122.859985351562 0.1923168795232014
1352 1138.199951171875 0.04922839506172839
1353 1138.400024414062 0.0
1354 1125.719970703125 0.01261574074074074
1355 1132.400024414062 0.07978395061728395
1356 1140.0 0.03518518518518518
1357 1131.890014648438 0.04938271604938271
1358 1133.27001953125 0.05655864197530865
1359 1140.02001953125 0.009413580246913581
1360 1140.02001953125 0.003703703703703704
1361 1139.719970703125 0.02530864197530864
1362 1139.81005859375 0.01111111111111111
1363 1134.050048828125 0.01427469135802469
1364 1139.369995117188 0.0371141975308642
1365 1142.170043945312 0.04891975308641976
1366 1143.119995117188 0.01442901234567901
1367 1143.150024414062 0.02839506172839506
1370 1109.630004882812 0.0
1371 1109.819946289062 0.0
1372 1110.829956054688 0.0
1373 1112.550048828125 0.0
1374 1113.06005859375 0.0
1375 1113.630004882812 0.0
1376 1114.619995117188 0.0
1377 1116.050048828125 0.0
1378 1117.829956054688 0.0
1379 1120.06005859375 0.0
1380 1120.430053710938 0.0
1381 1121.31005859375 0.0
1382 1121.849975585938 0.0
1383 1124.760009765625 0.0
1384 1126.550048828125 0.0
1385 1127.77001953125 0.0
1386 1128.93994140625 0.0
1387 1129.630004882812 0.0
1388 1129.81005859375 0.0
1389 1130.06005859375 0.0
1390 1130.22998046875 0.0
1391 1130.449951171875 0.0
1392 1130.449951171875 0.0
1393 1130.449951171875 0.0
1394 1131.130004882812 0.0
1395 1133.160034179688 0.0
1396 1133.839965820312 0.0
1397 1135.140014648438 0.0
1398 1137.239990234375 0.0
1399 1138.300048828125 0.0
1400 1139.349975585938 0.0
1401 1141.050048828125 0.0
1402 1142.22998046875 0.0
1403 1144.099975585938 0.0
1404 1145.369995117188 0.0
1405 1146.7099609375 0.0
1406 1148.0400390625 0.0
1407 1149.339965820312 0.0
1408 1150.380004882812 0.0
1409 1151.150024414062 0.0
1410 1151.930053710938 0.0
1411 1152.699951171875 0.0
1412 1153.849975585938 0.0
1413 1155.069946289062 0.0
1414 1156.150024414062 0.0
1415 1157.199951171875 0.0
1416 1157.719970703125 0.0
1417 1157.719970703125 0.0
1418 1158.829956054688 0.0
1419 1158.890014648438 0.0
1420 1159.43994140625 0.0
1421 1159.43994140625 0.0
1422 1161.06005859375 0.0
1423 1161.630004882812 0.0
1424 1162.52001953125 0.0
1425 1152.930053710938 0.04691358024691358
1426 1147.5400390625 0.1442458918688804
1427 1146.81005859375 0.0242283950617284
1428 1153.569946289062 0.04074074074074074
1429 1130.47998046875 0.2625658578118348
1430 1130.010009765625 0.1464063856960409
1431 1141.06005859375 0.03341049382716049
1432 1140.369995117188 0.01134259259259259
1433 1141.06005859375 0.1402335461898681
1434 1140.369995117188 0.0
1435 1140.0 0.01265432098765432
1436 1137.25 0.0
1437 1138.469970703125 0.008564814814814815
1438 1141.989990234375 0.006944444444444444
1439 1141.989990234375 0.1180113239676458
1440 1137.7099609375 0.03472222222222222
1441 1136.0 0.0
1442 1138.780029296875 0.0
1443 1143.780029296875 0.0
1444 1143.5400390625 0.0
1445 1143.079956054688 0.001157407407407407
1446 1140.859985351562 0.158641975308642
1447 1166.22998046875 0.0
1448 1166.22998046875 0.0
1449 1166.22998046875 0.0
1450 1166.22998046875 0.0
1451 1166.22998046875 0.0
1452 1160.920043945312 0.0
1453 1161.119995117188 0.0
1454 1161.319946289062 0.004706790123456791
1455 1161.550048828125 0.0158179012345679
1456 1166.2900390625 0.0
1457 1166.2900390625 0.0
1458 1166.2900390625 0.0
1459 1166.089965820312 0.0
1460 1166.22998046875 0.0
1461 1135.150024414062 0.0
1462 1135.0 0.0
1463 1139.569946289062 0.001157407407407407
1464 1138.780029296875 0.0
1465 1127.760009765625 0.001157407407407407
1466 1128.369995117188 0.0
1467 1130.0 0.0
1468 1130.0 0.004012345679012346
1469 1129.739990234375 0.0
1470 1129.31005859375 0.008796296296296295
1471 1128.780029296875 0.004861111111111111
1472 1128.109985351562 0.0
1473 1127.4599609375 0.0
1474 1126.400024414062 0.01095679012345679
1475 1125.27001953125 0.006404320987654321
1476 1124.650024414062 0.01103395061728395
1477 1123.219970703125 0.01786265432098766
1478 1122.150024414062 0.0
1479 1121.069946289062 0.0
1480 1120.0 0.0
1481 1119.0 0.0
1482 1115.93994140625 0.0
1483 1115.0 0.0
1484 1115.0 0.0
1485 1115.0 0.0
1486 1115.0 0.0
1487 1151.02001953125 0.01720679012345679
1488 1151.02001953125 0.0
1489 1150.829956054688 0.0003858024691358024
1490 1160.800048828125 0.0
1491 1150.72998046875 0.02600308641975309
1492 1152.18994140625 0.01898148148148148
1493 1176.329956054688 0.0
1494 1176.329956054688 0.01358024691358025
1495 1176.069946289062 0.0008487654320987654
1496 1175.859985351562 0.0
1497 1135.0 0.009722222222222222
1498 1134.640014648438 0.0
1499 1134.640014648438 0.0
1500 1134.640014648438 0.0
1501 1134.099975585938 0.0
1502 1134.319946289062 0.0
1503 1144.43994140625 0.007484567901234568
1504 1144.280029296875 0.02970679012345679
1505 1143.780029296875 0.0
1506 1112.630004882812 0.0
1507 1112.300048828125 0.0
1508 1112.530029296875 0.0
1509 1144.43994140625 0.03148148148148148
1510 1143.7900390625 0.003935185185185186
1511 1143.7900390625 0.0006944444444444445
1512 1152.5400390625 0.1519619412515965
1513 1148.25 0.04984567901234568
1514 1135.0 0.0
1515 1135.0 0.0
1516 1135.0 0.0
1517 1135.0 0.0
1518 1135.0 0.0
1519 1135.0 0.0
1520 1135.0 0.1163137931034483
1521 1135.0 0.0
1522 1135.0 0.0
1523 1135.0 0.0
1524 1135.0 0.0
1525 1135.0 0.0
1526 1134.47998046875 0.0
1527 1133.22998046875 0.008719135802469136
1528 1067.630004882812 0.0
1529 1068.109985351562 0.0
1530 1068.199951171875 0.0
1531 1068.699951171875 0.0
1532 1068.489990234375 0.0
1533 1068.469970703125 0.0
1534 1069.119995117188 0.0
1535 1004.179992675781 0.0
1536 1113.140014648438 0.0
1537 1114.619995117188 0.003703703703703704
1538 1115.630004882812 0.00609567901234568
1539 1118.319946289062 0.6362075617283951
1540 1161.780029296875 0.0
1541 1161.72998046875 0.0
1542 1147.97998046875 0.0349537037037037
1543 1147.97998046875 0.01875
1544 1147.550048828125 0.01180555555555556
1545 1147.630004882812 0.01141975308641975
1546 1137.140014648438 0.0
1547 1137.140014648438 0.0
1548 1136.880004882812 0.0
1549 1135.0 0.0
1550 1125.0 0.0
1551 1125.510009765625 0.01080246913580247
1552 1129.630004882812 0.03364197530864198
1553 1133.390014648438 0.0
1554 1172.319946289062 0.0
1555 1171.900024414062 0.006172839506172839
1556 1171.599975585938 0.0
1557 1173.010009765625 0.0
1558 1172.660034179688 0.01149691358024691
1559 1172.420043945312 0.0
1560 1173.589965820312 0.0
1561 1173.170043945312 0.004320987654320987
1562 1091.97998046875 0.0
1563 1085.890014648438 0.0
1564 1147.890014648438 0.00949074074074074
1565 1133.43994140625 0.0
1566 1134.420043945312 0.0
1567 1138.510009765625 0.0
1568 1138.119995117188 0.0
1569 1137.68994140625 0.007253086419753086
1570 1134.469970703125 0.003009259259259259
1571 1134.530029296875 0.02407407407407407
1572 1138.670043945312 0.0
1573 1066.819946289062 0.0
1574 1066.819946289062 0.0
1575 1151.199951171875 0.01419753086419753
1576 1150.02001953125 0.08063271604938271
1577 1143.25 0.0
1578 1143.25 0.1163137931034483
1579 1143.18994140625 0.0
1580 1143.02001953125 0.0
1581 1143.02001953125 0.0
1582 1142.9599609375 0.0
1583 1142.9599609375 0.0
1584 1142.9599609375 0.0
1585 1142.9599609375 0.0
1586 1142.9599609375 0.0
1587 1142.9599609375 0.0
1588 1142.9599609375 0.0
1589 1142.9599609375 0.0
1590 1142.9599609375 0.0
1591 1142.9599609375 0.0
1592 1142.9599609375 0.0
1593 1142.9599609375 0.0
1594 1142.9599609375 0.0
1595 1142.9599609375 0.0
1596 1142.9599609375 0.0
1597 1142.9599609375 0.0
1598 1142.800048828125 0.0
1599 1142.800048828125 0.0
1600 1142.800048828125 0.0
1601 1142.800048828125 0.0
1602 1142.800048828125 0.0
1603 1142.800048828125 0.0
1604 1142.569946289062 0.0
1605 1143.390014648438 0.5891306939123032
1606 1141.089965820312 0.05
1607 1141.72998046875 0.09398148148148149
1608 1142.22998046875 0.02368827160493827
1609 1142.75 0.0008487654320987654
1610 1075.719970703125 0.07631172839506173
1611 1062.130004882812 0.01782407407407408
1612 1061.72998046875 0.05185185185185185
1613 1078.390014648438 0.1389789094650206
1614 1115.0 0.008333333333333333
1615 1115.0 0.02060185185185185
1616 1115.550048828125 0.01986882716049383
1617 1104.849975585938 0.0
1618 1104.369995117188 0.0091820987654321
1619 1091.97998046875 0.0
1620 1105.0 0.0
1621 1108.140014648438 0.0
1622 1108.140014648438 0.0
1623 1108.130004882812 0.0
1624 1108.130004882812 0.0
1625 1107.670043945312 0.0
1626 1108.219970703125 0.0216820987654321
1627 1128.900024414062 0.04945987654320988
1628 1130.150024414062 0.08618827160493828
1629 1132.22998046875 0.01759259259259259
1630 1130.630004882812 0.2097551511281396
1631 1130.219970703125 0.06782407407407406
1632 1130.660034179688 0.0857445987654321
1633 1133.180053710938 0.1565144103873989
1634 1134.369995117188 0.02785493827160494
1635 1131.680053710938 0.01712962962962963
1636 1131.380004882812 0.02978395061728395
1637 1133.449951171875 0.03634259259259259
1638 1132.760009765625 0.0
1639 1132.760009765625 0.0117283950617284
1640 1132.670043945312 0.004629629629629629
1641 1152.800048828125 0.04506172839506173
1642 1148.469970703125 0.1713292252022137
1643 1148.7900390625 0.1654650276713495
1644 1138.510009765625 0.0
1645 1138.510009765625 0.0
1646 1146.869995117188 0.1674712005108557
1647 1146.630004882812 0.03217592592592593
1648 1145.469970703125 0.1277777777777778
1649 1144.469970703125 0.04876543209876543
1650 1144.030029296875 0.0
1651 1145.0 0.06720679012345679
1652 1141.699951171875 0.006172839506172839
1653 1142.579956054688 0.3023806726266497
1654 1138.880004882812 0.0
1655 1139.119995117188 0.09845679012345679
1656 1140.339965820312 0.07970679012345679
1657 1139.930053710938 0.09710648148148149
1658 1155.7099609375 0.08611111111111111
1659 1156.319946289062 0.009413580246913581
1660 1154.719970703125 0.02908950617283951
1661 1156.260009765625 0.05023148148148148
1662 1155.06005859375 0.1533508301404853
1663 1155.510009765625 0.3281522775649213
1664 1155.81005859375 0.04197530864197531
1665 1156.260009765625 0.02337962962962963
1666 1156.819946289062 0.0
1667 1140.339965820312 0.146946509152831
1668 1139.800048828125 0.003858024691358024
1669 1139.760009765625 0.01828703703703704
1670 1135.469970703125 0.0
1671 1135.469970703125 0.0
1672 1088.800048828125 0.04274691358024692
1673 1161.699951171875 0.0
1674 1161.699951171875 0.0
1675 1161.400024414062 0.0
1676 1160.910034179688 0.0
1677 1160.369995117188 0.0
1678 1160.0 0.0
1679 1159.81005859375 0.0
1680 1156.550048828125 0.0
1681 1115.619995117188 0.0
1682 1115.619995117188 0.0
1683 1115.930053710938 0.0
1684 1116.989990234375 0.002083333333333333
1685 1117.150024414062 0.0
1686 1085.0 0.003780864197530864
1687 1084.97998046875 0.002391975308641975
1688 1081.449951171875 0.01797839506172839
1689 1085.56005859375 0.0
1690 1086.390014648438 0.0
1691 1129.2099609375 0.0
1692 1128.9599609375 0.0
1693 1128.9599609375 0.0
1694 1144.339965820312 0.0
1695 1144.2099609375 0.05694444444444444
1696 1060.630004882812 0.01350308641975309
1697 1060.359985351562 0.0
1698 1060.109985351562 0.0
1699 1086.56005859375 0.0
1700 1086.130004882812 0.0
1701 1086.130004882812 0.0
1702 1085.260009765625 0.0
1703 1084.640014648438 0.0
1704 1082.380004882812 0.0
1705 1080.0 0.0
1706 1079.430053710938 0.0
1707 1077.280029296875 0.0
1708 1076.31005859375 0.0
1709 1075.890014648438 0.0
1710 1075.27001953125 0.0
1711 1074.349975585938 0.0
1712 1072.530029296875 0.0
1713 1071.079956054688 0.0
1714 1069.170043945312 0.0
1715 1068.2099609375 0.0
1716 1065.910034179688 0.0
1717 1065.599975585938 0.0
1718 1063.380004882812 0.0
1719 1061.5400390625 0.0
1720 1060.31005859375 0.0
1721 1060.81005859375 0.0
1722 1086.030029296875 0.0
1723 1086.390014648438 0.0
1724 1095.0 0.0
1725 1121.890014648438 0.02654320987654321
1726 1121.890014648438 0.2651121541081312
1727 1042.949951171875 0.0
1728 1042.949951171875 0.0
1729 1133.760009765625 0.0
1730 1133.900024414062 0.2533508301404853
1731 1015.780029296875 0.0
1732 1016.27001953125 0.0
1733 1067.119995117188 0.0
1734 1066.650024414062 0.0
1735 1143.630004882812 0.002469135802469136
1736 1143.469970703125 0.0
1737 1103.72998046875 0.0
1738 1101.780029296875 0.009876543209876543
1739 1103.380004882812 0.0
1740 1107.079956054688 0.0
1741 1124.530029296875 0.0
1742 1123.7099609375 0.0
1743 1143.329956054688 0.0
1744 1143.329956054688 0.03001543209876543
1745 1143.81005859375 0.0
1746 1143.81005859375 0.02592592592592593
1747 1145.099975585938 0.1163137931034483
1748 1145.099975585938 0.07731481481481481
1749 1150.0 0.0
1750 1150.0 0.002160493827160494
1751 1149.829956054688 0.03117283950617284
1752 1149.5400390625 0.01311728395061728
1753 1149.5400390625 0.0
1754 1152.109985351562 0.01898148148148148
1755 1151.81005859375 0.0
1756 1151.81005859375 0.0
1757 1140.0 0.0
1758 1140.0 0.0
1759 1136.880004882812 0.01334876543209877
1760 1136.880004882812 0.0
1761 1155.869995117188 0.01095679012345679
1762 1155.780029296875 0.0
1763 1085.489990234375 0.0
1764 1084.989990234375 0.0
1765 1084.650024414062 0.0
1766 1083.890014648438 0.0
1767 1083.02001953125 0.0
1768 1082.680053710938 0.0
1769 1081.849975585938 0.0
1770 1081.52001953125 0.0
1771 1080.699951171875 0.0
1772 1080.650024414062 0.0
1773 1080.650024414062 0.0
1774 1081.0400390625 0.0
1775 1081.109985351562 0.0
1776 1080.920043945312 0.0
1777 1080.68994140625 0.0
1778 1080.449951171875 0.0
1779 1080.199951171875 0.0
1780 1079.380004882812 0.0
1781 1079.22998046875 0.0
1782 1078.609985351562 0.0
1783 1164.5 0.0
1784 1164.800048828125 0.0
1785 1140.369995117188 0.01419753086419753
1786 1142.25 0.002777777777777778
1787 1117.0400390625 0.01442901234567901
1788 1126.319946289062 0.1543539165602384
1789 1125.849975585938 0.139429012345679
1790 1149.359985351562 0.0
1791 1143.550048828125 0.0
1792 1143.550048828125 0.0
1793 1143.319946289062 0.0
1794 1143.130004882812 0.0
1795 1129.43994140625 0.003780864197530864
1796 1129.43994140625 0.0
1797 1144.069946289062 0.1764989782886335
1798 1120.0 0.1947860153256705
1799 1120.989990234375 0.1960977437207322
1800 1128.160034179688 0.1163137931034483
1801 1127.140014648438 0.02384259259259259
1802 1137.260009765625 0.002546296296296297
1803 1136.239990234375 0.02662037037037037
1804 1143.390014648438 0.2196316943380162
1805 1066.819946289062 0.0
1806 1143.469970703125 0.0
1807 1143.5 0.0
1808 1143.5 0.0
1809 1100.0 0.02430555555555556
1810 1121.43994140625 0.04537037037037037
1820 1112.4599609375 0.002160493827160494
1821 1112.4599609375 0.0
1822 1112.839965820312 0.0
1823 1112.839965820312 0.01365740740740741
1902 1138.660034179688 0.0
1903 1138.660034179688 0.0
1904 1138.489990234375 0.0
1905 1109.109985351562 0.005864197530864198
1906 1108.93994140625 0.0
1907 1121.430053710938 0.0
1908 1121.420043945312 0.0
1909 1121.420043945312 0.02507716049382716
1910 1101.859985351562 0.0
1913 1152.7099609375 0.0183641975308642
1914 1152.56005859375 0.0
1915 1115.920043945312 0.0
1916 1085.56005859375 0.0
1917 1071.430053710938 0.0
1919 1163.890014648438 0.0
1920 1163.619995117188 0.0
1921 1163.339965820312 0.0
1922 1163.069946289062 0.0
1923 1162.719970703125 0.0
1924 1130.489990234375 0.0
1925 1090.920043945312 0.0
1926 1091.079956054688 0.0
1927 1135.0 0.2050733024691358
1931 1163.93994140625 0.0
1932 1163.93994140625 0.0
1933 1164.069946289062 0.0
1934 1042.949951171875 0.0
1935 1143.550048828125 0.004398148148148148
1936 1143.760009765625 0.0
1937 1145.579956054688 0.0
1938 1143.579956054688 0.0
1939 1143.579956054688 0.0
1940 1143.52001953125 0.0
1941 1143.52001953125 0.0
1942 1138.489990234375 0.0
1943 1142.22998046875 0.1163137931034483
1944 1151.52001953125 0.0
1945 1151.52001953125 0.003780864197530864
1946 1152.0 0.0
1947 1139.410034179688 0.1163137931034483
1948 1134.569946289062 0.0
1949 1134.569946289062 0.0150462962962963
1950 1161.239990234375 0.0
1951 1161.239990234375 0.0
1952 1161.239990234375 0.0
2007 1152.030029296875 0.0
2008 1152.030029296875 0.0
2009 1161.030029296875 0.0
2010 1145.0 0.0
2011 1144.949951171875 0.0
2012 1144.4599609375 0.005092592592592593
2013 1145.609985351562 0.000925925925925926
2014 1145.619995117188 0.0
2015 1144.410034179688 0.06905864197530864
2016 1143.900024414062 0.008873456790123458
2017 1143.369995117188 0.004166666666666667
2018 1142.930053710938 0.0
2019 1142.930053710938 0.006172839506172839
2020 1142.640014648438 0.002469135802469136
2021 1141.2900390625 0.0006172839506172839
2022 1141.760009765625 0.0
2023 1141.97998046875 0.1221779906343125
2024 1142.329956054688 0.002314814814814815
2027 1131.219970703125 0.0
2028 1131.4599609375 0.0
2029 1131.839965820312 0.0
2030 1132.239990234375 0.0
2031 1134.199951171875 0.0
2032 1134.550048828125 0.1374557684120903
2033 1135.56005859375 0.008641975308641974
2034 1135.800048828125 0.0
2035 1135.800048828125 0.0
2036 1135.800048828125 0.1230267560664113
2037 1136.969970703125 0.03279320987654321
2038 1107.670043945312 0.0
2039 1151.530029296875 0.0
2040 1151.550048828125 0.002160493827160494
2041 1137.010009765625 0.0
2042 1136.380004882812 0.0
2043 1135.75 0.0
2044 1135.0 0.0
2045 1135.0 0.0
2046 1135.0 0.0
2047 1135.0 0.0
2048 1135.0 0.0
2049 1135.0 0.0
2050 1135.0 0.0
2051 1132.420043945312 0.0
2052 1139.849975585938 0.004938271604938272
2053 1139.780029296875 0.1285051511281396
2054 1139.359985351562 0.01875
2055 1139.390014648438 0.01257716049382716
2056 1133.25 0.0
2057 1133.900024414062 0.006327160493827161
2058 1134.239990234375 0.008179012345679013
2059 1134.670043945312 0.008179012345679013
2060 1135.2900390625 0.01628086419753087
2061 1135.969970703125 0.05162037037037037
2062 1136.680053710938 0.0121141975308642
2063 1137.369995117188 0.008641975308641974
2064 1138.030029296875 0.02067901234567901
2065 1155.160034179688 0.001003086419753086
2066 1155.140014648438 0.00628858024691358
2067 1154.7099609375 0.0005401234567901234
2068 1154.180053710938 0.008179012345679013
2069 1153.910034179688 0.09243827160493827
2070 1153.150024414062 0.01496913580246914
2071 1152.650024414062 0.006018518518518519
2072 1154.849975585938 0.002777777777777778
2073 1154.77001953125 0.1299133301404853
2074 1154.380004882812 0.03032407407407407
2075 1153.839965820312 0.03094135802469136
2076 1153.81005859375 0.02561728395061728
2077 1153.25 0.03194444444444444
2078 1152.989990234375 0.1365298424861643
2079 1152.719970703125 0.01566358024691358
2080 1152.47998046875 0.03016975308641975
2081 1151.989990234375 0.03549382716049383
2082 1151.739990234375 0.1321316943380162
2083 1148.619995117188 0.001311728395061728
2084 1148.359985351562 0.008333333333333333
2085 1148.109985351562 0.05046296296296297
2086 1115.0 0.0
2087 1115.0 0.0
2088 1115.0 0.0
2089 1115.0 0.0
2090 1115.0 0.0
2091 1116.130004882812 0.0
2092 1115.869995117188 0.0
2093 1122.109985351562 0.0
2094 1122.339965820312 0.0
2095 1135.0 0.0
2096 1135.0 0.1577160493827161
2097 1126.7900390625 0.02114197530864198
2098 1126.900024414062 0.0
2099 1131.469970703125 0.05061728395061729
2100 1132.180053710938 0.02330246913580247
2101 1134.68994140625 0.01026234567901235
2102 1133.599975585938 0.03001543209876543
2103 1132.2900390625 0.01358024691358025
2104 1131.199951171875 0.01867283950617284
2105 1129.869995117188 0.02445987654320988
2106 1128.199951171875 0.01959876543209876
2107 1125.839965820312 0.01064814814814815
2108 1166.739990234375 0.0
2109 1166.739990234375 0.0
2110 1166.739990234375 0.0
2111 1120.0 0.06087962962962963
2112 1151.130004882812 0.0
2113 1151.130004882812 0.0
2114 1150.569946289062 0.01589506172839506
2115 1150.569946289062 0.0
2116 1150.010009765625 0.002623456790123457
2117 1150.0 0.0
2118 1150.0 0.0
2119 1119.56005859375 0.03827160493827161
2120 1119.56005859375 0.05023148148148148
2121 1080.890014648438 0.0
2122 1079.550048828125 0.0
2123 1129.109985351562 0.5526450830140486
2124 1130.170043945312 0.0158179012345679
2125 1088.699951171875 0.05933641975308642
2126 1004.280029296875 0.0
2127 1131.359985351562 0.0
2128 1131.359985351562 0.0
2132 1125.920043945312 0.006481481481481481
2133 1125.920043945312 0.0
2134 1085.670043945312 0.0
2135 1085.670043945312 0.0
2136 1085.670043945312 0.002006172839506173
2137 1085.25 0.06630658436213992
2138 1089.0400390625 0.0
2139 1088.420043945312 0.01689814814814815
2140 1088.97998046875 0.0
2141 1089.0 0.0
2142 1089.0 0.007098765432098765
2145 1130.329956054688 0.002546296296296297
2146 1130.329956054688 0.0
2147 1167.219970703125 0.000154320987654321
2148 1167.219970703125 0.0
2149 1165.619995117188 0.0
2150 1170.079956054688 0.04390432098765432
2151 1170.079956054688 0.0
2152 1170.079956054688 0.0
2153 1167.02001953125 0.0
2154 1166.839965820312 0.0
2155 1166.839965820312 0.0
2156 1123.43994140625 0.0
2157 1154.9599609375 0.01712962962962963
2158 1154.72998046875 0.0
2159 1154.72998046875 0.003626543209876543
2160 1143.630004882812 0.0
2161 1169.68994140625 0.05347222222222222
2162 1155.0 0.0
2163 1155.0 0.0
2164 1155.0 0.02430555555555555
2165 1158.150024414062 0.1318230523627076
2166 1155.22998046875 0.03287037037037037
2167 1149.219970703125 0.005092592592592593
2168 1149.420043945312 0.009722222222222222
2169 1171.400024414062 0.01929012345679012
2170 1172.660034179688 0.1375771604938271
2171 1173.5 0.009876543209876543
2172 1173.739990234375 0.00162037037037037
2173 1173.359985351562 0.002546296296296297
2174 1172.780029296875 0.02075617283950617
2175 1174.099975585938 0.0
2176 1170.449951171875 0.1730267560664113
2177 1030.839965820312 0.0
2178 1133.260009765625 0.0
2179 1169.9599609375 0.01041666666666667
2180 1169.31005859375 0.04907407407407408
2181 1168.469970703125 0.01959876543209876
2182 1167.630004882812 0.04791666666666667
2183 1166.97998046875 0.02893518518518519
2184 1165.900024414062 0.02469135802469136
2185 1165.43994140625 0.009259259259259259
2186 1165.239990234375 0.02067901234567901
2187 1164.530029296875 0.05123456790123457
2188 1163.56005859375 0.06026234567901235
2189 1163.0400390625 0.04876543209876543
2190 1162.030029296875 0.06520061728395062
2191 1160.660034179688 0.01936728395061729
2192 1158.550048828125 0.0
2193 1157.47998046875 0.0
2194 1121.239990234375 0.1997821573009791
2195 1121.180053710938 0.0
2196 1107.969970703125 0.006635802469135803
2197 1115.949951171875 0.0
2198 1135.0 0.0
2199 1135.0 0.0
2200 1115.0 0.0
2201 1151.030029296875 0.03209876543209877
2202 1151.52001953125 0.008410493827160494
2203 1123.859985351562 0.01350308641975309
2204 1123.72998046875 0.0
2205 1123.72998046875 0.0
2206 1123.31005859375 0.1163137931034483
2207 1151.97998046875 0.0
2208 1166.22998046875 0.0
2209 1166.22998046875 0.0
2210 1166.22998046875 0.0
2211 1166.329956054688 0.0
2212 1166.329956054688 0.0
2213 1116.5 0.0
2214 1115.829956054688 0.0
2215 1133.489990234375 0.0
2216 1134.010009765625 0.0
2217 1134.81005859375 0.0
2218 1135.199951171875 0.0
2219 1135.819946289062 0.0
2220 1136.239990234375 0.0
2221 1136.449951171875 0.0
2222 1150.5 0.0
2223 1158.910034179688 0.0
2224 1158.910034179688 0.0
2225 1158.199951171875 0.003703703703703704
2226 1139.869995117188 0.0
2227 1139.869995117188 0.01257716049382716
2228 1139.609985351562 0.0
2229 1159.589965820312 0.0
2230 1159.390014648438 0.1194773733503619
2231 1117.170043945312 0.0
2232 1116.5 0.0
2233 1139.359985351562 0.0
2234 1139.359985351562 0.0
2235 1100.0 0.009645061728395061
2236 1100.0 0.1163137931034483
2237 1133.219970703125 0.0
2238 1133.219970703125 0.0
2239 1133.219970703125 0.0
2240 1133.219970703125 0.0
2241 1133.219970703125 0.0
2242 1130.130004882812 0.0
2243 1130.550048828125 0.05817901234567902
2244 1133.329956054688 0.05679012345679012
2245 1163.7900390625 0.0
2246 1164.079956054688 0.0
2247 1164.319946289062 0.0
2250 1162.859985351562 0.0
2251 1163.069946289062 0.0
2252 1163.579956054688 0.0
2253 1119.47998046875 0.01921296296296296
2254 1118.949951171875 0.01080246913580247
2255 1135.0 0.2428127713920818
2256 1134.930053710938 0.01072530864197531
2265 1135.31005859375 0.001080246913580247
2266 1135.180053710938 0.02777777777777778
2267 1135.0 0.0
2268 1135.0 0.007638888888888889
2269 1150.0 0.0
2270 1149.97998046875 0.0
2271 1149.510009765625 0.0
2272 1149.030029296875 0.0
2273 1148.550048828125 0.0
2274 1148.069946289062 0.0
2275 1147.829956054688 0.0
2276 1147.589965820312 0.0
2277 1146.869995117188 0.0
2278 1146.400024414062 0.0
2279 1145.920043945312 0.0
2280 1145.530029296875 0.0
2281 1145.099975585938 0.0
2282 1145.069946289062 0.0
2283 1145.180053710938 0.0
2284 1145.0 0.0
2285 1145.0 0.0
2286 1145.0 0.0
2287 1144.489990234375 0.0
2288 1143.77001953125 0.0
2289 1143.369995117188 0.0
2290 1143.099975585938 0.0
2291 1142.300048828125 0.0
2292 1141.469970703125 0.0
2293 1140.640014648438 0.0
2294 1140.0 0.1376543209876543
2295 1140.0 0.0
2296 1140.0 0.0
2297 1140.0 0.0
2298 1140.0 0.0
2299 1140.0 0.0
2300 1140.0 0.0
2301 1139.660034179688 0.0
2302 1151.829956054688 0.0
2303 1041.920043945312 0.0
2304 1045.680053710938 0.0
2305 1046.2099609375 0.0
2306 1047.25 0.0
2307 1048.72998046875 0.0
2308 1049.819946289062 0.0
2309 1055.869995117188 0.0
2310 1061.199951171875 0.0
2311 1065.97998046875 0.0
2354 1058.93994140625 0.0
2355 1058.93994140625 0.0
2356 1096.400024414062 0.0
2357 1093.910034179688 0.0
2358 1108.52001953125 0.0
2359 1107.97998046875 0.0
2360 1107.97998046875 0.0
2361 1107.4599609375 0.0
2362 1107.4599609375 0.0
2363 1107.4599609375 0.0
2364 1107.4599609375 0.0
2365 1107.97998046875 0.0
2366 1107.97998046875 0.0
2367 1108.890014648438 0.0
2368 1121.0400390625 0.0
2369 1120.319946289062 0.0
2370 1120.0 0.0
2371 1119.380004882812 0.0
2372 1118.31005859375 0.0
2373 1117.22998046875 0.0
2374 1116.68994140625 0.0
2375 1110.579956054688 0.0
2376 1112.579956054688 0.0
2377 1107.25 0.0
2378 1111.72998046875 0.0
2379 1111.72998046875 0.0
2380 1028.989990234375 0.0
2381 1031.0400390625 0.0
2382 1032.849975585938 0.0
2383 1033.5 0.0
2384 1033.5400390625 0.0
2385 1035.030029296875 0.0
2386 1035.369995117188 0.0
2387 1036.420043945312 0.0
2388 1037.869995117188 0.0
2389 1038.9599609375 0.0
2390 1039.359985351562 0.0
2391 1039.630004882812 0.0
2392 1039.849975585938 0.0
2393 1045.0 0.0
2394 1092.569946289062 0.0
2395 1091.280029296875 0.0
2396 1090.0 0.0
2397 1079.619995117188 0.0
2398 1079.31005859375 0.0
2399 1078.599975585938 0.0
2400 1078.22998046875 0.0
2401 1077.900024414062 0.0
2402 1077.449951171875 0.0
2403 1076.52001953125 0.0
2404 1076.050048828125 0.0
2405 1075.069946289062 0.0
2406 1075.0 0.0
2407 1075.0 0.0
2408 1075.0 0.0
2409 1075.0 0.0
2410 1075.0 0.0
2411 1075.0 0.0
2412 1075.0 0.0
2413 1075.0 0.0
2414 1075.0 0.0
2415 1074.630004882812 0.0
2416 1073.599975585938 0.0
2417 1073.079956054688 0.0
2418 1071.359985351562 0.0
2419 1070.839965820312 0.0
2420 1070.319946289062 0.0
2421 1069.819946289062 0.0
2422 1068.219970703125 0.0
2423 1066.199951171875 0.0
2424 1065.18994140625 0.0
2425 1065.18994140625 0.0
2426 1065.18994140625 0.0
2427 1064.050048828125 0.0
2428 1062.349975585938 0.0
2429 1056.410034179688 0.0
2430 1054.339965820312 0.0
2431 1054.030029296875 0.0
2432 1052.640014648438 0.0
2433 1051.47998046875 0.0
2434 1049.839965820312 0.0
2435 1049.300048828125 0.0
2436 1047.890014648438 0.0
2437 1086.180053710938 0.0
2438 1086.31005859375 0.0
2439 1086.31005859375 0.0
2440 1086.660034179688 0.0
2441 1090.079956054688 0.0
2442 1084.800048828125 0.0
2443 1084.660034179688 0.0
2444 1085.069946289062 0.0
2445 1085.089965820312 0.0
2446 1071.359985351562 0.0
2447 1084.260009765625 0.0
2448 1083.97998046875 0.0
2449 1083.650024414062 0.0
2450 1083.339965820312 0.0
2451 1082.699951171875 0.0
2452 1081.819946289062 0.0
2453 1080.93994140625 0.0
2454 1080.400024414062 0.0
2455 1078.619995117188 0.0
2456 1077.569946289062 0.0
2457 1097.430053710938 0.0
2458 1096.989990234375 0.0
2459 1095.97998046875 0.0
2460 1095.0 0.0
2461 1095.0 0.0
2462 1095.0 0.0
2463 1095.0 0.0
2464 1095.0 0.0
2465 1094.5 0.0
2466 1094.339965820312 0.0
2467 1093.839965820312 0.0
2468 1092.849975585938 0.0
2469 1091.869995117188 0.0
2470 1090.859985351562 0.0
2471 1090.0 0.0
2472 1089.400024414062 0.0
2473 1089.02001953125 0.0
2474 1088.640014648438 0.0
2475 1087.829956054688 0.0
2476 1087.0 0.0
2477 1161.550048828125 0.0
2478 1161.239990234375 0.0
2479 1161.380004882812 0.0
2480 1161.380004882812 0.0
2481 1161.18994140625 0.0
2482 1161.18994140625 0.0
2483 1161.18994140625 0.0
2484 1161.18994140625 0.0
2485 1161.18994140625 0.0
2486 1161.18994140625 0.0
2487 1161.0 0.0
2488 1161.119995117188 0.0
2489 1161.119995117188 0.0
2490 1160.930053710938 0.0
2491 1160.859985351562 0.03549382716049383
2492 1160.670043945312 0.01010802469135802
2493 1161.599975585938 0.0
2494 1158.650024414062 0.05316358024691358
2495 1157.2099609375 0.07824074074074074
2496 1159.489990234375 0.0
2497 1159.75 0.07908950617283951
2498 1159.150024414062 0.0
2499 1159.280029296875 0.0
2500 1159.280029296875 0.0
2501 1158.719970703125 0.0654320987654321
2502 1157.97998046875 0.02283950617283951
2503 1156.0400390625 0.2550041294167731
2504 1156.47998046875 0.03958333333333333
2505 1156.849975585938 0.07839506172839507
2506 1156.219970703125 0.01458333333333333
2507 1156.400024414062 0.0
2508 1155.0 0.0
2509 1155.390014648438 0.06041666666666667
2510 1152.640014648438 0.08595679012345679
2511 1150.880004882812 0.0720679012345679
2512 1151.819946289062 0.005246913580246914
2513 1153.599975585938 0.03665123456790123
2514 1154.030029296875 0.0
2515 1154.469970703125 0.0308641975308642
2516 1152.670043945312 0.04799382716049383
2517 1151.5 0.1016203703703704
2518 1150.099975585938 0.00308641975308642
2519 1152.5 0.0
2520 1152.199951171875 0.009645061728395061
2521 1151.890014648438 0.01041666666666667
2522 1136.640014648438 0.03626543209876543
2523 1136.569946289062 0.06010802469135802
2524 1137.0400390625 0.004706790123456791
2525 1137.239990234375 0.02415123456790123
2526 1136.910034179688 0.2343693486590038
2527 1138.18994140625 0.103858024691358
2528 1135.680053710938 0.0919753086419753
2529 1123.7900390625 0.1683641975308642
2530 1063.329956054688 0.0
2531 1055.420043945312 0.0
2532 1051.969970703125 0.0
2533 1051.680053710938 0.0
2534 1063.589965820312 0.0
2535 1089.670043945312 0.0
2536 1089.880004882812 0.0
2537 1089.599975585938 0.0
2538 1089.619995117188 0.0
2539 1089.619995117188 0.0
2540 1089.619995117188 0.0
2541 1089.619995117188 0.0
2542 1089.619995117188 0.0
2543 1090.06005859375 0.0
2544 1090.06005859375 0.0
2545 1090.5400390625 0.0
2546 1097.199951171875 0.0
2547 1091.77001953125 0.0
2548 1099.280029296875 0.0
2549 1090.319946289062 0.01550925925925926
2550 1090.680053710938 0.0
2551 1079.550048828125 0.0
2552 1078.989990234375 0.0
2553 1078.819946289062 0.0
2554 1078.410034179688 0.0
2555 1078.599975585938 0.0
2556 1078.599975585938 0.0
2557 1078.150024414062 0.0
2558 1077.52001953125 0.008179012345679013
2559 1086.390014648438 0.0
2560 1088.22998046875 0.0
2561 1118.150024414062 0.0
2562 1124.260009765625 0.05084876543209876
2563 1125.369995117188 0.03294753086419754
2564 1126.0 0.3856697743720733
2565 1127.47998046875 0.03410493827160493
2566 1130.0 0.4078919965942955
2567 1126.77001953125 0.1376872498935718
2568 1128.359985351562 0.1163137931034483
2569 1130.43994140625 0.0
2570 1133.920043945312 0.06342592592592593
2571 1130.0 0.01496913580246914
2572 1130.170043945312 0.0
2573 1128.2099609375 0.03510802469135803
2574 1114.800048828125 0.0
2575 1108.900024414062 0.0
2576 1108.900024414062 0.0
2577 1134.160034179688 0.03225308641975309
2578 1134.030029296875 0.01574074074074074
2579 1140.2900390625 0.1398477437207322
2580 1135.9599609375 0.007638888888888889
2581 1132.7099609375 0.2007716049382716
2582 1132.839965820312 0.1266532992762878
2583 1132.839965820312 0.0
2584 1133.5 0.1805113239676458
2585 1132.819946289062 0.01980452674897119
2586 1133.489990234375 0.1163137931034483
2587 1130.180053710938 0.161304012345679
2588 1127.449951171875 0.01628086419753086
2589 1126.72998046875 0.1475637931034483
2590 1129.589965820312 0.07415123456790124
2591 1126.400024414062 0.01419753086419753
2592 1126.81005859375 0.0
2593 1127.890014648438 0.157054533844189
2594 1130.0 0.0
2595 1134.81005859375 0.06342592592592593
2596 1132.430053710938 0.1647705832269051
2597 1134.5 0.1688600893997446
2598 1133.869995117188 0.2752644103873989
2599 1134.93994140625 0.02970679012345679
2600 1134.050048828125 0.09915123456790123
2601 1132.819946289062 0.00941358024691358
2602 1132.099975585938 0.06342592592592593
2603 1133.260009765625 0.06026234567901234
2604 1130.760009765625 0.0716820987654321
2605 1132.170043945312 0.09683641975308642
2606 1127.780029296875 0.03109567901234568
2607 1128.739990234375 0.0
2608 1113.410034179688 0.0
2609 1112.489990234375 0.0
2610 1113.280029296875 0.006172839506172839
2611 1110.0 0.08801440329218108
2612 1103.890014648438 0.00625
2613 1107.859985351562 0.1849094721157939
2614 1101.400024414062 0.02685185185185185
2615 1101.180053710938 0.0
2616 1101.050048828125 0.3860555768412091
2617 1098.239990234375 0.2682757343550447
2618 1103.359985351562 0.4894064069816944
2619 1105.369995117188 0.2188600893997446
2620 1103.359985351562 0.1070987654320988
2621 1104.93994140625 0.0
2622 1104.849975585938 0.01080246913580247
2623 1104.280029296875 0.008024691358024692
2624 1102.52001953125 0.01612654320987654
2625 1114.109985351562 0.02214506172839506
2626 1114.510009765625 0.005246913580246914
2627 1114.449951171875 0.002391975308641975
2628 1115.0 0.2494485738612176
2629 1115.719970703125 0.1690915708812261
2630 1112.199951171875 0.04660493827160494
2631 1108.410034179688 0.03256172839506173
2632 1118.410034179688 0.01072530864197531
2633 1119.739990234375 0.04305555555555556
2634 1117.97998046875 0.01828703703703704
2635 1114.239990234375 0.1451718177948063
2636 1113.56005859375 0.12387552149851
2637 1112.910034179688 0.1548168795232014
2638 1110.949951171875 0.0183641975308642
2639 1110.949951171875 0.02947530864197531
2640 1108.900024414062 0.1268076202639421
2641 1114.800048828125 0.007021604938271605
2642 1114.800048828125 0.0
2643 1113.5 0.2141532992762878
2644 1112.369995117188 0.2044310770540656
2645 1121.52001953125 0.09155092592592592
2646 1114.369995117188 0.1478395061728395
2647 1119.510009765625 0.1327160493827161
2648 1124.72998046875 0.0
2649 1124.140014648438 0.0253858024691358
2650 1131.890014648438 0.1592343177948063
2651 1133.219970703125 0.000308641975308642
2652 1130.469970703125 0.0
2653 1132.670043945312 0.1520391017454236
2654 1131.319946289062 0.2198631758194977
2655 1128.069946289062 0.01890432098765432
2656 1129.089965820312 0.01527777777777778
2657 1129.510009765625 0.02098765432098765
2658 1130.0 0.03811728395061728
2659 1132.550048828125 0.003935185185185185
2660 1131.56005859375 0.01257716049382716
2661 1132.260009765625 0.0412037037037037
2662 1132.670043945312 0.03194444444444444
2663 1130.170043945312 0.1673611111111111
2664 1131.31005859375 0.1335977437207322
2665 1129.7099609375 0.1115740740740741
2666 1124.619995117188 0.06535493827160493
2667 1121.469970703125 0.06165123456790124
2668 1119.010009765625 0.0
2669 1122.349975585938 0.1686286079182631
2670 1119.010009765625 0.02353395061728395
2671 1116.619995117188 0.3279207960834398
2672 1115.410034179688 0.3232911664538102
2673 1067.349975585938 0.0
2674 1068.0 0.0
2675 1068.400024414062 0.0
2676 1068.619995117188 0.0
2677 1069.2900390625 0.0
2678 1070.0 0.0
2679 1124.119995117188 0.00609567901234568
2680 1123.319946289062 0.01983024691358025
2681 1121.130004882812 0.0150462962962963
2682 1130.650024414062 0.0279320987654321
2683 1130.900024414062 0.0
2684 1107.9599609375 0.004861111111111111
2685 1108.069946289062 0.00162037037037037
2686 1106.989990234375 0.0
2687 1107.7099609375 0.0
2688 1103.839965820312 0.0
2689 1103.839965820312 0.1163137931034483
2690 1103.839965820312 0.01489197530864197
2691 1103.839965820312 0.0
2692 1148.7900390625 0.001466049382716049
2693 1149.27001953125 0.0
2694 1149.989990234375 0.005709876543209876
2695 1150.0 0.0
2696 1150.449951171875 0.06496913580246914
2697 1151.31005859375 0.0
2698 1153.530029296875 0.009876543209876543
2699 1158.75 0.0128858024691358
2700 1124.989990234375 0.0
2701 1124.400024414062 0.0
2702 1123.589965820312 0.0
2703 1123.0400390625 0.0
2704 1160.660034179688 0.0
2705 1160.660034179688 0.0
2706 1160.52001953125 0.0
2707 1160.140014648438 0.0
2708 1159.800048828125 0.0
2709 1159.589965820312 0.0
2710 1159.180053710938 0.0
2711 1158.910034179688 0.0
2712 1158.68994140625 0.0
2713 1114.380004882812 0.0
2714 1114.380004882812 0.0
2715 1161.119995117188 0.0
2716 1160.920043945312 0.0
2717 1160.719970703125 0.0
2718 1158.849975585938 0.0
2719 1158.619995117188 0.0
2720 1166.910034179688 0.0
2721 1166.449951171875 0.0
2722 1165.800048828125 0.0
2723 1165.699951171875 0.0
2724 1165.25 0.0
2725 1164.869995117188 0.0
2726 1164.430053710938 0.0
2727 1164.130004882812 0.0
2728 1163.839965820312 0.0
2729 1163.380004882812 0.0
2730 1163.099975585938 0.0
2731 1162.81005859375 0.0
2732 1162.589965820312 0.0
2733 1162.7900390625 0.0
2734 1162.089965820312 0.0
2735 1161.81005859375 0.0
2736 1161.550048828125 0.0
2737 1130.0 0.0
2738 1130.0 0.0
2739 1130.0 0.0
2740 1130.0 0.0
2741 1173.969970703125 0.0
2742 1173.739990234375 0.0
2743 1173.150024414062 0.0
2744 1172.800048828125 0.0
2745 1172.18994140625 0.0
2746 1170.079956054688 0.0
2747 1169.699951171875 0.0
2748 1169.609985351562 0.0
2749 1169.050048828125 0.0
2750 1168.7099609375 0.0
2751 1168.7099609375 0.0
2752 1168.349975585938 0.0
2753 1167.75 0.0
2754 1167.75 0.0
2755 1174.510009765625 0.0
2756 1174.510009765625 0.0
2757 1174.510009765625 0.0
2758 1174.31005859375 0.0
2759 1073.72998046875 0.0
2760 1073.72998046875 0.0
2761 1068.4599609375 0.0
2762 1068.4599609375 0.0
2763 1018.789978027344 0.0
2764 1013.210021972656 0.0
2765 1015.780029296875 0.0
2766 1010.429992675781 0.0
2767 1123.579956054688 0.02731481481481481
2768 1123.780029296875 0.01612654320987654
2769 1176.380004882812 0.0
2770 1176.329956054688 0.0
2771 1130.0 0.1318230523627076
2772 1139.829956054688 0.13012552149851
2773 1139.630004882812 0.1409279906343125
2774 1130.0 0.0
2775 1129.969970703125 0.02496141975308642
2776 1131.989990234375 0.2078261387824606
2777 1131.650024414062 0.0
2778 1132.239990234375 0.06319444444444444
2779 1140.119995117188 0.0125
2780 1140.0 0.02368827160493827
2781 1140.390014648438 0.1697088548318433
2782 1140.390014648438 0.05578703703703704
2783 1139.579956054688 0.6162582588335462
2784 1140.589965820312 0.1940915708812261
2785 1138.52001953125 0.195017496807152
2786 1178.81005859375 0.0
2787 1178.619995117188 0.0091820987654321
2788 1178.579956054688 0.002160493827160494
2789 1178.2099609375 0.0
2790 1179.619995117188 0.0
2791 1179.619995117188 0.0
2792 1179.619995117188 0.0
2793 1179.410034179688 0.0
2794 1177.030029296875 0.0
2795 1177.030029296875 0.0
2796 1176.800048828125 0.004861111111111111
2797 1177.530029296875 0.0
2798 1177.280029296875 0.002700617283950617
2799 1178.050048828125 0.0
2800 1177.890014648438 0.001466049382716049
2801 1178.18994140625 0.007613168724279836
2802 1178.030029296875 0.0
2803 1109.599975585938 0.01604938271604938
2804 1115.300048828125 0.0
2805 1115.81005859375 0.0
2806 1162.650024414062 0.0
2807 1162.56005859375 0.0
2810 1130.949951171875 0.03896604938271605
2811 1129.400024414062 0.04436728395061729
2812 1131.300048828125 0.0
2813 1131.880004882812 0.02415123456790123
2814 1129.52001953125 0.01018518518518519
2815 1108.18994140625 0.0
2816 1108.18994140625 0.0
2817 1157.7900390625 0.0
2818 1157.7900390625 0.004629629629629629
2819 1158.400024414062 0.02021604938271605
2820 1158.400024414062 0.01280864197530864
2821 1158.68994140625 0.006404320987654321
2822 1159.25 0.01550925925925926
2823 1159.819946289062 0.0
2824 1159.819946289062 0.0
2825 1159.9599609375 0.0
2826 1160.329956054688 0.0
2827 1160.47998046875 0.0
2828 1160.47998046875 0.0
2829 1161.2099609375 0.0
2830 1161.2099609375 0.003317901234567901
2831 1161.430053710938 0.0
2832 1161.430053710938 0.003472222222222222
2833 1161.969970703125 0.0
2834 1162.219970703125 0.003317901234567901
2835 1162.219970703125 0.0
2836 1162.969970703125 0.006635802469135803
2837 1163.18994140625 0.0
2838 1163.680053710938 0.0
2839 1163.859985351562 0.09243827160493827
2840 1163.859985351562 0.0
2841 1164.2099609375 0.0
2842 1164.31005859375 0.0
2843 1164.75 0.0
2844 1164.75 0.0
2845 1165.099975585938 0.0
2846 1165.260009765625 0.0
2847 1165.619995117188 0.0
2848 1166.400024414062 0.0
2849 1167.06005859375 0.0
2850 1167.75 0.002546296296296297
2851 1168.489990234375 0.0
2852 1169.410034179688 0.002854938271604938
2853 1170.0 0.0
2854 1171.859985351562 0.0
2855 1172.050048828125 0.0
2856 1172.780029296875 0.0
2857 1173.739990234375 0.0
2858 1174.300048828125 0.0
2859 1179.410034179688 0.0
2860 1179.2900390625 0.007021604938271605
2861 1179.089965820312 0.01141975308641975
2862 1179.739990234375 0.0
2863 1179.739990234375 0.0
2864 1179.829956054688 0.0
2865 1166.569946289062 0.0
2866 1164.180053710938 0.002546296296296297
2867 1164.619995117188 0.02121913580246914
2868 1165.089965820312 0.0
2869 1163.800048828125 0.0
2870 1164.18994140625 0.006635802469135803
2871 1164.449951171875 0.001388888888888889
2872 1159.18994140625 0.0
2873 1158.9599609375 0.1163137931034483
2874 1158.420043945312 0.0
2875 1158.2099609375 0.0
2876 1141.359985351562 0.0
2877 1141.2099609375 0.0
2878 1141.170043945312 0.0
2879 1141.02001953125 0.0
2880 1141.0400390625 0.0
2881 1140.900024414062 0.0
2882 1140.930053710938 0.0
2883 1140.7900390625 0.0
2884 1140.670043945312 0.0
2885 1140.530029296875 0.1163137931034483
2886 1140.280029296875 0.0
2887 1145.0 0.0
2888 1145.0 0.0
2889 1145.0 0.0
2890 1141.839965820312 0.0
2891 1141.839965820312 0.0
2892 1141.839965820312 0.0
2893 1141.949951171875 0.0
2894 1130.199951171875 0.0
2895 1130.77001953125 0.0095679012345679
2896 1146.780029296875 0.1384588548318433
2897 1146.31005859375 0.04544753086419753
2898 1145.260009765625 0.01890432098765432
2899 1142.089965820312 0.0
2900 1143.069946289062 0.03580246913580247
2901 1143.530029296875 0.006481481481481481
2902 1142.72998046875 0.0
2903 1142.510009765625 0.00162037037037037
2904 1142.199951171875 0.009722222222222222
2905 1132.2900390625 0.007484567901234568
2906 1133.25 0.09228395061728395
2907 1134.0 0.003240740740740741
2908 1141.839965820312 0.0
2914 1141.890014648438 0.0
2915 1141.890014648438 0.0
2916 1141.890014648438 0.0
2917 1141.739990234375 0.0
2918 1140.900024414062 0.0
2919 1140.93994140625 0.002237654320987654
2920 1140.599975585938 0.0
2921 1140.599975585938 0.0
2922 1140.280029296875 0.00787037037037037
2923 1140.069946289062 0.0
2924 1130.199951171875 0.0
2925 1139.319946289062 0.01358024691358025
2926 1140.130004882812 0.01408179012345679
2927 1140.5400390625 0.01010802469135802
2928 1131.530029296875 0.0
2929 1131.900024414062 0.0
2930 1132.449951171875 0.0
2931 1132.81005859375 0.0
2932 1130.030029296875 0.0
2933 1026.430053710938 0.0
2934 1007.469970703125 0.0
2935 1121.449951171875 0.0
2936 1121.599975585938 0.0
2937 1118.150024414062 0.0
2938 1117.43994140625 0.05887345679012345
2939 1124.079956054688 0.0
2940 1123.97998046875 0.1284279906343125
2941 1116.369995117188 0.01782407407407408
2942 1114.650024414062 0.0
2943 1118.180053710938 0.0
2944 1162.72998046875 0.0
2945 1162.609985351562 0.0
2946 1130.0 0.005709876543209876
2947 1102.680053710938 0.0
2948 1104.170043945312 0.01057098765432099
2949 1101.56005859375 0.01558641975308642
2950 1103.089965820312 0.1171625585355471
2951 1103.089965820312 0.0
2952 1123.530029296875 0.4385761529728963
2953 1121.97998046875 0.03433641975308642
2954 1122.02001953125 0.1346779906343125
2955 1120.31005859375 0.1281193486590038
2956 1123.930053710938 0.1254958918688804
2957 1124.2099609375 0.1298940400170285
2958 1124.680053710938 0.2069002128565347
2959 1130.339965820312 0.02083333333333334
2960 1124.7099609375 0.1350637931034483
2961 1125.0 0.006905864197530864
2962 1125.400024414062 0.1282736696466582
2963 1126.069946289062 0.01766975308641975
2964 1122.640014648438 0.2563158578118349
2965 1121.890014648438 0.01705246913580247
2966 1121.380004882812 0.0
2967 1123.510009765625 0.01790123456790123
2968 1135.0 0.02749485596707819
2969 1135.0 0.157517496807152
2970 1135.050048828125 0.3116399318859089
2971 1129.530029296875 0.02554012345679012
2972 1129.52001953125 0.0
2973 1135.780029296875 0.2145391017454236
2974 1136.800048828125 0.2735475893997446
2975 1135.0400390625 0.01666666666666667
2976 1134.969970703125 0.1490298424861644
2977 1135.719970703125 0.1452489782886335
2978 1133.030029296875 0.122409472115794
2979 1133.030029296875 0.01111111111111111
2980 1133.31005859375 0.02970679012345679
2981 1136.010009765625 0.1309742869306088
2982 1134.219970703125 0.02399691358024691
2983 1132.239990234375 0.5561502341421882
2984 1071.420043945312 0.0
2985 1072.150024414062 0.01867283950617284
2986 1070.0 0.01365740740740741
2987 1077.630004882812 0.05545267489711934
2988 1143.18994140625 0.0
2989 1143.18994140625 0.02854938271604938
2990 1124.93994140625 0.002623456790123457
2991 1143.579956054688 0.0
2992 1148.300048828125 0.009259259259259259
2993 1148.300048828125 0.0
2994 1146.7099609375 0.03279320987654321
2995 1146.97998046875 0.0
2996 1146.97998046875 0.0
2997 1147.18994140625 0.0658179012345679
2998 1151.81005859375 0.0
2999 1151.81005859375 0.0
3000 1134.839965820312 0.04691358024691358
3001 1136.800048828125 0.05810185185185185
3002 1137.7900390625 0.2769619412515965
3003 1129.2099609375 0.0
3004 1128.579956054688 0.0
3005 1125.9599609375 0.0
3006 1129.400024414062 0.0607253086419753
3007 1133.380004882812 0.1385360153256705
3008 1132.400024414062 0.0507716049382716
3009 1137.260009765625 0.01635802469135803
3010 1128.069946289062 0.006481481481481481
3011 1128.25 0.004166666666666667
3012 1145.0 0.05532407407407407
3013 1145.0 0.1660823116219668
3014 1143.52001953125 0.0
3015 1143.52001953125 0.0
3016 1143.7099609375 0.03973765432098766
3017 1132.989990234375 0.1371471264367816
3018 1135.369995117188 0.0183641975308642
3019 1135.869995117188 0.003626543209876544
3020 1136.75 0.00470679012345679
3021 1137.780029296875 0.1841378671775224
3022 1147.829956054688 0.04243827160493827
3023 1145.650024414062 0.04328703703703704
3024 1148.400024414062 0.0
3025 1126.2099609375 0.02422839506172839
3026 1126.199951171875 0.1717592592592593
3027 1126.2099609375 0.08989197530864197
3028 1127.579956054688 0.009413580246913581
3029 1127.300048828125 0.02006172839506173
3030 1130.0 0.00316358024691358
3031 1129.43994140625 0.0
3032 1125.150024414062 0.01358024691358025
3033 1126.2900390625 0.04058641975308642
3034 1125.949951171875 0.1534537107989215
3035 1125.150024414062 0.002700617283950617
3036 1126.7900390625 0.1731810770540656
3037 1125.68994140625 0.006095679012345679
3038 1129.170043945312 0.04166666666666666
3039 1129.109985351562 0.08464506172839506
3040 1129.380004882812 0.2064372498935718
3041 1127.579956054688 0.0
3042 1144.18994140625 0.111033950617284
3043 1144.380004882812 0.1265432098765432
3044 1145.800048828125 0.09382716049382717
3045 1145.910034179688 0.05486111111111111
3046 1147.609985351562 0.1293981481481482
3047 1144.780029296875 0.06103395061728395
3048 1139.760009765625 0.182054533844189
3049 1134.81005859375 0.1103395061728395
3050 1132.739990234375 0.0507716049382716
3051 1130.410034179688 0.2928899318859089
3052 1130.0 0.1795082375478927
3053 1129.099975585938 0.3311615368241805
3054 1129.400024414062 0.1628415708812261
3055 1139.640014648438 0.02924382716049383
3056 1139.640014648438 0.01450617283950617
3057 1129.969970703125 0.0
3058 1140.219970703125 0.02044753086419753
3059 1140.02001953125 0.09891975308641976
3060 1140.410034179688 0.1646934227330779
3061 1140.420043945312 0.4858240953597276
3062 1141.650024414062 0.1200617283950617
3063 1143.680053710938 0.2338292252022137
3064 1142.7900390625 0.3617170923797361
3065 1144.75 0.2784279906343125
3066 1145.52001953125 0.2192458918688804
3067 1140.609985351562 0.1595236696466582
3068 1146.489990234375 0.06412037037037037
3069 1140.0 0.01134259259259259
3070 1147.5400390625 0.0720679012345679
3071 1148.5400390625 0.004012345679012346
3072 1143.079956054688 0.0
3073 1143.449951171875 0.01720679012345679
3074 1138.050048828125 0.2370699659429545
3075 1140.52001953125 0.1449403363133248
3076 1137.0 0.08132716049382716
3077 1134.369995117188 0.4508703916560239
3078 1138.530029296875 0.1978724350787569
3079 1137.150024414062 0.0996141975308642
3080 1141.0 0.03317901234567901
3081 1135.150024414062 0.08263888888888889
3082 1141.02001953125 0.02052469135802469
3083 1136.609985351562 0.01311728395061728
3084 1136.760009765625 0.02986111111111111
3085 1136.119995117188 0.04699074074074074
3086 1137.5 0.02924382716049383
3087 1138.380004882812 0.5187273946360154
3088 1136.47998046875 0.02584876543209877
3089 1136.140014648438 0.0
3090 1135.800048828125 0.0
3091 1135.380004882812 0.06325231481481482
3092 1137.069946289062 0.1764218177948063
3093 1138.75 0.04992283950617284
3094 1138.489990234375 0.06419753086419754
3095 1139.800048828125 0.05841049382716049
3096 1139.670043945312 0.181102887753654
3097 1140.280029296875 0.04822530864197531
3098 1136.880004882812 0.1616070029799915
3099 1137.890014648438 0.03341049382716049
3100 1135.510009765625 0.1515761387824606
3101 1142.47998046875 0.005092592592592592
3102 1142.170043945312 0.07399691358024692
3103 1139.300048828125 0.03958333333333333
3104 1140.670043945312 0.03233024691358025
3105 1141.369995117188 0.04390432098765432
3106 1141.030029296875 0.1654650276713495
3107 1140.0 0.04089506172839506
3108 1141.77001953125 0.1415509259259259
3109 1140.469970703125 0.04616126543209877
3110 1141.77001953125 0.01358024691358025
3111 1140.0 0.1198559670781893
3112 1134.199951171875 0.01327160493827161
3113 1134.890014648438 0.04830246913580247
3114 1130.56005859375 0.09722222222222222
3115 1135.089965820312 0.1713292252022137
3116 1135.469970703125 0.04012345679012345
3117 1136.7900390625 0.04266975308641975
3118 1134.0400390625 0.2034279906343125
3119 1137.069946289062 0.1403878671775224
3120 1137.449951171875 0.2521934227330779
3121 1135.0 0.1361111111111111
3122 1137.349975585938 0.02993827160493827
3123 1138.239990234375 0.03333333333333333
3124 1137.349975585938 0.007484567901234569
3125 1139.359985351562 0.0
3126 1132.050048828125 0.07029320987654321
3127 1132.849975585938 0.08171296296296296
3128 1134.170043945312 0.0
3129 1132.800048828125 0.2779207960834398
3130 1133.31005859375 0.0
3131 1130.0400390625 0.02415123456790123
3132 1141.800048828125 0.04182098765432098
3133 1141.2900390625 0.0287037037037037
3134 1140.589965820312 0.04938271604938272
3135 1140.31005859375 0.1258487654320988
3136 1148.969970703125 0.0
3137 1143.420043945312 0.0
3138 1143.819946289062 0.0
3139 1143.5400390625 0.01134259259259259
3140 1143.069946289062 0.1385360153256705
3141 1147.510009765625 0.1466378671775224
3142 1137.7900390625 1.338734567901235
3143 1137.160034179688 0.05972222222222222
3144 1138.25 0.0591820987654321
3145 1139.079956054688 0.06489197530864198
3146 1137.660034179688 0.07430555555555556
3147 1142.119995117188 0.0
3148 1142.420043945312 0.01689814814814815
3149 1142.119995117188 0.0
3150 1141.800048828125 0.003472222222222222
3151 1145.7900390625 0.04745370370370371
3152 1145.77001953125 0.0
3153 1143.579956054688 0.1121913580246914
3154 1145.0 0.5021491911451682
3155 1138.880004882812 0.0
3156 1139.630004882812 0.04722222222222222
3157 1134.839965820312 0.01450617283950617
3158 1143.099975585938 0.08719135802469136
3159 1142.160034179688 0.2350637931034483
3160 1143.5400390625 0.0
3161 1146.510009765625 0.04737654320987654
3162 1145.0 0.1645391017454236
3163 1144.109985351562 0.03896604938271605
3164 1143.06005859375 0.1400020647083866
3165 1142.829956054688 0.1264218177948063
3166 1142.530029296875 0.0
3167 1148.680053710938 0.05061728395061729
3168 1148.680053710938 0.02160493827160494
3169 1150.18994140625 0.3090936355896126
3170 1138.609985351562 0.05023148148148148
3171 1138.609985351562 0.0
3172 1138.609985351562 0.0
3173 1139.339965820312 0.05771604938271604
3174 1144.380004882812 0.07314814814814814
3175 1146.880004882812 0.003009259259259259
3176 1147.510009765625 0.008796296296296297
3177 1144.859985351562 0.05733024691358025
3178 1145.920043945312 0.01658950617283951
3179 1143.56005859375 0.06838991769547326
3180 1144.420043945312 0.08549382716049382
3181 1140.93994140625 0.22387552149851
3182 1143.5400390625 0.0
3183 1143.069946289062 0.0
3184 1141.800048828125 0.007561728395061728
3185 1141.619995117188 0.008487654320987654
3186 1141.449951171875 0.1163137931034483
3187 1141.619995117188 0.007227366255144033
3188 1141.9599609375 0.004475308641975309
3189 1142.430053710938 0.06574074074074074
3190 1142.349975585938 0.00787037037037037
3191 1141.97998046875 0.1839063856960409
3192 1140.300048828125 0.220480459770115
3193 1136.22998046875 0.2082119412515964
3194 1135.4599609375 0.1683971264367816
3195 1130.849975585938 0.0
3196 1130.849975585938 0.0
3197 1130.43994140625 0.0
3198 1130.18994140625 0.0
3199 1130.0 0.0
3200 1130.0 0.0
3201 1136.869995117188 0.0
3202 1137.260009765625 0.0
3203 1137.699951171875 0.0
3204 1138.530029296875 0.0
3205 1139.06005859375 0.0
3206 1139.609985351562 0.0
3207 1121.43994140625 0.0
3208 1124.849975585938 0.0
3209 1129.849975585938 0.0
3210 1129.199951171875 0.0
3211 1128.56005859375 0.0
3212 1128.030029296875 0.0
3213 1127.640014648438 0.0
3214 1131.06005859375 0.0
3215 1131.099975585938 0.0
3216 1130.719970703125 0.0
3217 1130.969970703125 0.0
3218 1115.0 0.0
3219 1115.77001953125 0.0
3220 1115.599975585938 0.0
3221 1117.140014648438 0.0
3222 1117.199951171875 0.0
3223 1117.199951171875 0.0
3224 1117.25 0.0
3225 1116.27001953125 0.0
3226 1121.030029296875 0.0
3227 1120.0 0.0
3228 1120.0 0.0
3229 1120.0 0.0
3230 1118.2900390625 0.0
3231 1121.530029296875 0.0
3232 1121.530029296875 0.0
3233 1130.43994140625 0.05239197530864197
3234 1142.739990234375 0.0
3235 1142.569946289062 0.0
3236 1142.569946289062 0.0
3237 1142.569946289062 0.0
3238 1148.47998046875 0.0
3239 1147.989990234375 0.0
3240 1147.510009765625 0.0
3241 1146.650024414062 0.0
3242 1146.170043945312 0.0
3243 1145.069946289062 0.0
3244 1144.7900390625 0.0
3245 1144.609985351562 0.0
3246 1150.5 0.0
3247 1150.97998046875 0.0
3248 1150.97998046875 0.0
3249 1150.0 0.0
3250 1150.0 0.0
3251 1150.0 0.0
3252 1150.0 0.0
3253 1149.819946289062 0.0
3254 1143.280029296875 0.1210205832269051
3255 1143.47998046875 0.02554012345679012
3256 1144.18994140625 0.02716049382716049
3257 1140.2900390625 0.0
3258 1140.2900390625 0.0
3259 1142.949951171875 0.0
3260 1143.079956054688 0.006172839506172839
3261 1142.949951171875 0.0
3262 1140.2900390625 0.0
3263 1148.930053710938 0.002700617283950617
3264 1148.410034179688 0.01797839506172839
3265 1147.630004882812 0.004475308641975309
3266 1147.109985351562 0.1484125585355471
3267 1146.579956054688 0.2326275862068966
3268 1146.06005859375 0.1502644103873989
3269 1145.280029296875 0.1850308641975309
3270 1144.660034179688 0.273849801333901
3271 1144.31005859375 0.1163137931034483
3272 1143.969970703125 0.004783950617283951
3273 1140.5400390625 0.01813271604938272
3274 1140.219970703125 0.0212962962962963
3275 1140.0 0.001157407407407407
3276 1141.760009765625 0.01342592592592593
3277 1141.699951171875 0.1359897190293742
3278 1141.569946289062 0.02021604938271605
3279 1141.260009765625 0.1628415708812261
3280 1142.079956054688 0.02307098765432099
3281 1142.180053710938 0.02785493827160494
3282 1142.949951171875 0.0
3283 1142.819946289062 0.0
3284 1142.680053710938 0.01473765432098766
3285 1142.589965820312 0.0
3286 1140.369995117188 0.3828148361004683
3287 1142.7900390625 0.04351851851851852
3288 1139.72998046875 0.006404320987654321
3289 1138.640014648438 0.1446316943380162
3290 1139.099975585938 0.007021604938271605
3291 1137.5400390625 0.1480267560664112
3292 1141.31005859375 0.0
3293 1140.77001953125 0.0
3294 1142.569946289062 0.0
3295 1142.2900390625 0.0
3296 1155.0 0.005478395061728395
3297 1155.02001953125 0.007793209876543209
3298 1155.569946289062 0.003935185185185185
3299 1152.030029296875 0.0
3300 1151.81005859375 0.0
3301 1130.339965820312 0.0
3302 1130.339965820312 0.004706790123456791
3303 1130.339965820312 0.0
3304 1115.0 0.0
3305 1115.0 0.0
3306 1135.0 0.0
3307 1114.5 0.0
3308 1114.5 0.0
3309 1130.109985351562 0.06620370370370371
3310 1130.0 0.3200504257130694
3311 1129.97998046875 0.0
3312 1130.0 0.02044753086419753
3313 1129.579956054688 0.008564814814814815
3314 1129.420043945312 0.003395061728395062
3315 1135.0 0.0
3316 1135.0 0.0
3317 1135.0 0.0
3318 1135.0 0.3415010429970201
3319 1131.369995117188 0.03513374485596708
3320 1132.839965820312 0.08449074074074074
3321 1135.0 0.2513446573009792
3322 1135.0 0.1916995955725841
3323 1135.0 0.3090936355896126
3324 1135.0 0.2488312899106003
3325 1135.0 0.004398148148148148
3326 1135.0 0.02075617283950617
3327 1135.0 0.006847993827160494
3328 1135.0 0.00154320987654321
3329 1135.0 0.0
3330 1135.0 0.0
3331 1135.0 0.0
3332 1135.0 0.00308641975308642
3333 1135.0 0.0
3334 1135.0 0.0
3335 1135.0 7.716049382716049e-05
3336 1127.839965820312 0.01427469135802469
3337 1128.109985351562 0.03181584362139918
3338 1128.380004882812 0.0
3339 1128.699951171875 0.0
3340 1119.510009765625 0.1378415708812261
3341 1122.099975585938 0.01157407407407408
3342 1122.260009765625 0.0
3343 1122.260009765625 0.0
3344 1122.420043945312 0.0
3345 1122.719970703125 0.0
3346 1122.719970703125 0.0
3347 1123.02001953125 0.005401234567901234
3348 1123.319946289062 0.0
3349 1123.619995117188 0.0
3350 1122.18994140625 0.0
3351 1122.5400390625 0.0
3352 1122.170043945312 0.0
3353 1127.7900390625 0.002777777777777778
3354 1127.7099609375 0.0
3355 1127.599975585938 0.002546296296296297
3356 1128.180053710938 0.00162037037037037
3357 1127.359985351562 0.01242283950617284
3358 1127.089965820312 0.0
3359 1125.800048828125 0.006790123456790123
3360 1123.7900390625 0.03070987654320988
3361 1128.719970703125 0.01885288065843621
3362 1127.93994140625 0.4284609195402299
3363 1126.420043945312 0.0
3364 1125.410034179688 0.02978395061728395
3365 1121.699951171875 0.1595236696466582
3366 1118.650024414062 0.01365740740740741
3367 1117.400024414062 0.01342592592592592
3368 1127.880004882812 0.04411651234567901
3369 1126.829956054688 0.001003086419753086
3370 1127.4599609375 0.0
3371 1127.569946289062 0.002854938271604938
3372 1127.609985351562 0.00162037037037037
3373 1127.780029296875 0.0
3374 1126.680053710938 0.02060185185185185
3375 1126.9599609375 0.0
3376 1135.0 0.0
3377 1130.52001953125 0.1251543209876543
3378 1135.0 0.0
3379 1135.0 0.01898148148148148
3380 1135.0 0.0
3381 1135.0 0.005169753086419753
3382 1135.0 0.1198631758194977
3383 1135.0 0.006712962962962963
3384 1135.0 0.00802469135802469
3385 1135.0 0.1660051511281397
3386 1135.0 0.02723765432098765
3387 1135.0 0.1444002128565347
3388 1128.25 0.004552469135802469
3389 1130.599975585938 0.05949074074074074
3390 1135.0 0.01327160493827161
3391 1135.0 0.0183641975308642
3392 1135.0 0.0
3393 1135.0 0.0
3394 1135.0 0.06026234567901234
3395 1135.0 0.08472222222222223
3396 1132.609985351562 1.089660493827161
3397 1131.930053710938 0.0
3398 1132.180053710938 0.02276234567901235
3399 1132.68994140625 0.03541666666666667
3400 1133.640014648438 0.0
3401 1129.140014648438 0.1548168795232014
3402 1129.089965820312 0.02183641975308642
3403 1129.369995117188 0.003395061728395062
3404 1129.099975585938 0.002507716049382716
3405 1130.0 0.21137552149851
3406 1131.469970703125 0.1135030864197531
3407 1131.7099609375 0.0
3408 1133.329956054688 0.0882716049382716
3409 1132.819946289062 0.01319444444444445
3410 1132.140014648438 0.004398148148148148
3411 1121.5 0.0
3412 1121.719970703125 0.003009259259259259
3413 1121.089965820312 0.001003086419753086
3414 1121.630004882812 0.1556656449553001
3415 1133.52001953125 0.02970679012345679
3416 1132.079956054688 0.1629958918688804
3417 1122.849975585938 0.008950617283950617
3418 1133.800048828125 0.02345679012345679
3419 1129.239990234375 0.06180555555555556
3420 1133.569946289062 0.03179012345679012
3421 1136.349975585938 0.1545082375478927
3422 1135.06005859375 0.0
3423 1135.43994140625 0.03881172839506172
3424 1135.219970703125 0.0
3425 1135.349975585938 0.0
3426 1135.319946289062 0.01203703703703704
3427 1135.589965820312 0.02546296296296296
3428 1138.829956054688 0.02986111111111111
3429 1138.199951171875 0.1982582375478927
3430 1135.930053710938 0.2188271604938272
3431 1139.449951171875 0.02044753086419753
3432 1138.699951171875 0.05054012345679013
3433 1139.180053710938 0.0
3434 1138.239990234375 0.02044753086419753
3435 1135.93994140625 0.006558641975308642
3436 1135.890014648438 0.005015432098765432
3437 1136.050048828125 0.01851851851851852
3438 1139.180053710938 0.01548353909465021
3439 1139.579956054688 0.0
3440 1139.089965820312 0.02615740740740741
3441 1134.780029296875 0.00933641975308642
3442 1133.97998046875 0.0
3443 1132.5 0.01381172839506173
3444 1134.630004882812 0.0
3445 1134.630004882812 0.0
3446 1116.31005859375 0.01736111111111111
3447 1117.5400390625 0.04552469135802469
3448 1131.0 0.0521604938271605
3449 1116.31005859375 0.0
3450 1115.839965820312 0.0
3451 1115.72998046875 0.0
3452 1114.589965820312 0.0
3453 1115.06005859375 0.0
3454 1114.109985351562 0.0
3455 1114.319946289062 0.01165123456790123
3456 1114.25 0.0
3457 1116.390014648438 0.006635802469135803
3458 1116.75 0.001466049382716049
3459 1116.420043945312 0.0
3460 1116.609985351562 0.0
3461 1116.609985351562 0.0
3462 1116.569946289062 0.08410493827160494
3463 1115.589965820312 0.005478395061728395
3464 1115.719970703125 0.0
3465 1115.599975585938 0.002546296296296297
3466 1115.410034179688 0.0
3467 1115.589965820312 0.02808641975308642
3468 1116.910034179688 0.02685185185185185
3469 1116.390014648438 0.0
3470 1115.780029296875 0.001003086419753086
3471 1115.359985351562 0.0
3472 1131.7099609375 0.001234567901234568
3473 1129.530029296875 0.0
3474 1129.530029296875 0.001003086419753086
3475 1115.0 0.0
3476 1114.880004882812 0.0
3477 1116.280029296875 0.07669753086419753
3478 1127.7099609375 0.3482911664538102
3479 1116.900024414062 0.1163137931034483
3480 1114.619995117188 0.1163137931034483
3481 1114.900024414062 0.0
3482 1114.589965820312 0.0
3483 1114.27001953125 0.0
3484 1113.9599609375 0.0
3485 1115.449951171875 0.00154320987654321
3486 1115.0 0.01018518518518519
3487 1114.050048828125 0.004629629629629629
3488 1114.119995117188 0.118088484461473
3489 1113.97998046875 0.0
3490 1114.140014648438 0.0
3491 1114.319946289062 0.0
3492 1113.81005859375 0.0
3493 1114.119995117188 0.02862654320987654
3494 1117.510009765625 0.1477181140911026
3495 1117.030029296875 0.005246913580246914
3496 1119.839965820312 0.02970679012345679
3497 1121.400024414062 0.0191358024691358
3498 1120.0 0.01350308641975309
3499 1121.0 0.02037037037037037
3500 1124.680053710938 0.01574074074074074
3501 1128.550048828125 0.02993827160493827
3502 1128.150024414062 0.0
3503 1126.2900390625 0.0
3504 1125.0 0.0
3505 1124.319946289062 0.0
3506 1124.609985351562 0.0
3507 1127.93994140625 0.02422839506172839
3508 1128.319946289062 0.0
3509 1128.569946289062 0.0
3510 1114.339965820312 0.004552469135802469
3511 1113.949951171875 0.0
3512 1113.0 0.004938271604938272
3513 1112.0400390625 0.0117283950617284
3514 1110.68994140625 0.01774691358024692
3515 1110.300048828125 0.003703703703703704
3516 1109.75 0.001774691358024691
3517 1108.199951171875 0.002932098765432099
3518 1107.239990234375 0.0
3519 1106.160034179688 0.0
3520 1105.069946289062 0.004320987654320987
3521 1104.890014648438 0.0117283950617284
3522 1103.890014648438 0.01041666666666667
3523 1102.890014648438 0.004089506172839506
3524 1102.030029296875 0.005864197530864198
3525 1101.18994140625 0.00316358024691358
3526 1100.349975585938 0.0
3527 1114.2900390625 0.0195216049382716
3528 1113.349975585938 0.0
3529 1112.430053710938 0.0
3530 1111.81005859375 0.01003086419753086
3531 1110.530029296875 0.0
3532 1109.510009765625 0.01026234567901235
3533 1108.7900390625 0.0
3534 1107.829956054688 0.007253086419753086
3535 1106.9599609375 0.04429012345679012
3536 1106.089965820312 0.001851851851851852
3537 1105.619995117188 0.004552469135802469
3538 1104.780029296875 0.003240740740740741
3539 1103.359985351562 0.002006172839506173
3540 1103.06005859375 0.0
3541 1102.219970703125 0.0
3542 1101.380004882812 0.0
3543 1100.869995117188 0.0
3544 1100.069946289062 0.0
3545 1100.359985351562 0.0
3546 1100.7900390625 0.0
3547 1100.780029296875 0.0
3548 1119.319946289062 0.5315802681992338
3549 1109.81005859375 0.02523148148148148
3550 1115.0 0.01265432098765432
3551 1110.0 0.1452489782886335
3552 1110.0 0.03557098765432098
3553 1101.849975585938 0.0
3554 1103.030029296875 0.0
3555 1101.880004882812 0.0
3556 1103.589965820312 0.01489197530864197
3557 1105.449951171875 0.140696509152831
3558 1107.589965820312 0.1163137931034483
3559 1107.68994140625 0.0
3560 1106.130004882812 0.008333333333333333
3561 1103.170043945312 0.0
3562 1062.640014648438 0.0
3563 1063.089965820312 0.0
3564 1065.449951171875 0.0
3565 1067.630004882812 0.0
3566 1100.0 0.0
3567 1099.699951171875 0.0
3568 1099.02001953125 0.0
3569 1098.52001953125 0.0
3570 1097.339965820312 0.0
3571 1096.670043945312 0.0
3572 1097.339965820312 0.0
3573 1088.510009765625 0.0
3574 1088.2900390625 0.0
3575 1087.5 0.0
3576 1085.77001953125 0.0
3577 1083.579956054688 0.0
3578 1083.099975585938 0.1163137931034483
3579 1082.239990234375 0.0
3580 1080.0 0.0
3581 1078.47998046875 0.1163137931034483
3582 1076.010009765625 0.0
3583 1074.300048828125 0.0
3584 1074.300048828125 0.0
3585 1064.780029296875 0.0
3586 1064.780029296875 0.0
3587 1065.660034179688 0.0
3588 1065.5 0.0
3589 1066.25 0.0
3590 1066.31005859375 0.0
3591 1067.589965820312 0.0
3592 1067.650024414062 0.0
3593 1068.489990234375 0.0
3594 1068.489990234375 0.0
3595 1064.670043945312 0.0
3596 1064.670043945312 0.0
3597 1057.930053710938 0.0
3598 1059.2099609375 0.0
3599 1060.4599609375 0.0
3600 1063.27001953125 0.0
3601 1064.780029296875 0.0
3602 1062.079956054688 0.0
3603 1061.890014648438 0.1163137931034483
3604 1060.0 0.0
3605 1060.0 0.0
3606 1059.43994140625 0.0
3607 1059.670043945312 0.0
3608 1059.199951171875 0.0
3609 1058.640014648438 0.0
3610 1058.640014648438 0.0
3611 1057.969970703125 0.0
3612 1060.380004882812 0.0
3613 1058.449951171875 0.0
3614 1055.5 0.0
3615 1054.239990234375 0.0
3616 1053.099975585938 1.085609567901235
3617 1055.0 0.0
3618 1055.0 0.0
3619 1055.27001953125 0.0
3620 1057.22998046875 0.0
3621 1057.170043945312 0.0
3622 1057.760009765625 0.0
3623 1058.359985351562 0.0
3624 1058.260009765625 0.0
3625 1058.839965820312 0.0
3626 1058.930053710938 0.0
3627 1060.0 0.0
3628 1129.339965820312 0.0
3629 1130.140014648438 0.00794753086419753
3630 1130.760009765625 0.005246913580246914
3631 1131.140014648438 0.01026234567901235
3632 1131.719970703125 0.0162037037037037
3633 1132.099975585938 0.01450617283950617
3634 1132.760009765625 0.03688271604938272
3635 1133.410034179688 0.009104938271604938
3636 1133.969970703125 0.0
3637 1134.150024414062 0.01265432098765432
3638 1134.800048828125 0.0
3639 1129.339965820312 0.000308641975308642
3640 1128.109985351562 0.008719135802469136
3641 1129.260009765625 0.0
3642 1106.449951171875 0.01751543209876543
3643 1117.890014648438 0.1104166666666667
3644 1127.7900390625 0.06111111111111111
3645 1128.109985351562 0.0106738683127572
3646 1128.109985351562 7.716049382716049e-05
3647 1051.739990234375 0.0
3648 1045.0 0.1163137931034483
3649 1050.0 0.0
3650 1050.670043945312 0.0
3651 1056.640014648438 0.0
3652 1055.390014648438 0.0
3653 1054.099975585938 0.0
3654 1053.43994140625 0.0
3655 1052.839965820312 0.0
3656 1052.97998046875 0.0
3657 1052.839965820312 0.0
3658 1052.390014648438 0.0
3659 1052.670043945312 0.0
3660 1052.829956054688 0.0
3661 1053.069946289062 0.0
3662 1052.56005859375 0.0
3663 1052.56005859375 0.0
3664 1052.369995117188 0.0
3665 1053.030029296875 0.0
3666 1052.530029296875 0.0
3667 1052.02001953125 0.0
3668 1051.5 0.0
3669 1050.369995117188 0.0
3670 1050.0 0.0
3671 1049.619995117188 0.0
3672 1049.390014648438 0.0
3673 1048.589965820312 0.0
3674 1048.589965820312 0.0
3675 1049.920043945312 0.0
3676 1040.910034179688 0.1163137931034483
3677 1026.359985351562 0.0
3678 1138.7099609375 0.02106481481481481
3679 1138.5400390625 0.008410493827160494
3680 1138.410034179688 0.001388888888888889
3681 1138.81005859375 0.0
3682 1138.81005859375 0.0
3683 1136.829956054688 0.0
3684 1136.619995117188 0.004398148148148148
3685 1139.02001953125 0.0
3686 1138.81005859375 0.009953703703703704
3687 1138.4599609375 0.01442901234567901
3688 1138.530029296875 0.0
3689 1137.280029296875 0.0
3690 1137.300048828125 0.004861111111111111
3691 1137.77001953125 0.006712962962962963
3692 1138.079956054688 0.0
3693 1138.469970703125 0.0
3694 1138.469970703125 0.0
3695 1136.819946289062 0.007407407407407408
3696 1137.06005859375 0.005401234567901234
3697 1137.300048828125 0.008719135802469136
3698 1137.47998046875 0.01929012345679013
3699 1137.719970703125 0.001003086419753086
3700 1136.599975585938 0.002006172839506173
3701 1136.52001953125 0.009645061728395061
3702 1136.489990234375 0.007407407407407408
3703 1126.869995117188 0.008256172839506172
3704 1127.609985351562 0.01095679012345679
3705 1128.819946289062 0.01234567901234568
3706 1129.56005859375 0.003472222222222222
3707 1130.130004882812 0.007484567901234568
3708 1130.72998046875 0.01087962962962963
3709 1131.329956054688 0.007561728395061728
3710 1131.930053710938 0.01203703703703704
3711 1132.530029296875 0.005324074074074074
3712 1133.109985351562 0.007716049382716049
3713 1133.699951171875 0.01157407407407407
3714 1134.2900390625 0.01057098765432099
3715 1135.099975585938 0.0171875
3716 1135.780029296875 0.005401234567901234
3717 1136.400024414062 0.002777777777777778
3718 1140.369995117188 0.00949074074074074
3719 1140.369995117188 0.1361440400170285
3720 1139.869995117188 0.01859567901234568
3721 1139.869995117188 0.01165123456790123
3722 1140.0 0.03117283950617284
3723 1134.849975585938 0.02137345679012346
3724 1133.75 0.05146604938271605
3725 1132.420043945312 0.005555555555555556
3726 1131.31005859375 0.01558641975308642
3727 1129.97998046875 0.01103395061728395
3728 1128.349975585938 0.00802469135802469
3729 1126.400024414062 0.02677469135802469
3730 1124.119995117188 0.1722551511281397
3731 1121.410034179688 0.0
3732 1120.859985351562 0.0
3733 1139.75 0.0
3734 1139.930053710938 0.0
3735 1140.109985351562 0.0
3736 1140.280029296875 0.0
3737 1140.280029296875 0.0
3738 1138.93994140625 0.0
3739 1138.989990234375 0.008410493827160494
3740 1139.640014648438 0.0
3741 1139.640014648438 0.0
3742 1139.949951171875 0.009876543209876543
3743 1133.47998046875 0.002932098765432099
3744 1133.7099609375 0.002854938271604938
3745 1134.089965820312 0.0
3746 1146.510009765625 0.01774691358024692
3747 1146.510009765625 0.01674382716049383
3748 1147.4599609375 0.06512345679012346
3749 1146.93994140625 0.00779320987654321
3750 1147.619995117188 0.00316358024691358
3751 1147.819946289062 0.007253086419753087
3752 1147.640014648438 0.01905864197530864
3753 1149.099975585938 0.0
3754 1148.68994140625 0.000925925925925926
3755 1148.410034179688 0.004475308641975309
3756 1148.02001953125 0.0
3757 1150.949951171875 0.001774691358024691
3758 1149.680053710938 0.008179012345679013
3759 1150.949951171875 0.0
3760 1151.739990234375 0.0
3761 1151.739990234375 0.0
3762 1152.069946289062 0.0
3763 1145.880004882812 0.1748014474244359
3764 1145.030029296875 0.02847222222222222
3765 1155.349975585938 0.007407407407407408
3766 1151.280029296875 0.0
3767 1151.660034179688 0.006095679012345679
3768 1149.160034179688 0.01242283950617284
3769 1134.319946289062 0.05007716049382716
3770 1144.150024414062 0.01273148148148148
3771 1143.390014648438 0.0224537037037037
3772 1142.349975585938 0.1356810770540656
3773 1141.599975585938 0.01574074074074074
3774 1144.140014648438 0.0125
3775 1142.31005859375 0.04351851851851852
3776 1143.43994140625 0.2417325244785015
3777 1142.660034179688 0.0404320987654321
3778 1140.530029296875 0.03348765432098765
3779 1145.890014648438 0.1185514474244359
3780 1145.239990234375 0.05709876543209877
3781 1146.030029296875 0.003009259259259259
3782 1145.219970703125 0.02361111111111111
3783 1144.219970703125 0.02322530864197531
3784 1143.43994140625 0.00779320987654321
3785 1143.119995117188 0.0
3786 1142.640014648438 0.1175483610046829
3787 1141.869995117188 0.02962962962962963
3788 1140.800048828125 0.01450617283950617
3789 1140.510009765625 0.01712962962962963
3790 1145.589965820312 0.01535493827160494
3791 1145.170043945312 0.1491070029799915
3792 1144.4599609375 0.0164158950617284
3793 1143.199951171875 0.00933641975308642
3794 1142.880004882812 0.0
3795 1142.119995117188 0.02816358024691358
3796 1141.56005859375 0.05339506172839506
3797 1140.7900390625 0.02067901234567901
3798 1145.910034179688 0.02229938271604938
3799 1145.31005859375 0.003240740740740741
3800 1145.469970703125 0.006790123456790123
3801 1145.630004882812 0.1434742869306088
3802 1145.089965820312 0.000308641975308642
3803 1145.0400390625 0.0158179012345679
3804 1145.199951171875 0.02615740740740741
3805 1142.880004882812 0.005787037037037037
3806 1143.640014648438 0.05185185185185185
3807 1145.31005859375 0.005787037037037037
3808 1133.7099609375 0.0
3809 1134.239990234375 0.0
3810 1134.77001953125 0.0
3811 1135.0 0.006404320987654321
3812 1135.380004882812 0.0
3813 1135.489990234375 0.0
3814 1135.819946289062 0.0
3815 1136.170043945312 0.0
3816 1136.599975585938 0.0
3817 1136.890014648438 0.0
3818 1137.890014648438 0.02276234567901235
3819 1138.77001953125 0.03209876543209877
3820 1136.130004882812 0.01828703703703704
3821 1137.280029296875 0.02361111111111111
3822 1137.680053710938 0.04922839506172839
3823 1137.569946289062 0.1278107066836952
3824 1137.4599609375 0.0212962962962963
3825 1137.280029296875 0.004861111111111111
3826 1136.800048828125 0.004320987654320987
3827 1134.27001953125 0.003626543209876543
3828 1134.989990234375 0.009876543209876543
3829 1135.0 0.004783950617283951
3830 1135.9599609375 0.02268518518518519
3831 1135.819946289062 0.01442901234567901
3832 1135.599975585938 0.01103395061728395
3833 1140.900024414062 0.02137345679012346
3834 1140.630004882812 0.01520061728395062
3835 1139.449951171875 0.008333333333333333
3836 1141.969970703125 0.001311728395061728
3837 1141.699951171875 0.0
3838 1136.920043945312 0.0
3839 1136.920043945312 0.03125
3840 1136.7099609375 0.00802469135802469
3841 1134.219970703125 0.002314814814814815
3842 1134.180053710938 0.05432098765432099
3843 1134.579956054688 0.02114197530864198
3844 1134.219970703125 0.01458333333333333
3845 1143.130004882812 0.0
3846 1142.930053710938 0.02175925925925926
3847 1142.390014648438 0.05871913580246914
3848 1142.199951171875 0.02731481481481482
3849 1141.599975585938 0.02800925925925926
3850 1141.640014648438 0.02160493827160494
3851 1141.260009765625 0.02330246913580247
3852 1140.949951171875 0.005632716049382716
3853 1139.199951171875 0.02708333333333333
3854 1138.97998046875 0.0191358024691358
3855 1138.800048828125 0.1413909535972754
3856 1138.359985351562 0.01782407407407408
3857 1138.2099609375 0.1315915708812261
3858 1138.119995117188 0.05902777777777778
3859 1138.030029296875 0.01990740740740741
3860 1137.650024414062 0.04320987654320987
3861 1137.569946289062 0.0242283950617284
3862 1137.5 0.02638888888888889
3863 1137.22998046875 0.1501100893997446
3864 1137.099975585938 0.1447088548318433
3865 1136.880004882812 0.0
3866 1140.660034179688 0.1446316943380162
3867 1140.47998046875 0.03341049382716049
3868 1140.319946289062 0.03055555555555555
3869 1139.7099609375 0.03618827160493827
3870 1139.569946289062 0.03695987654320988
3871 1139.449951171875 0.02253086419753086
3872 1139.25 0.01859567901234568
3873 1138.949951171875 0.1362983610046828
3874 1138.869995117188 0.04976851851851852
3875 1138.430053710938 0.03148148148148149
3876 1142.280029296875 0.1318230523627076
3877 1141.06005859375 0.02399691358024691
3878 1148.969970703125 0.0
3879 1148.300048828125 0.01797839506172839
3880 1147.630004882812 0.03101851851851852
3881 1147.390014648438 0.01774691358024691
3882 1146.430053710938 0.01867283950617284
3883 1146.170043945312 0.02600308641975309
3884 1145.199951171875 0.01790123456790123
3885 1144.72998046875 0.002932098765432099
3886 1144.469970703125 0.003780864197530864
3887 1144.469970703125 0.004089506172839506
3888 1144.0 0.01296296296296296
3889 1143.260009765625 0.1388446573009792
3890 1150.099975585938 0.006404320987654321
3891 1149.880004882812 0.02368827160493827
3892 1149.660034179688 0.008256172839506172
3893 1149.43994140625 0.003858024691358024
3894 1148.97998046875 0.004861111111111111
3895 1144.579956054688 0.02669753086419753
3896 1145.31005859375 0.2033508301404853
3897 1147.06005859375 0.0367283950617284
3898 1147.780029296875 0.02075617283950617
3899 1148.25 0.01296296296296296
3900 1143.780029296875 0.01057098765432099
3901 1148.93994140625 0.0
3902 1142.160034179688 0.04027777777777778
3903 1143.02001953125 0.04737654320987654
3904 1143.849975585938 0.1761131758194977
3905 1144.56005859375 0.03587962962962963
3906 1145.2099609375 0.3582963104867319
3907 1145.670043945312 0.03958333333333333
3908 1141.25 0.0
3909 1141.47998046875 0.01473765432098765
3910 1142.140014648438 0.04645061728395062
3911 1142.949951171875 0.2515761387824607
3912 1143.97998046875 0.1845236696466582
3913 1144.410034179688 0.05154320987654321
3914 1144.97998046875 0.02762345679012346
3915 1140.550048828125 0.0
3916 1140.780029296875 0.01658950617283951
3917 1141.2099609375 0.09552469135802469
3918 1143.5400390625 0.03140432098765432
3919 1144.260009765625 0.02052469135802469
3920 1144.219970703125 0.01481481481481482
3921 1144.4599609375 0.004803240740740741
3922 1139.329956054688 0.01574074074074074
3923 1140.5 0.1768076202639421
3924 1142.660034179688 0.09498456790123457
3925 1143.089965820312 0.02121913580246914
3926 1143.22998046875 0.01087962962962963
3927 1143.359985351562 0.01234567901234568
3928 1143.390014648438 0.02762345679012346
3929 1138.339965820312 0.01134259259259259
3930 1139.400024414062 0.04112654320987654
3931 1140.349975585938 0.07901234567901234
3932 1141.0400390625 0.2148477437207322
3933 1141.77001953125 0.1944002128565347
3934 1142.150024414062 0.03202160493827161
3935 1142.31005859375 0.05200617283950617
3936 1142.2900390625 0.001851851851851852
3937 1141.280029296875 0.001466049382716049
3938 1141.18994140625 0.0
3939 1141.18994140625 0.0
3940 1140.680053710938 0.0
3941 1137.109985351562 0.0
3942 1137.489990234375 0.0
3943 1137.469970703125 0.0
3944 1138.180053710938 0.0
3945 1138.640014648438 0.0
3946 1138.97998046875 0.0
3947 1139.0400390625 0.0
3948 1139.380004882812 0.01180555555555556
3949 1139.489990234375 0.04629629629629629
3950 1139.489990234375 0.000154320987654321
3951 1139.599975585938 0.005478395061728395
3952 1139.569946289062 0.0007716049382716049
3953 1139.660034179688 0.005401234567901234
3954 1139.660034179688 0.01072530864197531
3955 1139.780029296875 0.0
3956 1139.849975585938 0.0
3957 1139.849975585938 0.0
3958 1141.2099609375 0.0
3959 1141.420043945312 0.0
3960 1149.069946289062 0.1302798424861643
3961 1148.77001953125 0.00794753086419753
3962 1148.699951171875 0.02777777777777778
3963 1148.119995117188 0.0308641975308642
3964 1147.760009765625 0.01496913580246914
3965 1147.170043945312 0.02283950617283951
3966 1146.780029296875 0.01574074074074074
3967 1146.260009765625 0.04745370370370371
3968 1145.949951171875 0.03155864197530864
3969 1145.43994140625 0.1271934227330779
3970 1145.260009765625 0.03537808641975308
3971 1145.359985351562 0.0404320987654321
3972 1145.089965820312 0.02453703703703704
3973 1145.130004882812 0.02391975308641975
3974 1144.910034179688 0.01134259259259259
3975 1144.880004882812 0.01959876543209877
3976 1144.609985351562 0.01689814814814815
3977 1144.660034179688 0.02476851851851852
3978 1144.359985351562 0.01736111111111111
3979 1144.2099609375 0.02662037037037037
3980 1144.0400390625 0.03217592592592593
3981 1143.650024414062 0.025
3982 1143.380004882812 0.01489197530864197
3983 1142.930053710938 0.01651234567901234
3984 1142.650024414062 0.02013888888888889
3985 1142.319946289062 0.0154320987654321
3986 1157.0400390625 0.0
3987 1157.56005859375 0.01805555555555555
3988 1158.180053710938 0.01882716049382716
3989 1159.099975585938 0.03449074074074074
3990 1159.359985351562 0.01003086419753086
3991 1159.56005859375 0.03603395061728395
3992 1159.56005859375 0.0
3993 1159.56005859375 0.004089506172839506
3994 1159.449951171875 0.001466049382716049
3995 1159.339965820312 0.0002314814814814815
3996 1146.449951171875 0.02654320987654321
3997 1146.069946289062 0.2075946573009791
3998 1158.170043945312 0.0
3999 1158.170043945312 0.0
4000 1152.7900390625 0.0
4001 1152.949951171875 0.00308641975308642
4002 1153.319946289062 0.01296296296296296
4003 1153.489990234375 0.01751543209876543
4004 1154.02001953125 0.01851851851851852
4005 1154.390014648438 0.01550925925925926
4006 1154.719970703125 0.0091820987654321
4007 1155.079956054688 0.01273148148148148
4008 1155.530029296875 0.08356481481481481
4009 1155.969970703125 0.02283950617283951
4010 1156.400024414062 0.0283179012345679
4011 1156.530029296875 0.01373456790123457
4012 1156.9599609375 0.008256172839506172
4013 1157.880004882812 0.009953703703703704
4014 1156.06005859375 0.0
4015 1156.06005859375 0.0
4016 1156.489990234375 0.0
4017 1156.089965820312 0.002237654320987654
4018 1153.369995117188 0.003549382716049383
4019 1153.369995117188 0.0
4020 1158.150024414062 0.01265432098765432
4021 1157.839965820312 0.01126543209876543
4022 1157.839965820312 0.1255730523627075
4023 1157.719970703125 0.008410493827160494
4024 1157.2900390625 0.03171296296296296
4025 1156.849975585938 0.01790123456790123
4026 1156.579956054688 0.03179012345679012
4027 1156.260009765625 0.01844135802469136
4028 1155.800048828125 0.1244156449553001
4029 1155.800048828125 0.02345679012345679
4030 1155.18994140625 0.02199074074074074
4031 1154.849975585938 0.01149691358024691
4032 1154.339965820312 0.1324403363133248
4033 1154.199951171875 0.01651234567901234
4034 1153.910034179688 0.008410493827160494
4035 1155.719970703125 0.0
4036 1145.260009765625 0.0
4037 1145.130004882812 0.003626543209876543
4038 1144.719970703125 0.02816358024691358
4039 1144.510009765625 0.1408508301404853
4040 1144.339965820312 0.01898148148148148
4041 1144.050048828125 0.009259259259259259
4042 1143.75 0.01381172839506173
4043 1143.719970703125 0.01604938271604938
4044 1143.390014648438 0.1311286079182631
4045 1143.18994140625 0.1339063856960409
4046 1142.849975585938 0.02114197530864197
4047 1142.819946289062 0.1553570029799915
4048 1142.489990234375 0.125488683127572
4049 1142.2099609375 0.04328703703703704
4050 1142.099975585938 0.01041666666666667
4051 1141.680053710938 0.01797839506172839
4052 1141.630004882812 0.132517496807152
4053 1141.369995117188 0.004938271604938272
4054 1141.400024414062 0.01381172839506173
4055 1141.089965820312 0.006481481481481481
4056 1140.780029296875 0.0
4057 1141.280029296875 0.01157407407407408
4058 1141.4599609375 0.02060185185185185
4059 1141.760009765625 0.01628086419753087
4060 1142.06005859375 0.02106481481481481
4061 1142.150024414062 0.005941358024691357
4062 1142.27001953125 0.0150462962962963
4063 1141.199951171875 0.0
4064 1141.119995117188 0.001388888888888889
4065 1141.18994140625 0.0
4066 1141.56005859375 0.0
4067 1141.300048828125 0.00763888888888889
4068 1141.199951171875 0.01936728395061729
4069 1143.660034179688 0.0
4070 1143.660034179688 0.0
4071 1146.430053710938 0.0
4072 1146.349975585938 0.01064814814814815
4073 1146.030029296875 0.124338484461473
4074 1145.420043945312 0.02191358024691358
4075 1144.75 0.0
4076 1144.4599609375 0.003472222222222222
4077 1144.109985351562 0.0
4078 1143.880004882812 0.0
4079 1143.880004882812 0.0
4080 1143.880004882812 0.001697530864197531
4081 1150.0 0.006095679012345679
4082 1150.0 0.0
4083 1149.550048828125 0.05100308641975308
4084 1149.099975585938 0.006867283950617284
4085 1148.650024414062 0.007253086419753086
4086 1148.329956054688 0.006712962962962963
4087 1147.739990234375 0.0
4088 1147.739990234375 0.0
4089 1147.160034179688 0.003472222222222222
4090 1146.849975585938 0.02376543209876543
4091 1146.699951171875 0.01867283950617284
4092 1146.56005859375 0.01820987654320988
4093 1146.329956054688 0.007330246913580247
4094 1149.099975585938 0.006790123456790123
4095 1148.329956054688 0.01273148148148148
4096 1148.0 0.006867283950617285
4097 1147.410034179688 0.01041666666666667
4098 1146.589965820312 0.0
4099 1146.430053710938 0.02175925925925926
4100 1151.180053710938 0.002854938271604938
4101 1150.670043945312 0.01990740740740741
4102 1150.25 0.008179012345679013
4103 1143.569946289062 0.0
4104 1143.349975585938 0.0
4105 1143.349975585938 0.0
4106 1143.0400390625 0.005169753086419753
4107 1143.4599609375 0.01859567901234568
4108 1143.72998046875 0.006018518518518519
4109 1144.160034179688 0.01975308641975309
4110 1147.31005859375 0.0
4111 1147.109985351562 0.008179012345679013
4112 1147.0 0.01296296296296296
4113 1146.780029296875 0.004320987654320987
4114 1147.819946289062 0.007253086419753087
4115 1146.380004882812 0.0
4116 1146.160034179688 0.007021604938271605
4117 1146.910034179688 0.0
4118 1146.599975585938 0.0
4119 1147.650024414062 0.0220679012345679
4120 1146.699951171875 0.01087962962962963
4121 1148.619995117188 0.03063271604938272
4122 1148.280029296875 0.1422397190293742
4123 1148.089965820312 0.03263888888888889
4124 1147.859985351562 0.00625
4125 1147.650024414062 0.01890432098765432
4126 1147.550048828125 0.001234567901234568
4127 1153.52001953125 0.01766975308641975
4128 1153.089965820312 0.01797839506172839
4129 1152.550048828125 0.01473765432098765
4130 1152.2900390625 0.03811728395061728
4131 1152.02001953125 0.0304783950617284
4132 1151.5 0.03171296296296296
4133 1151.010009765625 0.05046296296296296
4134 1150.079956054688 0.04212962962962963
4135 1149.7900390625 0.03391203703703704
4136 1149.619995117188 0.1430113239676458
4137 1149.300048828125 0.02756558641975309
4138 1149.339965820312 0.1484897190293742
4139 1148.949951171875 0.04020061728395062
4140 1150.829956054688 0.008873456790123456
4141 1150.43994140625 0.01149691358024691
4142 1150.2900390625 0.02739197530864198
4143 1150.199951171875 0.02137345679012346
4144 1150.0 0.02708333333333333
4145 1149.47998046875 0.1184413580246914
4146 1151.5400390625 0.0
4147 1151.199951171875 0.005632716049382716
4148 1152.18994140625 0.005555555555555556
4149 1153.569946289062 0.0
4150 1153.589965820312 0.01990740740740741
4151 1153.5 0.003626543209876543
4152 1153.170043945312 0.001157407407407407
4153 1153.819946289062 0.02229938271604939
4154 1153.819946289062 0.01203703703703704
4155 1153.569946289062 0.03479938271604938
4156 1152.410034179688 0.01334876543209877
4157 1153.099975585938 0.02380401234567901
4158 1152.420043945312 0.01566358024691358
4159 1152.420043945312 0.0
4160 1153.469970703125 0.1538909535972754
4161 1152.900024414062 0.1692973321980985
4162 1152.130004882812 0.006172839506172839
4163 1152.359985351562 0.05671296296296297
4164 1152.130004882812 0.01203703703703704
4165 1153.56005859375 0.0570216049382716
4166 1152.599975585938 0.05601851851851852
4167 1151.910034179688 0.06198559670781893
4168 1151.910034179688 0.0
4169 1153.329956054688 0.02445987654320988
4170 1153.43994140625 0.009722222222222222
4171 1153.56005859375 0.008641975308641974
4172 1151.68994140625 0.02361111111111111
4173 1151.920043945312 0.00779320987654321
4174 1153.410034179688 0.006404320987654321
4175 1153.410034179688 0.1492098836384277
4176 1153.319946289062 0.1373786079182631
4177 1153.319946289062 0.004012345679012346
4178 1153.300048828125 0.04398148148148148
4179 1151.760009765625 0.0195216049382716
4180 1151.81005859375 0.03148148148148149
4181 1151.569946289062 0.0
4182 1151.43994140625 0.006018518518518519
4183 1151.43994140625 0.121946509152831
4184 1150.989990234375 0.0
4185 1151.199951171875 0.01242283950617284
4186 1151.43994140625 0.01574074074074074
4187 1152.969970703125 0.1212520647083866
4188 1150.319946289062 0.03290895061728395
4189 1149.949951171875 0.1356039165602384
4190 1150.06005859375 0.0283179012345679
4191 1150.280029296875 0.02615740740740741
4192 1151.489990234375 0.06342592592592593
4193 1151.569946289062 0.003780864197530864
4194 1149.339965820312 0.02623456790123457
4195 1149.489990234375 0.003780864197530864
4196 1149.589965820312 0.01651234567901234
4197 1149.719970703125 0.2484454874414645
4198 1148.329956054688 0.01790123456790123
4199 1148.47998046875 0.01705246913580247
4200 1148.569946289062 0.02847222222222222
4201 1148.7900390625 0.03572530864197531
4202 1149.010009765625 0.02962962962962963
4203 1149.420043945312 0.1630730523627076
4204 1149.760009765625 0.04837962962962963
4205 1150.030029296875 0.4045740953597275
4206 1150.0 0.0341820987654321
4207 1150.0 0.03425925925925926
4208 1147.469970703125 0.0662551440329218
4209 1147.609985351562 0.009722222222222222
4210 1147.550048828125 0.1278107066836952
4211 1147.739990234375 0.0441358024691358
4212 1148.0400390625 0.03279320987654321
4213 1148.180053710938 0.1265761387824606
4214 1148.31005859375 0.03587962962962963
4215 1148.660034179688 0.4332006385696041
4216 1149.010009765625 0.1942458918688804
4217 1149.660034179688 0.03742283950617284
4218 1149.81005859375 0.02746913580246914
4219 1149.81005859375 0.0220679012345679
4220 1149.7099609375 0.1674712005108557
4221 1146.4599609375 0.01759259259259259
4222 1146.599975585938 0.007175925925925926
4223 1146.650024414062 0.3874444657300979
4224 1146.72998046875 0.269355981268625
4225 1147.06005859375 0.06851851851851852
4226 1147.72998046875 0.3358683269476374
4227 1148.300048828125 0.1600637931034483
4228 1149.02001953125 0.0316358024691358
4229 1148.97998046875 0.1728724350787569
4230 1145.449951171875 0.02901234567901234
4231 1145.68994140625 0.01967592592592593
4232 1145.719970703125 0.03114711934156379
4233 1145.619995117188 0.02901234567901235
4234 1145.869995117188 0.01813271604938272
4235 1146.119995117188 0.03626543209876543
4236 1146.27001953125 0.165426447424436
4237 1147.239990234375 0.0462962962962963
4238 1147.869995117188 0.2804670923797361
4239 1148.280029296875 0.2811615368241805
4240 1144.43994140625 0.0128858024691358
4241 1144.72998046875 0.02901234567901234
4242 1145.0 0.03927469135802469
4243 1145.319946289062 0.1886131758194977
4244 1146.180053710938 0.09228395061728395
4245 1147.119995117188 0.07037037037037037
4246 1147.640014648438 0.01728395061728395
4247 1146.680053710938 0.002469135802469136
4248 1146.449951171875 0.0
4249 1143.52001953125 0.02608024691358025
4250 1143.430053710938 0.04544753086419753
4251 1143.77001953125 0.0533179012345679
4252 1144.119995117188 0.05046296296296296
4253 1144.670043945312 0.1569444444444444
4254 1145.68994140625 0.07006172839506172
4255 1146.680053710938 0.02723765432098765
4256 1146.920043945312 0.01010802469135802
4257 1142.219970703125 0.0
4258 1149.640014648438 0.01820987654320988
4259 1148.930053710938 0.05162037037037037
4260 1148.599975585938 0.06080246913580247
4261 1150.5 0.0
4262 1150.5 0.01180555555555556
4263 1149.25 0.0
4264 1149.400024414062 0.0
4265 1148.050048828125 0.1683199659429545
4266 1149.180053710938 0.009799382716049382
4267 1149.47998046875 0.01720679012345679
4268 1149.550048828125 0.01766975308641976
4269 1147.170043945312 0.01604938271604938
4270 1147.400024414062 0.04544753086419753
4271 1142.180053710938 0.006018518518518519
4272 1142.609985351562 0.1241841634738187
4273 1143.949951171875 0.1356810770540656
4274 1143.089965820312 0.005401234567901235
4275 1144.819946289062 0.1359125585355471
4276 1144.369995117188 0.008101851851851851
4277 1143.069946289062 0.007407407407407408
4278 1143.2900390625 0.0
4279 1143.2900390625 0.004398148148148148
4280 1143.510009765625 0.0
4281 1143.510009765625 0.0
4282 1143.969970703125 0.04421296296296297
4283 1144.180053710938 0.1355267560664113
4284 1144.2099609375 0.008950617283950617
4285 1144.670043945312 0.0191358024691358
4286 1146.5400390625 0.05578703703703704
4287 1145.5400390625 0.02353395061728395
4288 1145.5400390625 0.01728395061728395
4289 1144.890014648438 0.1163137931034483
4290 1144.890014648438 0.0
4291 1145.089965820312 0.03611111111111111
4292 1146.109985351562 0.1367613239676458
4293 1147.219970703125 0.02453703703703704
4294 1158.420043945312 0.002314814814814815
4295 1158.630004882812 0.01273148148148148
4296 1159.339965820312 0.0
4297 1158.25 0.03888888888888889
4298 1157.849975585938 0.04212962962962963
4299 1158.119995117188 0.01358024691358025
4300 1158.2099609375 0.0
4301 1157.880004882812 0.007716049382716049
4302 1157.47998046875 0.004320987654320987
4303 1158.319946289062 0.0
4304 1158.219970703125 0.0
4305 1158.219970703125 0.004861111111111111
4306 1158.319946289062 0.0
4307 1140.219970703125 0.004089506172839506
4308 1140.52001953125 0.01936728395061729
4309 1140.800048828125 0.13637552149851
4310 1141.06005859375 0.01612654320987654
4311 1141.18994140625 0.01273148148148148
4312 1141.449951171875 0.006481481481481481
4313 1141.449951171875 0.01195987654320988
4314 1142.02001953125 0.000154320987654321
4315 1142.369995117188 0.01983024691358025
4316 1142.68994140625 0.006404320987654321
4317 1142.02001953125 0.004166666666666667
4318 1141.699951171875 0.1319002128565347
4319 1141.530029296875 0.1204032992762878
4320 1141.390014648438 0.01383101851851852
4321 1141.25 0.01512345679012346
4322 1141.099975585938 0.03310185185185185
4323 1140.930053710938 0.02638888888888889
4324 1140.619995117188 0.02191358024691358
4325 1140.430053710938 0.01350308641975309
4326 1140.22998046875 0.01766975308641975
4327 1139.800048828125 0.02152777777777778
4328 1139.7099609375 0.0
4329 1141.06005859375 0.02314814814814815
4330 1140.569946289062 0.0212962962962963
4331 1140.469970703125 0.01273148148148148
4332 1140.18994140625 0.01597222222222222
4333 1140.06005859375 0.1307428054491273
4334 1139.839965820312 0.1414681140911026
4335 1139.530029296875 0.01728395061728395
4336 1138.9599609375 0.02276234567901235
4337 1138.619995117188 0.007484567901234568
4338 1138.550048828125 0.008796296296296297
4339 1139.219970703125 0.01280864197530864
4340 1139.329956054688 0.0183641975308642
4341 1138.880004882812 0.01936728395061729
4342 1138.68994140625 0.01296296296296296
4343 1138.489990234375 0.00941358024691358
4344 1138.22998046875 0.01466049382716049
4345 1138.0400390625 0.005324074074074074
4346 1140.050048828125 0.0150462962962963
4347 1140.050048828125 0.007098765432098766
4348 1142.72998046875 0.02692901234567901
4349 1142.25 0.1379187313750532
4350 1144.18994140625 0.1730267560664113
4351 1144.18994140625 0.02955246913580247
4352 1145.150024414062 0.03395061728395062
4353 1143.170043945312 0.1089506172839506
4354 1144.0400390625 0.06643518518518518
4355 1143.43994140625 0.03804012345679012
4356 1145.859985351562 0.0
4357 1146.030029296875 0.02523148148148148
4358 1145.2099609375 0.06219135802469136
4359 1145.089965820312 0.03371913580246914
4360 1144.680053710938 0.01358024691358025
4361 1145.170043945312 0.03572530864197531
4362 1146.030029296875 0.0
4363 1146.18994140625 0.001466049382716049
4364 1146.349975585938 0.01481481481481482
4365 1146.640014648438 0.0
4366 1145.510009765625 0.006018518518518519
4367 1145.859985351562 0.0
4368 1145.859985351562 0.0
4369 1146.640014648438 0.0
4370 1146.640014648438 0.0
4371 1147.089965820312 0.1328261387824606
4372 1146.640014648438 0.0
4373 1146.420043945312 0.005941358024691358
4374 1146.300048828125 0.03263888888888888
4375 1145.7099609375 0.04683641975308642
4376 1144.829956054688 0.03279320987654321
4377 1144.719970703125 0.009567901234567902
4378 1144.719970703125 0.0
4379 1144.449951171875 0.0
4380 1151.02001953125 0.01751543209876543
4381 1150.849975585938 0.02299382716049383
4382 1150.599975585938 0.01797839506172839
4383 1150.069946289062 0.03780864197530864
4384 1149.339965820312 0.153196509152831
4385 1149.0 0.05679012345679012
4386 1148.630004882812 0.0507716049382716
4387 1148.319946289062 0.02615740740740741
4388 1147.97998046875 0.02006172839506173
4389 1148.010009765625 0.02391975308641976
4390 1147.839965820312 0.02121913580246914
4391 1147.719970703125 0.02260802469135802
4392 1147.589965820312 0.133983546189868
4393 1147.25 0.02623456790123457
4394 1147.119995117188 0.008796296296296295
4395 1146.9599609375 0.007484567901234568
4396 1147.0 0.04266975308641975
4397 1147.050048828125 0.03657407407407407
4398 1146.800048828125 0.01975308641975309
4399 1146.660034179688 0.2764033063715056
4400 1146.530029296875 0.01936728395061729
4401 1146.369995117188 0.02731481481481482
4402 1146.030029296875 0.003240740740740741
4403 1152.27001953125 0.0158179012345679
4404 1152.06005859375 0.1480267560664112
4405 1151.829956054688 0.01396604938271605
4406 1151.550048828125 0.01134259259259259
4407 1151.2900390625 0.004012345679012346
4408 1151.2900390625 0.004475308641975309
4409 1151.010009765625 0.008487654320987654
4410 1150.72998046875 0.02530864197530864
4411 1150.260009765625 0.03402777777777777
4412 1149.819946289062 0.125
4413 1149.640014648438 0.009027777777777777
4414 1149.640014648438 0.04675925925925926
4415 1149.2900390625 0.03040123456790123
4416 1149.160034179688 0.03256172839506173
4417 1148.819946289062 0.01311728395061728
4418 1148.68994140625 0.2787695615155386
4419 1148.199951171875 0.03063271604938271
4420 1148.069946289062 0.1611882716049383
4421 1147.9599609375 0.02083333333333334
4422 1148.0 0.01597222222222222
4423 1147.900024414062 0.0308641975308642
4424 1147.569946289062 0.01712962962962963
4425 1147.410034179688 0.01311728395061728
4426 1147.069946289062 0.006944444444444444
4427 1146.880004882812 0.01296296296296296
4428 1146.699951171875 0.004166666666666667
4429 1152.949951171875 0.01766975308641975
4430 1152.43994140625 0.01165123456790123
4431 1152.0 0.01612654320987654
4432 1151.7900390625 0.1667767560664112
4433 1154.339965820312 0.0
4434 1154.079956054688 0.02824074074074074
4435 1153.390014648438 0.1390761387824606
4436 1154.339965820312 0.02029320987654321
4437 1155.660034179688 0.01736111111111111
4438 1155.27001953125 0.02731481481481482
4439 1152.739990234375 0.06712962962962962
4440 1153.97998046875 0.05239197530864197
4441 1155.400024414062 0.03900462962962963
4442 1156.81005859375 0.04251543209876543
4443 1150.949951171875 0.01226851851851852
4444 1150.77001953125 0.008719135802469136
4445 1150.510009765625 0.0371141975308642
4446 1150.329956054688 0.0091820987654321
4447 1150.27001953125 0.0
4448 1150.989990234375 0.0
4449 1150.989990234375 0.000925925925925926
4450 1150.5400390625 0.007098765432098766
4451 1150.0400390625 0.01967592592592593
4452 1142.869995117188 0.03503086419753086
4453 1142.430053710938 0.1261131758194977
4454 1142.18994140625 0.1261131758194977
4455 1150.989990234375 0.0
4456 1151.06005859375 0.005401234567901234
4457 1150.869995117188 0.00779320987654321
4458 1151.969970703125 0.02770061728395062
4459 1151.52001953125 0.00316358024691358
4460 1155.47998046875 0.0
4461 1155.47998046875 0.0
4462 1155.2099609375 0.1206347807577693
4463 1155.219970703125 0.01427469135802469
4464 1155.319946289062 0.009799382716049382
4465 1158.2099609375 0.0
4466 1158.0 0.006095679012345679
4467 1157.47998046875 0.00625
4468 1157.280029296875 0.0
4469 1156.75 0.01396604938271605
4470 1156.219970703125 0.002083333333333333
4471 1156.010009765625 0.002469135802469136
4472 1155.489990234375 0.003626543209876543
4473 1155.319946289062 0.01026234567901235
4474 1155.2900390625 0.009722222222222222
4475 1151.739990234375 0.03919753086419753
4476 1150.349975585938 0.04976851851851852
4477 1151.030029296875 0.005555555555555556
4478 1151.329956054688 0.02438271604938272
4479 1152.390014648438 0.1511131758194977
4480 1152.68994140625 0.005555555555555555
4481 1152.72998046875 0.02376543209876543
4482 1153.25 0.184079996807152
4483 1153.72998046875 0.01149691358024691
4484 1153.640014648438 0.1610668795232014
4485 1153.160034179688 0.3369485738612176
4486 1155.170043945312 0.0
4487 1155.219970703125 0.02554012345679012
4488 1154.949951171875 0.05432098765432099
4489 1156.219970703125 0.003317901234567901
4490 1155.68994140625 0.00316358024691358
4491 1156.160034179688 0.03217592592592593
4492 1156.079956054688 0.04066358024691358
4493 1155.880004882812 0.1568230523627075
4494 1157.140014648438 0.0
4495 1157.119995117188 0.02800925925925926
4496 1156.97998046875 0.0400462962962963
4497 1156.839965820312 0.0345679012345679
4498 1158.099975585938 0.006867283950617284
4499 1158.089965820312 0.03780864197530864
4500 1158.400024414062 0.03101851851851852
4501 1148.030029296875 0.0804783950617284
4502 1147.02001953125 0.06759259259259259
4503 1145.619995117188 0.08209876543209876
4504 1145.0 0.05632716049382716
4505 1149.569946289062 0.0
4506 1149.569946289062 0.0
4507 1149.569946289062 0.0
4508 1149.400024414062 0.01875
4509 1149.300048828125 0.02615740740740741
4510 1149.380004882812 0.1219907407407407
4511 1148.52001953125 0.1584434227330779
4512 1147.43994140625 0.1429783950617284
4513 1146.31005859375 0.2018076202639421
4514 1145.660034179688 0.03541666666666667
4515 1145.300048828125 0.01790123456790123
4516 1150.0 0.0
4517 1150.0 0.0
4518 1150.0 0.1403878671775224
4519 1150.0 0.02970679012345679
4520 1150.0 0.08688271604938272
4521 1148.75 0.1808971264367816
4522 1147.760009765625 0.09544753086419754
4523 1146.579956054688 0.06319444444444444
4524 1145.650024414062 0.03078703703703704
4525 1145.650024414062 0.03954475308641976
4526 1150.25 0.00316358024691358
4527 1150.0 0.05933641975308642
4528 1150.0 0.06049382716049383
4529 1149.589965820312 0.07615740740740741
4530 1148.219970703125 0.1623456790123457
4531 1146.930053710938 0.04822530864197531
4532 1146.380004882812 0.05408950617283951
4533 1145.819946289062 0.02770061728395062
4534 1156.47998046875 0.001157407407407407
4535 1156.609985351562 0.02962962962962963
4536 1156.030029296875 0.2869485738612176
4537 1155.25 0.02862654320987654
4538 1154.219970703125 0.06913580246913581
4539 1153.319946289062 0.05100308641975308
4540 1152.650024414062 0.06759259259259259
4541 1151.579956054688 0.02993827160493827
4542 1151.349975585938 0.0
4543 1151.119995117188 0.0
4544 1152.349975585938 0.01396604938271605
4545 1152.380004882812 0.00455246913580247
4546 1152.22998046875 0.002777777777777777
4547 1152.140014648438 0.02075617283950617
4548 1152.0 0.1234897190293742
4549 1151.72998046875 0.007253086419753086
4550 1151.77001953125 0.02330246913580247
4551 1151.359985351562 0.01404320987654321
4552 1151.359985351562 0.008719135802469136
4553 1151.109985351562 0.004706790123456791
4554 1150.900024414062 0.005169753086419753
4555 1150.900024414062 0.04282407407407408
4556 1150.400024414062 0.0158179012345679
4557 1150.0 0.008101851851851851
4558 1150.0 0.07934027777777779
4559 1150.0 0.008179012345679013
4560 1149.97998046875 0.01844135802469136
4561 1149.619995117188 0.1468693486590038
4562 1148.949951171875 0.02554012345679012
4563 1153.569946289062 0.02507716049382716
4564 1153.109985351562 0.1858353980417199
4565 1152.72998046875 0.03834876543209877
4566 1152.27001953125 0.08425925925925926
4567 1151.300048828125 0.04637345679012345
4568 1150.160034179688 0.1948631758194977
4569 1150.0 0.03587962962962963
4570 1150.0 0.02453703703703704
4571 1149.910034179688 0.0
4572 1149.829956054688 0.0
4573 1149.25 0.0
4574 1149.25 0.01736111111111111
4575 1149.050048828125 0.02847222222222222
4576 1148.849975585938 0.03341049382716049
4577 1148.52001953125 0.0
4578 1150.27001953125 0.0
4579 1150.239990234375 0.0
4580 1150.0400390625 0.0216820987654321
4581 1150.0400390625 0.01604938271604938
4582 1149.880004882812 0.005632716049382716
4583 1149.989990234375 0.01589506172839506
4584 1153.300048828125 0.00625
4585 1152.7900390625 0.0
4586 1156.089965820312 0.0
4587 1155.75 0.0
4588 1149.97998046875 0.0
4589 1150.27001953125 0.0
4590 1154.420043945312 0.0
4591 1155.47998046875 0.0
4592 1156.5 0.0
4593 1157.400024414062 0.0
4594 1158.420043945312 0.0
4595 1159.449951171875 0.0
4596 1159.140014648438 0.007175925925925926
4597 1158.449951171875 0.0006172839506172839
4598 1144.619995117188 0.003780864197530864
4599 1144.31005859375 0.01095679012345679
4600 1144.079956054688 0.04598765432098766
4601 1145.069946289062 0.005787037037037037
4602 1148.619995117188 0.004706790123456791
4603 1150.0 0.0
4604 1150.0 0.008024691358024692
4605 1150.0 0.0
4606 1150.380004882812 0.0
4607 1150.0 0.008950617283950617
4608 1150.0 0.0
4609 1150.0 0.0
4610 1150.0 0.0
4611 1154.829956054688 0.02422839506172839
4612 1154.430053710938 0.164134009152831
4613 1153.589965820312 0.06026234567901234
4614 1151.93994140625 0.3572417837377608
4615 1150.859985351562 0.05
4616 1150.0 0.1433199659429545
4617 1150.0 0.0
4618 1150.47998046875 0.0002314814814814815
4619 1150.380004882812 0.0
4620 1155.900024414062 0.03094135802469136
4621 1155.56005859375 0.1562057684120903
4622 1155.170043945312 0.04266975308641975
4623 1154.910034179688 0.0253858024691358
4624 1154.239990234375 0.05108024691358025
4625 1153.300048828125 0.2846008301404853
4626 1152.0400390625 0.1759588548318433
4627 1151.420043945312 0.165233546189868
4628 1150.839965820312 0.02978395061728395
4629 1150.7099609375 0.0002314814814814815
4630 1152.0 0.0
4631 1151.890014648438 0.009413580246913581
4632 1151.56005859375 0.0
4633 1151.02001953125 0.005169753086419753
4634 1150.699951171875 0.03896604938271605
4635 1152.93994140625 0.002237654320987654
4636 1152.81005859375 0.01697530864197531
4637 1152.349975585938 0.008410493827160494
4638 1152.0 0.0
4639 1153.890014648438 0.01180555555555556
4640 1153.650024414062 0.00771604938271605
4641 1153.300048828125 0.01219135802469136
4642 1154.420043945312 0.02631172839506173
4643 1154.329956054688 0.01404320987654321
4644 1154.150024414062 0.01095679012345679
4645 1155.0 0.1308971264367816
4646 1155.0 0.1385360153256705
4647 1155.619995117188 0.137301447424436
4648 1155.430053710938 0.02523148148148148
4649 1156.430053710938 0.01535493827160494
4650 1156.849975585938 0.1386903363133248
4651 1155.349975585938 0.0
4652 1155.430053710938 0.004861111111111111
4653 1155.2099609375 0.1298940400170285
4654 1155.219970703125 0.003703703703703704
4655 1161.7099609375 0.0
4656 1155.18994140625 0.1361440400170285
4657 1154.910034179688 0.004938271604938272
4658 1155.469970703125 0.00154320987654321
4659 1155.780029296875 0.00625
4660 1155.780029296875 0.00162037037037037
4661 1156.130004882812 0.01334876543209877
4662 1156.280029296875 0.1389218177948063
4663 1156.890014648438 0.02283950617283951
4664 1157.339965820312 0.0371141975308642
4665 1157.670043945312 0.03641975308641975
4666 1158.43994140625 0.02808641975308642
4667 1158.859985351562 0.0415895061728395
4668 1159.410034179688 0.004629629629629629
4669 1159.530029296875 0.00162037037037037
4670 1155.849975585938 0.003395061728395062
4671 1155.469970703125 0.1270391017454236
4672 1160.52001953125 0.1201718177948063
4673 1160.280029296875 0.008256172839506172
4674 1159.819946289062 0.001929012345679012
4675 1159.72998046875 0.008719135802469136
4676 1160.030029296875 0.007407407407407408
4677 1159.7099609375 0.005941358024691358
4678 1159.609985351562 0.01296296296296296
4679 1159.510009765625 0.01959876543209876
4680 1158.9599609375 0.02600308641975309
4681 1158.52001953125 0.03626543209876543
4682 1157.930053710938 0.02037037037037037
4683 1157.77001953125 0.01751543209876543
4684 1157.430053710938 0.01905864197530864
4685 1156.930053710938 0.02561728395061728
4686 1156.239990234375 0.01558641975308642
4687 1157.300048828125 0.0
4688 1157.109985351562 0.009722222222222222
4689 1156.489990234375 0.0
4690 1164.0400390625 0.0
4691 1163.579956054688 0.007484567901234568
4692 1163.109985351562 0.0
4693 1163.109985351562 0.0
4694 1162.880004882812 0.0
4695 1163.109985351562 0.0
4696 1162.640014648438 0.01157407407407407
4697 1162.170043945312 0.0
4698 1161.18994140625 0.0
4699 1161.050048828125 0.0
4700 1161.160034179688 0.0
4701 1161.030029296875 0.0
4702 1161.199951171875 0.0
4703 1163.5 0.0
4704 1163.390014648438 0.0
4705 1163.530029296875 0.003009259259259259
4706 1163.430053710938 0.0
4707 1163.670043945312 0.1204032992762878
4708 1162.239990234375 0.0
4709 1162.160034179688 0.0
4710 1162.25 0.001851851851851852
4711 1162.329956054688 0.0
4712 1162.160034179688 0.0
4713 1162.069946289062 0.01149691358024691
4714 1161.920043945312 0.0
4715 1161.680053710938 0.0
4716 1161.199951171875 0.001774691358024691
4717 1162.130004882812 0.0
4718 1162.0400390625 0.0
4719 1164.760009765625 0.0
4720 1164.02001953125 0.000462962962962963
4721 1163.52001953125 0.005092592592592593
4722 1163.5 0.0
4723 1165.180053710938 0.0
4724 1165.180053710938 0.00316358024691358
4725 1165.800048828125 0.02075617283950617
4726 1166.199951171875 0.005632716049382716
4727 1166.410034179688 0.005169753086419753
4728 1161.81005859375 0.01859567901234568
4729 1161.089965820312 0.003935185185185185
4730 1161.920043945312 0.06604938271604938
4731 1164.469970703125 0.01705246913580247
4732 1163.4599609375 0.01165123456790123
4733 1164.010009765625 0.0
4734 1163.869995117188 0.1257273733503619
4735 1163.869995117188 0.0
4736 1163.9599609375 0.01111111111111111
4737 1166.5400390625 0.0
4738 1161.510009765625 0.007175925925925926
4739 1161.069946289062 0.01489197530864197
4740 1160.25 0.007021604938271605
4741 1161.72998046875 0.0
4742 1161.72998046875 0.0
4743 1161.660034179688 0.0
4744 1162.089965820312 0.02770061728395062
4745 1162.280029296875 0.01759259259259259
4746 1162.75 0.001697530864197531
4747 1162.75 0.1863425925925926
4748 1162.989990234375 0.005478395061728395
4749 1162.989990234375 0.0
4750 1163.260009765625 0.004629629629629629
4751 1163.2900390625 0.0
4752 1167.43994140625 0.004783950617283951
4753 1167.650024414062 0.02384259259259259
4754 1168.180053710938 0.05493827160493827
4755 1169.890014648438 0.03410493827160493
4756 1170.2099609375 0.0257716049382716
4757 1172.530029296875 0.1407736696466582
4758 1172.7099609375 0.0
4759 1173.380004882812 0.02631172839506173
4760 1172.2099609375 0.1825946573009792
4761 1171.089965820312 0.02453703703703704
4762 1170.930053710938 0.04498456790123457
4763 1170.349975585938 0.04876543209876543
4764 1168.68994140625 0.04174382716049382
4765 1173.380004882812 0.0
4766 1175.0400390625 0.2477952745849298
4767 1173.550048828125 0.03364197530864198
4768 1176.680053710938 0.04729938271604938
4769 1174.920043945312 0.04652777777777778
4770 1172.849975585938 0.07183641975308643
4771 1171.77001953125 0.07445987654320987
4772 1175.510009765625 0.03510802469135803
4773 1177.27001953125 0.1135030864197531
4774 1176.18994140625 0.01990740740740741
4775 1178.18994140625 0.05046296296296297
4776 1178.68994140625 0.1227952745849298
4777 1174.920043945312 0.0
4778 1175.989990234375 0.01404320987654321
4779 1174.400024414062 0.05061728395061729
4780 1173.569946289062 0.03310185185185185
4781 1172.930053710938 0.1477952745849298
4782 1172.390014648438 0.02260802469135802
4783 1171.760009765625 0.0283179012345679
4784 1170.989990234375 0.02986111111111111
4785 1171.640014648438 0.04220679012345679
4786 1173.109985351562 0.08804012345679012
4787 1174.079956054688 0.06388888888888888
4788 1175.989990234375 0.0
4789 1175.989990234375 0.004166666666666667
4790 1176.18994140625 0.1200946573009792
4791 1176.18994140625 0.0
4792 1176.550048828125 0.01712962962962963
4793 1163.349975585938 0.0
4794 1166.150024414062 0.01273148148148148
4795 1165.47998046875 0.0154320987654321
4796 1164.859985351562 0.0275462962962963
4797 1163.969970703125 0.0117283950617284
4798 1163.699951171875 0.01273148148148148
4799 1155.989990234375 0.005632716049382716
4800 1156.18994140625 0.01103395061728395
4801 1156.589965820312 0.06064814814814815
4802 1157.030029296875 0.04058641975308642
4803 1157.2900390625 0.02378472222222222
4804 1157.989990234375 0.01705246913580247
4805 1163.869995117188 0.01651234567901234
4806 1163.47998046875 0.02554012345679012
4807 1162.969970703125 0.05408950617283951
4808 1162.510009765625 0.3591820987654321
4809 1162.02001953125 0.0728395061728395
4810 1161.359985351562 0.02052469135802469
4811 1161.219970703125 0.1222937313750532
4812 1162.030029296875 0.00316358024691358
4813 1161.4599609375 0.06759259259259259
4814 1161.219970703125 0.0
4815 1162.819946289062 0.0
4816 1162.27001953125 0.0154320987654321
4817 1163.5 0.0
4818 1163.31005859375 0.0
4819 1162.880004882812 0.0
4820 1165.920043945312 0.009567901234567902
4821 1165.489990234375 0.005632716049382716
4822 1165.630004882812 0.01234567901234568
4823 1165.199951171875 0.1371471264367816
4824 1164.739990234375 0.1612983610046829
4825 1164.199951171875 0.03950617283950617
4826 1163.880004882812 0.01813271604938272
4827 1163.329956054688 0.01790123456790123
4828 1162.819946289062 0.006327160493827161
4829 1165.900024414062 0.01111111111111111
4830 1165.430053710938 0.01350308641975309
4831 1165.109985351562 0.02569444444444445
4832 1164.56005859375 0.02476851851851852
4833 1164.02001953125 0.01689814814814815
4834 1163.670043945312 0.0
4835 1163.5 0.0
4836 1166.329956054688 0.001388888888888889
4837 1166.329956054688 0.009027777777777777
4838 1166.5400390625 0.0
4839 1166.5400390625 0.007407407407407408
4840 1166.319946289062 0.004243827160493827
4841 1179.530029296875 0.0
4842 1155.989990234375 0.0
4843 1155.760009765625 0.006018518518518519
4844 1155.52001953125 0.0
4845 1155.119995117188 0.01944444444444444
4846 1157.050048828125 0.001466049382716049
4847 1156.829956054688 0.005401234567901234
4848 1156.630004882812 0.1221779906343125
4849 1156.22998046875 0.0
4850 1163.77001953125 0.02453703703703704
4851 1158.550048828125 0.009799382716049384
4852 1158.170043945312 0.0
4853 1164.260009765625 0.005632716049382716
4854 1164.260009765625 0.005864197530864198
4855 1164.969970703125 0.0
4856 1164.469970703125 0.01782407407407408
4857 1158.619995117188 0.0
4858 1158.410034179688 0.01998456790123457
4859 1158.18994140625 0.0
4860 1157.719970703125 0.0
4861 1157.130004882812 0.01998456790123457
4862 1157.109985351562 0.006867283950617285
4863 1156.719970703125 0.0
4864 1156.489990234375 0.0
4865 1156.2900390625 0.0
4866 1166.420043945312 0.0
4867 1166.420043945312 0.0
4868 1166.420043945312 0.0
4869 1166.22998046875 0.0
4870 1166.22998046875 0.0
4871 1166.22998046875 0.0
4872 1161.430053710938 0.04591049382716049
4873 1162.579956054688 0.02199074074074074
4874 1162.829956054688 0.02708333333333333
4875 1163.969970703125 0.0283179012345679
4876 1164.829956054688 0.1327489782886335
4877 1165.319946289062 0.01134259259259259
4878 1165.630004882812 0.0734567901234568
4879 1166.329956054688 0.1356039165602384
4880 1166.780029296875 0.004166666666666667
4881 1167.150024414062 0.01759259259259259
4882 1167.609985351562 0.04737654320987654
4883 1167.81005859375 0.01373456790123457
4884 1168.47998046875 0.1584434227330779
4885 1168.680053710938 0.02862654320987654
4886 1169.510009765625 0.04243827160493827
4887 1170.380004882812 0.005709876543209876
4888 1170.97998046875 0.01342592592592593
4889 1170.68994140625 0.01188271604938272
4890 1170.569946289062 0.00787037037037037
4891 1170.43994140625 0.01435185185185185
4892 1170.130004882812 0.134909472115794
4893 1169.52001953125 0.02137345679012346
4894 1169.319946289062 0.01751543209876543
4895 1168.670043945312 0.01265432098765432
4896 1168.47998046875 0.01550925925925926
4897 1167.869995117188 0.03040123456790124
4898 1167.869995117188 0.008719135802469136
4899 1167.569946289062 0.008024691358024692
4900 1167.119995117188 0.02013888888888889
4901 1166.4599609375 0.02608024691358025
4902 1165.81005859375 0.01381172839506173
4903 1165.589965820312 0.01512345679012346
4904 1164.989990234375 0.02554012345679012
4905 1164.47998046875 0.01589506172839506
4906 1164.0400390625 0.02268518518518518
4907 1163.7900390625 0.138767496807152
4908 1162.670043945312 0.01342592592592593
4909 1162.43994140625 0.01388888888888889
4910 1161.989990234375 0.005555555555555556
4911 1165.130004882812 0.003395061728395062
4912 1164.910034179688 0.01512345679012346
4913 1164.56005859375 0.02191358024691358
4914 1164.02001953125 0.03433641975308642
4915 1163.150024414062 0.03557098765432098
4916 1162.130004882812 0.1459104938271605
4917 1161.739990234375 0.0283179012345679
4918 1161.410034179688 0.02492283950617284
4919 1161.0 0.1369928054491273
4920 1160.140014648438 0.01651234567901234
4921 1164.619995117188 0.0
4922 1163.510009765625 0.03016975308641975
4923 1164.969970703125 0.01388888888888889
4924 1164.9599609375 0.03742283950617284
4925 1166.469970703125 0.0
4926 1166.25 0.0
4927 1166.25 0.0
4928 1166.010009765625 0.0
4929 1163.839965820312 0.01026234567901235
4930 1163.550048828125 0.00787037037037037
4931 1163.06005859375 0.01527777777777778
4932 1161.359985351562 0.3292767560664113
4933 1160.760009765625 0.02407407407407407
4934 1160.869995117188 0.02908950617283951
4935 1160.390014648438 0.02098765432098765
4936 1160.27001953125 0.02453703703703704
4937 1159.819946289062 0.01450617283950617
4938 1159.369995117188 0.01334876543209877
4939 1159.239990234375 0.03595679012345679
4940 1158.890014648438 0.08155864197530864
4941 1158.079956054688 0.01921296296296296
4942 1158.079956054688 0.01442901234567901
4943 1157.56005859375 0.1389218177948063
4944 1157.02001953125 0.01350308641975309
4945 1158.410034179688 0.0
4946 1158.18994140625 0.01435185185185185
4947 1157.930053710938 0.04884259259259259
4948 1157.719970703125 0.0
4949 1163.280029296875 0.1597551511281396
4950 1162.609985351562 0.01589506172839506
4951 1161.380004882812 0.01736111111111111
4952 1160.660034179688 0.01003086419753086
4953 1159.9599609375 0.01604938271604938
4954 1158.930053710938 0.0154320987654321
4955 1160.660034179688 0.03325617283950617
4956 1157.719970703125 0.001697530864197531
4957 1161.9599609375 0.01890432098765432
4958 1161.619995117188 0.04529320987654321
4959 1160.930053710938 0.03240740740740741
4960 1160.099975585938 0.1546625585355471
4961 1159.7900390625 0.03912037037037037
4962 1158.890014648438 0.02615740740740741
4963 1158.7099609375 0.02276234567901235
4964 1158.170043945312 0.02353395061728395
4965 1157.469970703125 0.01057098765432099
4966 1165.819946289062 0.01334876543209877
4967 1165.819946289062 0.0
4968 1165.9599609375 0.0
4969 1166.2900390625 0.0
4970 1163.839965820312 0.006172839506172839
4971 1163.599975585938 0.1182428054491273
4972 1163.099975585938 0.06813271604938272
4973 1164.430053710938 0.009645061728395061
4974 1155.77001953125 0.126730459770115
4975 1155.77001953125 0.01296296296296296
4976 1159.670043945312 0.2528107066836952
4977 1157.660034179688 0.0724537037037037
4978 1157.869995117188 0.0
4979 1156.4599609375 0.1235339506172839
4980 1157.47998046875 0.004552469135802469
4981 1157.660034179688 0.0
4982 1162.819946289062 0.002932098765432099
4983 1162.660034179688 0.0
4984 1161.9599609375 0.004012345679012346
4985 1161.420043945312 0.0
4986 1160.880004882812 0.1169310770540656
4987 1160.56005859375 0.0
4988 1160.030029296875 0.0
4989 1159.52001953125 0.0
4990 1159.0 0.0
4991 1158.849975585938 0.0
4992 1162.72998046875 0.02229938271604939
4993 1162.280029296875 0.06103395061728395
4994 1161.640014648438 0.1578261387824606
4995 1160.569946289062 0.04868827160493827
4996 1159.839965820312 0.2786924010217114
4997 1158.780029296875 0.04760802469135803
4998 1158.079956054688 0.02430555555555556
4999 1158.68994140625 0.002237654320987654
5000 1158.68994140625 0.002314814814814815
5001 1161.319946289062 0.09753086419753086
5002 1159.760009765625 0.1304783950617284
5003 1168.280029296875 0.0
5004 1167.7099609375 0.007098765432098766
5005 1167.43994140625 0.004552469135802469
5006 1169.089965820312 0.0
5007 1168.52001953125 0.001851851851851852
5008 1174.390014648438 0.0
5009 1174.0 0.008024691358024692
5010 1175.22998046875 0.0
5011 1174.760009765625 0.007021604938271604
5012 1175.56005859375 0.006327160493827161
5013 1172.800048828125 0.001157407407407407
5014 1173.599975585938 0.03888888888888889
5015 1174.569946289062 0.2791553639846743
5016 1175.599975585938 0.06643518518518518
5017 1176.43994140625 0.05432098765432099
5018 1177.4599609375 0.0650462962962963
5019 1178.75 0.0658179012345679
5020 1179.829956054688 0.03371913580246914
5021 1180.0 0.1389989782886335
5022 1179.369995117188 0.05046296296296296
5023 1178.599975585938 0.2939701787994892
5024 1177.670043945312 0.066820987654321
5025 1176.7099609375 0.06473765432098766
5026 1175.670043945312 0.07322530864197531
5027 1173.849975585938 0.0521604938271605
5028 1180.0 0.000154320987654321
5029 1180.0 0.02716049382716049
5030 1179.719970703125 0.1670082375478927
5031 1179.089965820312 0.01751543209876543
5032 1178.680053710938 0.02970679012345679
5033 1177.22998046875 0.1033179012345679
5034 1175.800048828125 0.07530864197530864
5035 1174.739990234375 0.01674382716049383
5036 1156.77001953125 0.1298168795232014
5037 1156.420043945312 0.01635802469135803
5038 1155.989990234375 0.0
5039 1157.699951171875 0.0
5040 1157.699951171875 0.004552469135802469
5041 1157.52001953125 0.01412037037037037
5042 1157.369995117188 0.0742283950617284
5043 1158.920043945312 0.02407407407407407
5044 1158.27001953125 0.0257716049382716
5045 1171.800048828125 0.0
5046 1171.140014648438 0.0
5047 1171.030029296875 0.0
5048 1170.359985351562 0.0
5049 1174.510009765625 0.0
5050 1174.510009765625 0.0
5051 1174.510009765625 0.0
5052 1174.510009765625 0.0
5053 1174.510009765625 0.0
5054 1144.640014648438 0.00625
5055 1142.910034179688 0.00941358024691358
5056 1142.609985351562 0.0
5057 1141.319946289062 0.002237654320987654
5058 1154.72998046875 0.0
5059 1154.72998046875 0.01427469135802469
5060 1174.510009765625 0.0
5061 1174.510009765625 0.0
5062 1174.510009765625 0.0
5063 1174.7099609375 0.0
5064 1174.7099609375 0.0
5065 1174.510009765625 0.0
5066 1174.510009765625 0.0
5067 1174.510009765625 0.0
5068 1174.31005859375 0.003703703703703704
5069 1174.109985351562 0.0
5070 1174.510009765625 0.0
5071 1174.31005859375 0.0
5072 1174.510009765625 0.0
5073 1160.380004882812 0.06329732510288066
5074 1159.140014648438 0.04837962962962963
5075 1158.989990234375 0.1163137931034483
5076 1158.989990234375 0.02546296296296296
5077 1160.650024414062 0.0
5078 1150.5400390625 0.0320216049382716
5079 1151.140014648438 0.02368827160493827
5080 1149.819946289062 0.1562829289059174
5081 1146.489990234375 0.1810185185185185
5082 1149.859985351562 0.06574074074074074
5083 1147.369995117188 0.0837962962962963
5084 1154.77001953125 0.1310956790123457
5085 1154.150024414062 0.02808641975308642
5086 1155.880004882812 0.03040123456790123
5087 1154.829956054688 0.05362654320987655
5088 1152.670043945312 0.1292767560664113
5089 1151.949951171875 0.0
5090 1151.430053710938 0.0
5091 1153.530029296875 0.03927469135802469
5092 1152.4599609375 0.05285493827160494
5093 1150.800048828125 0.01589506172839506
5094 1150.56005859375 0.009876543209876543
5095 1150.0 0.0
5096 1158.5400390625 0.006944444444444444
5097 1158.369995117188 0.04220679012345679
5098 1156.489990234375 0.04907407407407408
5099 1158.22998046875 0.0
5100 1157.900024414062 0.1334434227330779
5101 1155.660034179688 0.008410493827160494
5102 1153.599975585938 0.0195216049382716
5103 1152.550048828125 0.003549382716049383
5104 1151.97998046875 0.0
5105 1153.839965820312 0.1191687313750532
5106 1152.619995117188 0.07507716049382716
5107 1155.27001953125 0.2259588548318434
5108 1157.02001953125 0.0
5109 1156.75 0.002006172839506173
5110 1156.5 0.1715607066836952
5111 1158.52001953125 0.03032407407407407
5112 1157.900024414062 0.05802469135802469
5113 1157.43994140625 0.01697530864197531
5114 1157.239990234375 0.0
5115 1160.140014648438 0.06867283950617284
5116 1160.140014648438 0.01234567901234568
5117 1159.900024414062 0.03070987654320988
5118 1159.140014648438 0.07530864197530865
5119 1157.31005859375 0.06782407407407408
5120 1157.069946289062 0.002391975308641975
5121 1157.069946289062 0.003626543209876543
5122 1157.02001953125 0.0
5123 1161.400024414062 0.001080246913580247
5124 1161.02001953125 0.0595679012345679
5125 1161.510009765625 0.04521604938271605
5126 1160.680053710938 0.1707891017454236
5127 1158.52001953125 0.01396604938271605
5128 1161.75 0.0400462962962963
5129 1155.170043945312 0.03742283950617284
5130 1153.27001953125 0.1521026234567901
5131 1151.43994140625 0.08680555555555555
5132 1148.589965820312 0.04938271604938271
5133 1147.739990234375 0.06936728395061728
5134 1146.719970703125 0.1677798424861643
5135 1146.160034179688 0.0
5136 1146.160034179688 0.0
5137 1161.72998046875 0.0728395061728395
5138 1160.849975585938 0.04467592592592592
5139 1158.819946289062 0.332054533844189
5140 1161.550048828125 0.0827932098765432
5141 1158.77001953125 0.04012345679012345
5142 1169.7099609375 0.001697530864197531
5143 1168.920043945312 0.0
5144 1165.319946289062 0.025
5145 1164.489990234375 0.1195216049382716
5146 1163.819946289062 0.05640432098765432
5147 1163.180053710938 0.0
5148 1167.160034179688 0.0
5149 1167.160034179688 0.02924382716049383
5150 1166.359985351562 0.02469135802469136
5151 1165.9599609375 0.08063271604938271
5152 1164.869995117188 0.0488425925925926
5153 1164.329956054688 0.0191358024691358
5154 1169.7099609375 0.000154320987654321
5155 1169.239990234375 0.01859567901234568
5156 1169.140014648438 0.02067901234567901
5157 1168.489990234375 0.1906193486590038
5158 1167.4599609375 0.02962962962962963
5159 1163.180053710938 0.01813271604938272
5160 1170.849975585938 0.002314814814814815
5161 1170.369995117188 0.007561728395061728
5162 1170.849975585938 0.003395061728395062
5163 1171.359985351562 0.03587962962962963
5164 1165.839965820312 0.1287366326096211
5165 1165.839965820312 0.0
5166 1166.97998046875 0.02947530864197531
5167 1170.47998046875 0.04027777777777778
5168 1169.699951171875 0.2177026819923372
5169 1168.9599609375 0.04251543209876543
5170 1168.390014648438 0.0400462962962963
5171 1167.599975585938 0.08263888888888889
5172 1172.579956054688 0.0003858024691358024
5173 1172.050048828125 0.02746913580246914
5174 1169.27001953125 0.02137345679012346
5175 1171.880004882812 0.1483796296296296
5176 1171.150024414062 0.0794753086419753
5177 1161.2099609375 0.02268518518518518
5178 1153.849975585938 0.007484567901234568
5179 1154.619995117188 0.01350308641975309
5180 1154.880004882812 0.0
5181 1156.650024414062 0.01304012345679012
5182 1158.510009765625 0.07337962962962963
5183 1157.530029296875 0.1630730523627076
5184 1157.56005859375 0.01257716049382716
5185 1157.56005859375 0.0
5186 1162.81005859375 0.1362983610046828
5187 1151.280029296875 0.001311728395061728
5188 1149.7099609375 0.1035493827160494
5189 1148.630004882812 0.06373456790123457
5190 1148.089965820312 0.0224537037037037
5191 1142.920043945312 0.0
5192 1152.599975585938 0.2091628086419753
5193 1163.180053710938 0.05393518518518518
5194 1164.140014648438 0.02037037037037037
5195 1165.640014648438 0.0
5196 1165.640014648438 0.0195216049382716
5197 1165.180053710938 0.0378858024691358
5198 1164.2099609375 0.1994928054491273
5199 1163.400024414062 0.02353395061728395
5200 1165.839965820312 0.3167325244785015
5201 1164.760009765625 0.05740740740740741
5202 1165.469970703125 0.06558641975308642
5203 1168.069946289062 0.05
5204 1166.900024414062 0.07623456790123456
5205 1166.140014648438 0.005246913580246914
5206 1152.170043945312 0.01311728395061728
5207 1151.260009765625 0.02191358024691358
5208 1163.5400390625 0.09552469135802469
5209 1162.369995117188 0.05393518518518518
5210 1160.18994140625 0.009799382716049384
5211 1167.199951171875 0.01959876543209876
5212 1173.410034179688 0.0
5213 1173.150024414062 0.1200946573009792
5214 1172.800048828125 0.001157407407407407
5215 1152.510009765625 0.02986111111111111
5216 1153.170043945312 0.05532407407407407
5217 1153.829956054688 0.02685185185185185
5218 1151.72998046875 0.01450617283950617
5219 1161.079956054688 0.2099866326096211
5220 1161.819946289062 0.2498014474244359
5221 1160.7900390625 0.1197530864197531
5222 1155.369995117188 0.01296296296296296
5223 1159.0400390625 0.03695987654320988
5224 1155.0 0.01882716049382716
5225 1155.0 0.02839506172839506
5226 1159.300048828125 0.0
5227 1159.300048828125 0.0
5228 1139.47998046875 0.1209434227330779
5229 1140.339965820312 0.04182098765432099
5230 1140.0 0.1829032992762878
5231 1141.819946289062 0.01234567901234568
5232 1141.410034179688 0.05138888888888889
5233 1146.300048828125 0.0
5234 1148.93994140625 0.0
5235 1153.130004882812 0.01226851851851852
5236 1153.839965820312 0.0
5237 1143.780029296875 0.007175925925925926
5238 1144.7099609375 0.004706790123456791
5239 1140.890014648438 0.02299382716049383
5240 1158.469970703125 0.0
5241 1158.910034179688 0.0
5242 1158.619995117188 0.0
5243 1158.910034179688 0.0
5244 1158.199951171875 0.0253858024691358
5245 1156.829956054688 0.0
5246 1155.119995117188 0.0005401234567901234
5247 1158.619995117188 0.0
5248 1155.680053710938 0.1403107066836952
5249 1159.489990234375 0.004552469135802469
5250 1155.0 0.1433199659429545
5251 1155.680053710938 0.0
5252 1155.369995117188 0.009104938271604938
5253 1162.72998046875 0.0
5254 1162.650024414062 0.0
5255 1162.859985351562 0.0
5256 1162.800048828125 0.0
5257 1159.739990234375 0.0
5258 1160.0 0.0
5259 1160.180053710938 0.0
5260 1160.680053710938 0.003935185185185186
5261 1161.469970703125 0.05748456790123457
5262 1162.180053710938 0.0
5263 1162.839965820312 0.0
5264 1158.880004882812 0.008410493827160494
5265 1160.0 0.0496141975308642
5266 1160.0 0.02299382716049383
5267 1157.579956054688 0.1270833333333333
5268 1134.219970703125 0.03024691358024691
5269 1111.140014648438 0.3012232652192423
5270 1112.4599609375 0.01327160493827161
5271 1099.219970703125 0.2326275862068966
5272 1113.06005859375 0.1983796296296296
5273 1109.719970703125 0.1433199659429545
5274 1111.660034179688 0.07507716049382716
5275 1108.359985351562 0.06327160493827161
5276 1130.550048828125 0.1616841634738186
5277 1131.0 0.04405864197530864
5278 1122.7900390625 0.1085648148148148
5279 1142.7900390625 0.1973323116219668
5280 1155.0 0.01882716049382716
5281 1091.800048828125 0.09297839506172839
5282 1085.0 0.05833333333333333
5283 1105.0 0.0
5284 1151.630004882812 0.05493827160493827
5285 1147.47998046875 0.02554012345679012
5286 1147.469970703125 0.04583333333333333
5308 1068.650024414062 0.4917438271604938
5309 1079.589965820312 0.130272633744856
5310 1061.589965820312 0.2840936355896126
5311 1058.72998046875 0.02901234567901235
5312 1057.199951171875 0.03950617283950617
5313 1087.25 0.02569444444444444
5314 1065.449951171875 0.1037808641975309
5315 1087.619995117188 0.0
5316 1086.880004882812 0.000462962962962963
5317 1086.880004882812 0.09135802469135802
5318 1086.130004882812 0.0
5319 1087.069946289062 0.08155864197530864
5320 1088.150024414062 0.01396604938271605
5321 1091.2900390625 0.0
5322 1091.239990234375 0.0
5323 1091.170043945312 0.0
5324 1129.489990234375 0.0
5325 1129.449951171875 0.0
5326 1129.349975585938 0.0
5327 1129.050048828125 0.0
5328 1128.319946289062 0.0
5329 1127.609985351562 0.0
5330 1125.0 0.0
5331 1125.0 0.0
5332 1125.0 0.0
5333 1061.739990234375 0.0
5334 1060.9599609375 0.005478395061728395
5335 1090.68994140625 0.0
5336 1086.130004882812 0.003240740740740741
5337 1132.989990234375 0.1476409535972754
5338 1136.140014648438 0.0
5339 1129.530029296875 0.0
5340 1152.5 0.0
5341 1152.5 0.005015432098765432
5342 1139.640014648438 0.1327489782886335
5343 1155.0 0.0
5344 1155.0 0.0002314814814814815
5345 1136.449951171875 0.2284279906343125
5346 1152.150024414062 0.0007716049382716049
5347 1151.949951171875 0.002623456790123457
5348 1151.97998046875 0.0
5349 1155.0 0.02584876543209877
5350 1155.0 0.01813271604938272
5351 1132.4599609375 0.0
5352 1132.9599609375 0.0
5353 1132.9599609375 0.0
5354 1155.0 0.007638888888888889
5355 1155.0 0.0
5356 1155.0 0.1940915708812261
5357 1155.0 0.1567901234567901
5358 1154.180053710938 0.004166666666666667
5359 1153.550048828125 0.0
5360 1152.52001953125 0.04552469135802469
5361 1150.0 0.0
5362 1150.0 0.0
5363 1156.68994140625 0.03333333333333333
5364 1176.380004882812 0.04367283950617284
5365 1174.089965820312 0.05339506172839506
5366 1172.7099609375 0.02993827160493827
5367 1175.619995117188 0.04313271604938271
5368 1178.2099609375 0.03773148148148148
5369 1177.72998046875 0.05810185185185185
5370 1175.890014648438 0.2826460976301973
5371 1175.050048828125 0.03503086419753086
5372 1171.989990234375 0.01388888888888889
5373 1171.4599609375 0.0316358024691358
5374 1170.989990234375 0.01813271604938272
5375 1170.670043945312 0.0349537037037037
5376 1170.099975585938 0.1440915708812261
5377 1169.449951171875 0.02492283950617284
5378 1169.06005859375 0.009876543209876543
5379 1168.609985351562 0.006481481481481482
5380 1168.449951171875 0.0128858024691358
5381 1167.989990234375 0.01512345679012346
5382 1167.160034179688 0.01520061728395062
5383 1166.760009765625 0.01435185185185185
5384 1166.25 0.1424712005108557
5385 1165.5 0.01666666666666667
5386 1164.97998046875 0.03310185185185185
5387 1164.079956054688 0.06172839506172839
5388 1162.56005859375 0.01697530864197531
5389 1171.5 0.01319444444444444
5390 1171.319946289062 0.006944444444444445
5391 1171.079956054688 0.005555555555555556
5392 1170.739990234375 0.1389218177948063
5393 1170.280029296875 0.02878086419753086
5394 1170.0 0.1471008301404853
5395 1169.380004882812 0.1484125585355471
5396 1168.52001953125 0.1608353980417199
5397 1168.069946289062 0.008950617283950617
5398 1167.839965820312 0.2143076202639421
5399 1167.599975585938 0.03912037037037037
5400 1166.930053710938 0.05910493827160494
5401 1166.469970703125 0.1501100893997446
5402 1165.609985351562 0.0224537037037037
5403 1165.199951171875 0.0183641975308642
5404 1164.72998046875 0.03796296296296296
5405 1164.06005859375 0.03341049382716049
5406 1163.160034179688 0.0212962962962963
5407 1162.47998046875 0.01165123456790123
5408 1162.27001953125 0.005324074074074074
5409 1159.56005859375 0.01666666666666667
5410 1160.469970703125 0.02021604938271605
5411 1160.619995117188 0.0212962962962963
5412 1160.920043945312 0.01905864197530864
5413 1161.2900390625 0.02391975308641975
5414 1161.819946289062 0.03125
5415 1162.130004882812 0.02893518518518519
5416 1162.670043945312 0.03194444444444444
5417 1163.369995117188 0.1739526819923372
5418 1163.900024414062 0.01520061728395062
5419 1164.579956054688 0.04745370370370371
5420 1165.099975585938 0.02708333333333333
5421 1165.400024414062 0.1648477437207322
5422 1166.410034179688 0.163304533844189
5423 1166.93994140625 0.01489197530864197
5424 1167.969970703125 0.02121913580246913
5425 1167.339965820312 0.03395061728395062
5426 1166.780029296875 0.01373456790123457
5427 1166.609985351562 0.02239583333333333
5428 1166.170043945312 0.02901234567901235
5429 1165.380004882812 0.1549712005108557
5430 1164.780029296875 0.02260802469135803
5431 1169.0 0.003472222222222222
5432 1169.0 0.02276234567901235
5433 1168.449951171875 0.008796296296296295
5434 1168.109985351562 0.01304012345679012
5435 1167.670043945312 0.007716049382716049
5436 1167.030029296875 0.03464506172839506
5437 1166.390014648438 0.009259259259259259
5438 1166.18994140625 0.01844135802469136
5439 1165.5400390625 0.1555113239676458
5440 1166.170043945312 0.0
5441 1166.359985351562 0.0
5442 1166.619995117188 0.0
5443 1172.699951171875 0.009259259259259259
5444 1172.599975585938 0.009645061728395063
5445 1172.219970703125 0.02137345679012346
5446 1171.680053710938 0.01589506172839506
5447 1171.359985351562 0.02283950617283951
5448 1170.989990234375 0.0212962962962963
5449 1170.7099609375 0.0125
5450 1170.199951171875 0.03912037037037037
5451 1169.619995117188 0.0158179012345679
5452 1169.160034179688 0.0128858024691358
5453 1168.800048828125 0.01589506172839506
5454 1167.910034179688 0.02083333333333334
5455 1167.619995117188 0.01882716049382716
5456 1166.9599609375 0.01967592592592593
5457 1166.099975585938 0.0275462962962963
5458 1165.22998046875 0.04398148148148148
5459 1163.890014648438 0.1521162622392508
5460 1173.5 0.005941358024691357
5461 1173.119995117188 0.01990740740740741
5462 1172.869995117188 0.008256172839506172
5463 1172.47998046875 0.01520061728395062
5464 1171.969970703125 0.03240740740740741
5465 1171.339965820312 0.03989197530864198
5466 1170.699951171875 0.02476851851851852
5467 1170.199951171875 0.01118827160493827
5468 1170.0 0.0191358024691358
5469 1169.069946289062 0.04074074074074074
5470 1167.619995117188 0.2805442528735632
5471 1166.119995117188 0.03294753086419753
5472 1164.989990234375 0.3071646232439336
5473 1164.0 0.02608024691358024
5474 1165.4599609375 0.02191358024691358
5475 1165.660034179688 0.02330246913580247
5476 1167.150024414062 0.03580246913580247
5477 1168.9599609375 0.1806656449553001
5478 1171.2099609375 0.04722222222222222
5479 1172.630004882812 0.06782407407407408
5480 1174.089965820312 0.05910493827160494
5481 1175.119995117188 0.03194444444444444
5482 1175.719970703125 0.01381172839506173
5483 1174.43994140625 0.0650462962962963
5484 1173.910034179688 0.06574074074074074
5485 1173.329956054688 0.03649691358024691
5486 1171.949951171875 0.01674382716049383
5487 1171.530029296875 0.006404320987654321
5488 1171.339965820312 0.1400792252022137
5489 1170.920043945312 0.05540123456790123
5490 1170.109985351562 0.04398148148148148
5491 1169.680053710938 0.04040637860082304
5492 1168.93994140625 0.02430555555555556
5493 1168.030029296875 0.02777777777777778
5494 1167.829956054688 0.009876543209876543
5495 1167.099975585938 0.01689814814814815
5496 1166.339965820312 0.02978395061728395
5497 1169.589965820312 7.716049382716049e-05
5498 1169.589965820312 0.001466049382716049
5499 1171.550048828125 0.00154320987654321
5500 1171.349975585938 0.0
5501 1171.079956054688 0.0
5502 1067.640014648438 0.0
5503 1067.640014648438 0.0
5504 1072.550048828125 0.0
5505 1070.0 0.0
5506 1066.52001953125 0.0
5507 1115.0 0.0
5508 1115.0 0.0
5509 1132.739990234375 0.02250514403292181
5510 1155.949951171875 0.1402006172839506
5511 1155.949951171875 0.0
5512 1150.0 0.0
5513 1150.97998046875 0.05526620370370371
5514 1148.599975585938 0.01041666666666667
5515 1149.800048828125 0.2002644103873989
5516 1151.079956054688 0.01419753086419753
5517 1150.650024414062 0.1265761387824606
5518 1150.0 0.003317901234567901
5519 1150.0 0.15190329218107
5520 1150.0 0.003703703703703703
5521 1150.0 0.1952489782886335
5522 1149.449951171875 0.0
5523 1148.2900390625 0.1252644103873989
5524 1147.510009765625 0.06226851851851852
5525 1143.660034179688 0.00794753086419753
5526 1143.2900390625 0.0
5527 1157.130004882812 0.1223765432098766
5528 1157.0 0.1398148148148148
5529 1156.06005859375 0.02623456790123457
5530 1142.609985351562 0.6612757556406983
5531 1142.7099609375 0.07808641975308642
5532 1142.349975585938 0.00787037037037037
5533 1142.569946289062 0.2060699588477366
5534 1142.609985351562 0.04513888888888889
5535 1142.670043945312 0.1321316943380162
5536 1142.27001953125 0.02893518518518519
5537 1120.5400390625 0.1123456790123457
5538 1119.150024414062 0.08757716049382716
5539 1118.859985351562 0.06010802469135802
5540 1123.010009765625 0.03410493827160493
5541 1126.550048828125 0.1179783950617284
5542 1129.670043945312 0.0650462962962963
5543 1127.77001953125 0.1236882716049383
5544 1119.22998046875 0.0
5545 1119.739990234375 0.1376872498935718
5546 1120.31005859375 0.02916666666666667
5547 1119.5 0.01111111111111111
5548 1119.22998046875 0.0
5549 1104.18994140625 0.0
5550 1104.18994140625 0.01558641975308642
5551 1105.0 0.01442901234567901
5552 1104.93994140625 0.0
5553 1104.489990234375 0.0
5554 1106.199951171875 0.1425483610046828
5555 1105.089965820312 0.004861111111111111
5556 1103.77001953125 0.1227952745849298
5557 1107.06005859375 0.007484567901234568
5558 1105.219970703125 0.01574074074074074
5559 1109.609985351562 0.5001317156236698
5560 1108.300048828125 0.02662037037037037
5561 1109.609985351562 0.1428570029799915
5562 1111.619995117188 0.01828703703703704
5563 1111.030029296875 0.1385360153256705
5564 1111.949951171875 0.2050483610046829
5565 1120.0 0.0558641975308642
5566 1114.160034179688 0.2237212005108557
5567 1106.2099609375 0.05447530864197531
5568 1098.7900390625 0.0
5569 1099.119995117188 0.0
5570 1093.410034179688 0.01180555555555556
5571 1097.77001953125 0.0
5572 1098.900024414062 0.0
5573 1099.239990234375 0.1710205832269051
5574 1100.0 0.1474866326096211
5575 1100.0 0.0316358024691358
5576 1107.890014648438 0.001697530864197531
5577 1106.449951171875 0.006404320987654321
5578 1103.050048828125 0.1925154320987654
5579 1108.400024414062 0.1064043209876543
5580 1103.760009765625 0.2845622498935718
5581 1140.640014648438 0.0
5582 1140.640014648438 0.03896604938271605
5583 1139.839965820312 0.006790123456790123
5584 1138.780029296875 0.0
5585 1091.380004882812 0.0
5586 1151.410034179688 0.1449909979423868
5587 1158.989990234375 0.02106481481481481
5588 1155.0 0.0154320987654321
5589 1120.0 0.009799382716049382
5590 1119.469970703125 0.01041666666666667
5591 1124.949951171875 0.01296296296296296
5592 1124.609985351562 0.003317901234567901
5593 1123.930053710938 0.02391975308641976
5594 1123.2099609375 0.0125
5595 1126.77001953125 0.2638004257130694
5596 1142.579956054688 0.0
5597 1150.2099609375 0.4754074286930609
5598 1150.890014648438 0.08441358024691359
5599 1146.72998046875 0.04552469135802469
5600 1146.75 0.0
5601 1145.75 0.05524691358024691
5602 1142.739990234375 0.1314372498935718
5603 1142.910034179688 0.005246913580246914
5604 1142.449951171875 0.01520061728395062
5605 1142.449951171875 0.0
5606 1149.5 0.05516975308641976
5607 1149.670043945312 0.1662366326096211
5608 1146.97998046875 0.0091820987654321
5609 1162.569946289062 0.01797839506172839
5610 1163.099975585938 0.02260802469135802
5611 1163.630004882812 0.01550925925925926
5612 1163.869995117188 0.1298940400170285
5613 1164.319946289062 0.01844135802469136
5614 1164.719970703125 0.02183641975308642
5615 1164.77001953125 0.01517489711934156
5616 1162.56005859375 0.00154320987654321
5617 1162.06005859375 0.0
5618 1162.390014648438 0.02021604938271605
5619 1166.530029296875 0.0
5620 1166.25 0.0
5621 1166.010009765625 0.02415123456790123
5622 1115.300048828125 0.02515432098765432
5623 1115.0 0.00470679012345679
5624 1115.0 0.00154320987654321
5625 1114.81005859375 0.0
5626 1114.660034179688 0.0
5627 1158.050048828125 0.02546296296296297
5628 1109.22998046875 0.1495699659429545
5629 1114.5 0.0
5630 1150.920043945312 0.01712962962962963
5631 1099.06005859375 0.0
5632 1163.349975585938 0.0
5633 1163.550048828125 0.0
5634 1089.359985351562 0.02175925925925926
5635 1135.0 0.01689814814814815
5636 1135.0 0.0
5637 1135.0 0.00933641975308642
5638 1135.0 0.0
5639 1135.0 0.001003086419753086
5640 1135.0 0.0
5641 1135.0 0.0
5642 1135.0 0.002469135802469136
5643 1135.0 0.008950617283950617
5644 1135.0 0.02469135802469136
5645 1135.0 0.007098765432098766
5646 1135.0 0.03256172839506173
5647 1135.0 0.01103395061728395
5648 1135.0 0.005401234567901234
5649 1135.0 0.0
5650 1135.0 0.00154320987654321
5651 1135.0 0.002006172839506173
5652 1135.0 0.009645061728395063
5653 1135.0 0.0
5654 1133.510009765625 0.003395061728395062
5655 1132.550048828125 0.0
5656 1132.02001953125 0.0
5657 1133.150024414062 0.0
5658 1133.849975585938 0.004012345679012346
5659 1134.43994140625 0.008719135802469136
5660 1135.0 0.0
5661 1135.0 0.002854938271604938
5662 1135.0 0.0007716049382716049
5663 1135.0 0.002083333333333333
5664 1135.0 0.00609567901234568
5665 1135.0 0.0095679012345679
5666 1135.0 0.1256502128565347
5667 1135.0 0.04467592592592592
5668 1135.0 0.01566358024691358
5669 1135.0 0.01527777777777778
5670 1135.0 0.01219135802469136
5671 1135.0 0.0
5672 1135.0 0.004861111111111111
5673 1135.0 0.0
5674 1132.77001953125 0.0
5675 1132.77001953125 0.0
5676 1133.030029296875 0.0
5677 1132.969970703125 0.0
5678 1132.920043945312 0.0
5679 1132.920043945312 0.001080246913580247
5680 1133.010009765625 0.01049382716049383
5681 1130.0 0.0
5682 1129.900024414062 0.0
5683 1129.109985351562 0.003858024691358024
5684 1128.5 0.003395061728395062
5685 1127.430053710938 0.05799897119341563
5686 1126.640014648438 0.0
5687 1125.9599609375 0.006944444444444444
5688 1125.170043945312 0.01072530864197531
5689 1124.06005859375 0.0
5690 1122.97998046875 0.0
5691 1122.030029296875 0.0
5692 1120.949951171875 0.0
5693 1119.72998046875 0.0
5694 1117.589965820312 0.0
5695 1115.680053710938 0.007870370370370371
5696 1115.0 0.0
5697 1136.219970703125 0.0
5698 1135.680053710938 0.01844135802469136
5699 1135.339965820312 0.01635802469135803
5700 1134.859985351562 0.004475308641975309
5701 1134.300048828125 0.02276234567901235
5702 1133.72998046875 0.001388888888888889
5703 1133.170043945312 0.1454032992762878
5704 1132.599975585938 0.0165895061728395
5705 1132.030029296875 0.0
5706 1131.489990234375 0.0132716049382716
5707 1130.93994140625 0.02692901234567901
5708 1130.400024414062 0.003395061728395062
5709 1129.7900390625 0.04182098765432099
5710 1128.630004882812 0.00794753086419753
5711 1127.829956054688 0.01473765432098765
5712 1127.0 0.01334876543209877
5713 1126.160034179688 0.004706790123456791
5714 1125.829956054688 0.1163137931034483
5715 1136.339965820312 0.01087962962962963
5716 1136.380004882812 0.00787037037037037
5717 1136.329956054688 0.0
5718 1136.329956054688 0.01103395061728395
5719 1136.400024414062 0.003858024691358024
5720 1136.43994140625 0.02415123456790123
5721 1136.400024414062 0.01095679012345679
5722 1136.52001953125 0.0
5723 1136.329956054688 0.0
5724 1135.930053710938 0.1548940400170285
5725 1135.449951171875 0.1357582375478927
5726 1134.800048828125 0.01435185185185185
5727 1134.170043945312 0.02114197530864198
5728 1133.31005859375 0.008641975308641976
5729 1132.699951171875 0.004398148148148148
5730 1132.079956054688 0.002237654320987654
5731 1131.089965820312 0.01929012345679012
5732 1130.469970703125 0.1226409535972754
5733 1130.0400390625 0.02214506172839506
5734 1129.160034179688 0.02947530864197531
5735 1128.660034179688 0.01959876543209876
5736 1127.93994140625 0.001697530864197531
5737 1127.219970703125 0.02052469135802469
5738 1126.7900390625 0.0
5739 1126.069946289062 0.05686728395061728
5740 1135.900024414062 0.01018518518518518
5741 1136.010009765625 0.02739197530864198
5742 1136.2900390625 0.01095679012345679
5743 1125.7900390625 0.1445216049382716
5744 1126.469970703125 0.01712962962962963
5745 1127.390014648438 0.03248456790123457
5746 1128.050048828125 0.1513446573009792
5747 1128.719970703125 0.008024691358024692
5748 1129.140014648438 0.006944444444444444
5749 1130.02001953125 0.1293539165602384
5750 1130.839965820312 0.01701388888888889
5751 1131.449951171875 0.0183641975308642
5752 1132.069946289062 0.01604938271604938
5753 1132.680053710938 0.01666666666666667
5754 1133.280029296875 0.0150462962962963
5755 1133.890014648438 0.01774691358024692
5756 1134.680053710938 0.0220679012345679
5757 1135.219970703125 0.01118827160493827
5758 1115.739990234375 0.0
5759 1115.0 0.0
5760 1115.0 0.0
5761 1116.170043945312 0.0
5762 1116.68994140625 0.1163137931034483
5763 1116.780029296875 0.003395061728395062
5764 1116.660034179688 0.007098765432098766
5765 1116.089965820312 0.0
5766 1139.930053710938 0.02021604938271605
5767 1140.109985351562 0.009220679012345679
5768 1140.280029296875 0.0
5769 1138.75 0.006790123456790123
5770 1139.089965820312 0.0
5771 1139.619995117188 0.01334876543209877
5772 1140.300048828125 0.002777777777777778
5773 1140.77001953125 0.0
5774 1140.77001953125 0.0
5775 1138.97998046875 0.006712962962962963
5776 1138.859985351562 0.1298940400170285
5777 1138.2900390625 0.08472222222222223
5778 1137.369995117188 0.02006172839506173
5779 1141.420043945312 0.0
5780 1141.2900390625 0.0
5781 1140.9599609375 0.0
5782 1140.839965820312 0.01134259259259259
5783 1140.72998046875 0.0
5784 1140.72998046875 0.0
5785 1144.4599609375 0.0
5786 1143.989990234375 0.004552469135802469
5787 1143.140014648438 0.004861111111111111
5788 1142.640014648438 0.006712962962962963
5789 1142.0400390625 0.01327160493827161
5790 1141.5400390625 0.1163137931034483
5791 1141.030029296875 0.1163137931034483
5792 1140.170043945312 0.0
5793 1140.170043945312 0.0
5794 1140.170043945312 0.0
5795 1116.329956054688 0.00154320987654321
5796 1118.260009765625 0.002237654320987654
5797 1119.739990234375 0.00154320987654321
5798 1120.56005859375 0.001003086419753086
5799 1121.4599609375 0.00787037037037037
5800 1122.920043945312 0.005324074074074074
5801 1123.9599609375 0.005941358024691358
5802 1125.089965820312 0.0
5803 1125.839965820312 0.0
5804 1126.650024414062 0.0
5805 1127.449951171875 0.0
5806 1128.630004882812 0.02037037037037037
5807 1129.400024414062 0.0
5808 1130.0 0.0
5809 1130.339965820312 0.003858024691358024
5810 1131.550048828125 0.1327489782886335
5811 1132.47998046875 0.0
5812 1132.77001953125 0.0
5813 1132.5 0.0
5814 1131.859985351562 0.0
5815 1131.130004882812 0.0154320987654321
5816 1130.079956054688 0.03186728395061728
5817 1129.109985351562 0.01141975308641975
5818 1127.81005859375 0.007330246913580247
5819 1126.910034179688 0.009722222222222222
5820 1126.109985351562 0.0
5821 1125.27001953125 0.1805113239676458
5822 1124.130004882812 0.0
5823 1123.27001953125 0.004629629629629629
5824 1122.380004882812 0.025
5825 1121.18994140625 0.009953703703703704
5826 1120.239990234375 0.01712962962962963
5827 1119.31005859375 0.0
5828 1118.369995117188 0.01751543209876543
5829 1117.27001953125 0.008719135802469136
5830 1117.68994140625 0.02098765432098765
5831 1119.18994140625 0.01496913580246914
5832 1120.219970703125 0.0154320987654321
5833 1120.930053710938 0.02021604938271605
5834 1122.160034179688 0.01273148148148148
5835 1123.069946289062 0.0212962962962963
5836 1124.339965820312 0.006558641975308642
5837 1125.0 0.01967592592592593
5838 1125.68994140625 0.05455246913580247
5839 1126.660034179688 0.02662037037037037
5840 1127.680053710938 0.01867283950617284
5841 1128.81005859375 0.00947145061728395
5842 1129.819946289062 0.002854938271604938
5843 1130.0 0.01743827160493827
5844 1130.300048828125 0.0
5845 1131.010009765625 0.005015432098765432
5846 1132.010009765625 0.007561728395061728
5847 1116.969970703125 0.0
5848 1117.199951171875 0.1322860153256705
5849 1117.219970703125 0.01975308641975309
5850 1091.949951171875 0.0
5851 1092.900024414062 0.0
5852 1094.609985351562 0.0
5853 1096.829956054688 0.0
5854 1097.989990234375 0.0
5855 1099.219970703125 0.009799382716049384
5856 1101.640014648438 0.006558641975308642
5857 1102.660034179688 0.001929012345679012
5858 1103.579956054688 0.0121141975308642
5859 1105.0 0.0
5860 1106.660034179688 0.0
5861 1108.180053710938 0.004861111111111111
5862 1110.369995117188 0.003317901234567901
5863 1111.670043945312 0.0
5864 1112.780029296875 0.004861111111111111
5865 1113.829956054688 0.0
5866 1091.7900390625 0.0
5867 1092.699951171875 0.0
5868 1094.589965820312 0.0
5869 1096.829956054688 0.0
5870 1098.089965820312 0.001851851851851852
5871 1100.0 0.01751543209876543
5872 1101.5400390625 0.0
5873 1103.43994140625 0.000462962962962963
5874 1104.43994140625 0.007716049382716049
5875 1105.25 0.006558641975308642
5876 1106.4599609375 0.01003086419753086
5877 1108.650024414062 0.002546296296296297
5878 1110.170043945312 0.002854938271604938
5879 1111.47998046875 0.0
5880 1112.900024414062 0.01195987654320988
5881 1113.890014648438 0.0
5882 1114.56005859375 0.0
5883 1093.079956054688 0.0
5884 1093.010009765625 0.003549382716049383
5885 1093.239990234375 0.006404320987654321
5886 1092.650024414062 0.0
5887 1091.739990234375 0.0
5888 1095.0 0.0
5889 1094.719970703125 0.0
5890 1094.2900390625 0.002623456790123457
5891 1095.010009765625 0.004166666666666667
5892 1093.9599609375 0.0
5893 1095.199951171875 0.001851851851851852
5894 1097.109985351562 0.0
5895 1097.81005859375 0.0
5896 1098.27001953125 0.1163137931034483
5897 1098.640014648438 0.0
5898 1134.650024414062 0.0
5899 1134.849975585938 0.004166666666666667
5900 1135.369995117188 0.02276234567901235
5901 1136.06005859375 0.01898148148148148
5902 1136.75 0.0195216049382716
5903 1137.18994140625 0.008641975308641976
5904 1138.130004882812 0.008796296296296295
5905 1134.890014648438 0.0
5906 1135.630004882812 0.01095679012345679
5907 1136.359985351562 0.025
5908 1141.390014648438 0.03248456790123457
5909 1141.390014648438 0.05084876543209877
5910 1139.800048828125 0.01018518518518519
5911 1124.06005859375 0.0
5912 1085.489990234375 0.0
5913 1166.22998046875 0.0
5914 1166.22998046875 0.0
5915 1175.619995117188 0.0
5916 1066.339965820312 0.0
5917 1068.31005859375 0.0
5918 1070.0 0.0
5919 1072.160034179688 0.0
5920 1074.300048828125 0.0
5921 1136.25 0.02592592592592593
5922 1138.150024414062 0.002932098765432099
5923 1139.0400390625 0.0
5924 1157.219970703125 0.0
5925 1156.22998046875 0.00316358024691358
5926 1155.52001953125 0.0
5927 1154.119995117188 0.02222222222222222
5928 1152.170043945312 0.01373456790123457
5929 1151.02001953125 0.01049382716049383
5930 1149.640014648438 0.01041666666666667
5931 1125.089965820312 0.1163137931034483
5932 1140.9599609375 0.01458333333333333
5933 1140.589965820312 0.001080246913580247
5934 1140.02001953125 0.002006172839506173
5935 1140.02001953125 0.0
5936 1139.640014648438 0.01566358024691358
5937 1140.170043945312 0.002700617283950617
5938 1154.02001953125 0.01828703703703704
5939 1155.079956054688 0.01165123456790123
5940 1156.089965820312 0.004706790123456791
5941 1157.079956054688 0.02970679012345679
5942 1157.93994140625 0.01828703703703704
5943 1158.06005859375 0.0
5944 1157.880004882812 0.002623456790123457
5945 1157.050048828125 0.009104938271604938
5946 1156.589965820312 0.0283179012345679
5947 1156.589965820312 0.01851851851851852
5948 1155.920043945312 0.02816358024691358
5949 1155.68994140625 0.03024691358024691
5950 1155.5 0.03225308641975309
5951 1155.099975585938 0.02098765432098765
5952 1154.819946289062 0.02368827160493827
5953 1154.280029296875 0.03225308641975309
5954 1154.0400390625 0.02762345679012346
5955 1153.31005859375 0.02878086419753086
5956 1152.369995117188 0.02276234567901235
5957 1151.910034179688 0.01674382716049383
5958 1151.640014648438 0.04282407407407408
5959 1163.319946289062 0.0
5960 1164.260009765625 0.004398148148148148
5961 1165.130004882812 0.1354495955725841
5962 1165.329956054688 0.005555555555555556
5963 1164.97998046875 0.0
5964 1164.75 0.1239526819923372
5965 1165.150024414062 0.007561728395061728
5966 1164.510009765625 0.1163137931034483
5967 1163.010009765625 0.004398148148148148
5968 1161.069946289062 0.02716049382716049
5969 1161.27001953125 0.007021604938271605
5970 1161.18994140625 0.004089506172839506
5971 1161.0 0.01820987654320988
5972 1161.079956054688 0.01381172839506173
5973 1163.569946289062 0.1191687313750532
5974 1163.43994140625 0.008024691358024692
5975 1163.569946289062 0.008101851851851851
5976 1172.52001953125 0.02075617283950617
5977 1173.47998046875 0.01813271604938272
5978 1174.93994140625 0.05949074074074074
5979 1175.849975585938 0.01990740740740741
5980 1134.2900390625 0.0
5981 1134.380004882812 0.01296296296296296
5982 1134.380004882812 0.0
5983 1134.569946289062 0.0
5984 1134.569946289062 0.0
5985 1134.68994140625 0.004552469135802469
5986 1138.780029296875 0.0
5987 1138.780029296875 0.0
5988 1138.56005859375 0.0
5989 1138.780029296875 0.0
5990 1112.760009765625 0.0
5991 1040.170043945312 0.0
5992 1035.0400390625 0.0
5993 1033.170043945312 0.0
5994 1034.2900390625 0.0
5995 1035.0 0.0
5996 1035.0400390625 0.0
5997 1031.239990234375 0.02430555555555556
5998 1042.569946289062 0.0
5999 1041.780029296875 0.0
6000 1142.630004882812 0.0
6001 1046.719970703125 0.0
6002 1044.719970703125 0.0
6003 1043.319946289062 0.0
6004 1043.030029296875 0.0
6005 1050.0400390625 0.0
6006 1050.0 0.0
6007 1048.7900390625 0.0
6008 1050.880004882812 0.0
6009 1050.510009765625 0.0
6010 1050.510009765625 0.0
6011 1136.2099609375 0.05679012345679012
6012 1122.199951171875 0.0
6013 1117.849975585938 0.01473765432098765
6014 1122.069946289062 0.0
6015 1121.239990234375 0.0
6016 1125.280029296875 0.07087191358024691
6017 1125.280029296875 0.0
6018 1126.27001953125 0.0
6019 1126.579956054688 0.0006944444444444445
6020 1125.0 0.1927026819923372
6021 1123.630004882812 0.0466820987654321
6022 1131.43994140625 0.08310185185185184
6023 1128.349975585938 0.4247387044132255
6024 1131.089965820312 0.05030864197530864
6025 1131.47998046875 0.05
6026 1130.119995117188 0.03186728395061728
6027 1130.0 0.04405864197530864
6028 1106.650024414062 0.2096779906343125
6029 1102.7900390625 0.06175411522633745
6030 1102.43994140625 0.008333333333333333
6031 1102.43994140625 0.003472222222222222
6032 1102.089965820312 0.008256172839506172
6033 1101.339965820312 0.07121913580246914
6034 1113.380004882812 0.02337962962962963
6035 1110.369995117188 0.05709876543209877
6036 1120.239990234375 0.02584876543209877
6037 1085.0400390625 0.0
6038 1085.359985351562 0.0
6039 1085.2099609375 0.0
6040 1085.2099609375 0.0
6041 1085.2099609375 0.0
6042 1085.2099609375 0.0
6043 1084.72998046875 0.0
6044 1084.530029296875 0.0
6045 1084.050048828125 0.0
6046 1083.849975585938 0.0
6047 1083.25 0.0
6048 1083.079956054688 0.0
6049 1082.550048828125 0.0
6050 1081.650024414062 0.0
6051 1081.52001953125 0.0
6052 1081.140014648438 0.0
6053 1081.140014648438 0.0
6054 1067.010009765625 0.0
6055 1068.77001953125 0.0
6056 1085.0400390625 0.0
6057 1080.0 0.0
6058 1126.199951171875 0.0
6059 1120.0 0.0
6060 1120.0 0.0
6061 1120.0 0.0
6062 1120.0 0.0
6063 1120.0 0.0
6064 1135.589965820312 0.01597222222222222
6065 1138.359985351562 0.5163024904214559
6066 1131.349975585938 0.03942901234567901
6067 1126.880004882812 0.07677469135802469
6068 1128.849975585938 0.01327160493827161
6069 1127.800048828125 0.1577489782886335
6070 1134.869995117188 0.2061286079182631
6071 1136.180053710938 0.07978395061728395
6072 1135.2900390625 0.00316358024691358
6073 1132.4599609375 0.07183641975308641
6074 1132.869995117188 0.0570216049382716
6075 1109.650024414062 0.2052862725273166
6076 1107.569946289062 0.03912037037037037
6077 1106.920043945312 0.006481481481481481
6078 1105.349975585938 0.1815144103873989
6079 1103.97998046875 0.2007273733503619
6080 1103.97998046875 0.01442901234567901
6081 1111.5 0.0308641975308642
6082 1108.780029296875 0.03317901234567901
6083 1105.420043945312 0.03958333333333333
6084 1107.650024414062 0.0466820987654321
6085 1110.630004882812 0.06751543209876543
6086 1115.550048828125 0.1346779906343125
6087 1118.239990234375 0.3212078331204768
6088 1112.989990234375 0.1378415708812261
6089 1112.989990234375 0.01296296296296296
6090 1116.599975585938 0.0
6091 1115.050048828125 0.0
6092 1123.800048828125 0.07199074074074074
6093 1124.989990234375 0.2021162622392508
6094 1130.170043945312 0.0
6095 1125.81005859375 0.07665895061728395
6096 1125.400024414062 0.121483546189868
6097 1126.680053710938 0.1766532992762878
6098 1130.880004882812 0.2497242869306088
6099 1130.199951171875 0.04506172839506173
6100 1130.380004882812 0.03101851851851852
6101 1128.339965820312 0.1715607066836952
6102 1130.0 0.08526234567901235
6103 1127.239990234375 0.1060956790123457
6104 1125.599975585938 0.04992283950617284
6105 1123.579956054688 0.06589506172839506
6106 1130.119995117188 0.03935185185185185
6107 1130.390014648438 0.01041666666666667
6108 1121.5400390625 0.3355596849723287
6109 1120.349975585938 0.9784712430821627
6110 1067.25 0.0
6111 1124.650024414062 0.1162808641975309
6112 1123.449951171875 0.4337078331204768
6113 1126.47998046875 0.03287037037037037
6114 1067.25 0.0
6115 1130.489990234375 0.0
6116 1080.2099609375 0.04899691358024692
6117 1075.0 0.1462520647083866
6118 1120.0 0.0
6119 1127.900024414062 0.0
6120 1087.199951171875 0.0
6121 1090.300048828125 0.001774691358024691
6122 1086.97998046875 0.0
6123 1086.630004882812 0.0
6124 1085.56005859375 0.0
6125 1091.400024414062 0.0
6126 1091.280029296875 0.0
6127 1090.81005859375 0.0
6128 1090.81005859375 0.0
6129 1090.300048828125 0.0
6130 1132.599975585938 0.1746471264367816
6131 1102.109985351562 0.182054533844189
6132 1101.449951171875 0.0
6133 1103.949951171875 0.03842592592592593
6134 1103.380004882812 0.0283179012345679
6135 1103.339965820312 0.0904320987654321
6136 1109.31005859375 0.04992283950617284
6137 1104.31005859375 0.1340607066836952
6138 1104.31005859375 0.03016975308641975
6139 1108.77001953125 0.191159472115794
6140 1103.739990234375 0.02608024691358025
6141 1109.400024414062 0.01867283950617284
6142 1103.949951171875 0.04058641975308642
6143 1101.069946289062 0.02106481481481481
6144 1114.2900390625 0.0
6145 1114.22998046875 0.0
6146 1117.880004882812 0.01666666666666667
6147 1117.31005859375 0.01797839506172839
6148 1117.2900390625 0.0246141975308642
6149 1117.93994140625 0.009953703703703704
6150 1119.25 0.02237654320987654
6151 1120.0 0.1382273733503619
6152 1120.56005859375 0.1444002128565347
6153 1121.140014648438 0.01334876543209877
6154 1121.589965820312 0.004243827160493827
6155 1125.109985351562 0.1558199659429545
6156 1115.619995117188 0.0
6157 1108.130004882812 0.0002314814814814815
6158 1108.81005859375 0.001697530864197531
6159 1108.81005859375 0.1409279906343125
6160 1118.390014648438 0.01195987654320988
6161 1114.319946289062 0.0
6162 1114.319946289062 0.0
6163 1114.319946289062 0.0
6164 1114.319946289062 0.0
6165 1114.319946289062 0.01388888888888889
6166 1114.119995117188 0.01766975308641975
6167 1114.72998046875 0.01797839506172839
6168 1115.0 0.06111111111111112
6169 1115.2900390625 0.02237654320987655
6170 1112.7900390625 0.0
6171 1115.329956054688 0.0
6172 1108.890014648438 0.173412558535547
6173 1112.800048828125 0.01041666666666667
6174 1108.890014648438 0.08287037037037037
6175 1109.170043945312 0.0763888888888889
6176 1113.02001953125 0.02237654320987654
6177 1113.859985351562 0.00794753086419753
6178 1121.949951171875 0.0
6179 1121.550048828125 0.1639989782886335
6180 1120.0 0.01743827160493827
6181 1120.0 0.03179012345679012
6182 1120.0 0.0
6183 1120.0 0.0
6184 1117.369995117188 0.0
6185 1116.569946289062 0.0
6186 1111.819946289062 0.0
6187 1122.25 0.005401234567901234
6188 1122.859985351562 0.1308199659429545
6189 1125.0 0.04020061728395062
6190 1120.880004882812 0.003240740740740741
6191 1121.329956054688 0.01018518518518519
6192 1122.329956054688 0.005169753086419753
6193 1123.329956054688 0.1202489782886335
6194 1123.989990234375 0.01705246913580247
6195 1121.349975585938 0.02492283950617284
6196 1122.0 0.003009259259259259
6197 1122.619995117188 0.01936728395061729
6198 1117.880004882812 0.02253086419753086
6199 1119.589965820312 0.02916666666666667
6200 1120.630004882812 0.01782407407407408
6201 1114.150024414062 0.0
6202 1114.780029296875 0.01427469135802469
6203 1115.989990234375 0.1254958918688804
6204 1117.880004882812 0.003009259259259259
6205 1114.180053710938 0.0
6206 1118.780029296875 0.01188271604938271
6207 1118.339965820312 0.01751543209876543
6208 1117.140014648438 0.005709876543209876
6209 1115.949951171875 0.01929012345679013
6210 1114.75 0.006944444444444444
6211 1114.75 0.0
6212 1114.150024414062 0.0
6213 1113.949951171875 0.006635802469135803
6214 1114.25 0.01165123456790123
6215 1116.579956054688 0.1452489782886335
6216 1117.609985351562 0.008487654320987654
6217 1118.369995117188 0.0290895061728395
6218 1124.56005859375 0.02623456790123457
6219 1124.920043945312 0.1350637931034483
6220 1125.280029296875 0.04089506172839506
6221 1138.22998046875 0.03487654320987654
6222 1137.180053710938 0.04340277777777778
6223 1125.880004882812 0.0
6224 1125.0 0.00625
6225 1125.0 0.0
6226 1125.880004882812 0.0
6227 1133.22998046875 0.2775020647083866
6228 1134.390014648438 0.0742283950617284
6229 1132.219970703125 0.1697088548318433
6230 1131.339965820312 0.03611111111111111
6231 1144.489990234375 0.04799382716049383
6232 1155.489990234375 0.06882716049382716
6233 1149.22998046875 0.0951388888888889
6234 1155.0 0.3053570029799915
6235 1128.069946289062 0.0
6236 1128.97998046875 0.01589506172839506
6237 1130.0 0.007021604938271605
6238 1145.420043945312 0.1250771604938272
6239 1146.150024414062 0.1906193486590038
6240 1141.390014648438 0.0
6241 1140.2099609375 0.04830246913580247
6242 1140.449951171875 0.01365740740740741
6243 1154.300048828125 0.06057098765432099
6244 1149.449951171875 0.05262345679012346
6245 1143.420043945312 0.007407407407407408
6246 1150.0 0.1359125585355471
6247 1150.0 0.02785493827160494
6248 1155.0 0.1543539165602384
6249 1146.410034179688 0.01898148148148148
6250 1145.97998046875 0.1163137931034483
6251 1146.199951171875 0.01944444444444444
6252 1146.319946289062 0.004012345679012346
6253 1145.329956054688 0.3664238825031929
6254 1150.0 0.01226851851851852
6255 1154.839965820312 0.1923168795232014
6256 1155.119995117188 0.08649691358024691
6257 1155.380004882812 0.2048940400170285
6258 1156.069946289062 0.2759917837377608
6259 1148.119995117188 0.0
6260 1149.0400390625 0.004475308641975309
6261 1149.359985351562 0.0
6262 1149.949951171875 0.01759259259259259
6263 1150.989990234375 0.06358024691358025
6264 1146.410034179688 0.04876543209876543
6265 1148.489990234375 0.05100308641975308
6266 1149.099975585938 0.03186728395061728
6267 1149.06005859375 0.03001543209876543
6268 1143.410034179688 0.1419310770540656
6269 1141.699951171875 0.09328703703703704
6270 1142.650024414062 0.05100308641975308
6271 1143.72998046875 0.04606481481481482
6272 1153.77001953125 0.2190144103873989
6273 1147.550048828125 0.0
6274 1147.550048828125 0.03703703703703703
6275 1149.22998046875 0.03641975308641975
6276 1151.569946289062 0.02021604938271605
6277 1144.68994140625 0.03533950617283951
6278 1145.349975585938 0.02908950617283951
6279 1148.260009765625 0.06589506172839506
6280 1150.449951171875 0.0
6281 1151.280029296875 0.0
6282 1148.260009765625 0.0150462962962963
6283 1155.0 0.02361111111111111
6284 1120.0 0.0
6285 1120.469970703125 0.05625
6286 1152.4599609375 0.08958333333333333
6287 1155.0 0.1061728395061728
6288 1153.56005859375 0.06473765432098766
6289 1154.349975585938 0.01875
6290 1155.780029296875 0.01705246913580247
6291 1155.609985351562 0.0
6292 1112.619995117188 0.0
6293 1115.640014648438 0.0
6294 1124.829956054688 0.143088484461473
6295 1120.719970703125 0.03796296296296296
6296 1115.97998046875 0.00779320987654321
6297 1125.839965820312 0.0091820987654321
6298 1126.619995117188 0.0
6299 1120.640014648438 0.002854938271604939
6300 1120.0 0.1334104938271605
6301 1120.900024414062 0.0650462962962963
6302 1140.31005859375 0.01319444444444444
6303 1140.420043945312 0.01358024691358025
6304 1141.260009765625 0.01527777777777778
6305 1141.140014648438 0.03387345679012346
6306 1140.530029296875 0.002160493827160494
6307 1141.900024414062 0.00162037037037037
6308 1141.949951171875 0.0220679012345679
6309 1141.599975585938 0.008487654320987654
6310 1142.280029296875 0.01743827160493827
6311 1141.900024414062 0.02291666666666667
6312 1142.880004882812 0.008950617283950616
6313 1143.530029296875 0.01381172839506173
6314 1144.239990234375 0.007484567901234568
6315 1144.239990234375 0.01157407407407408
6316 1143.849975585938 0.1453261387824606
6317 1144.5400390625 0.1346008301404853
6318 1144.660034179688 0.0
6319 1147.02001953125 0.0
6320 1146.680053710938 0.02006172839506173
6321 1146.52001953125 0.03094135802469136
6322 1146.410034179688 0.01666666666666667
6323 1146.300048828125 0.01635802469135803
6324 1146.18994140625 0.1291995955725841
6325 1148.099975585938 0.001080246913580247
6326 1148.099975585938 0.02391975308641975
6327 1147.4599609375 0.03109567901234568
6328 1147.329956054688 0.03564814814814815
6329 1147.199951171875 0.004089506172839506
6330 1147.030029296875 0.01358024691358025
6331 1146.859985351562 0.02546296296296297
6332 1146.739990234375 0.1472551511281396
6333 1146.410034179688 0.01820987654320988
6334 1146.2900390625 0.01381172839506173
6335 1146.329956054688 0.02415123456790123
6336 1146.050048828125 0.01658950617283951
6337 1146.050048828125 0.02361111111111111
6338 1145.640014648438 0.0150462962962963
6339 1145.699951171875 0.04166666666666666
6340 1148.2900390625 0.01427469135802469
6341 1148.2900390625 0.008641975308641976
6342 1145.199951171875 0.01350308641975309
6343 1144.660034179688 0.006867283950617284
6344 1144.18994140625 0.02283950617283951
6345 1142.900024414062 0.02708333333333333
6346 1147.880004882812 0.0091820987654321
6347 1147.239990234375 0.009722222222222222
6348 1146.800048828125 0.02955246913580247
6349 1146.119995117188 0.02411265432098766
6350 1139.449951171875 0.1844135802469136
6351 1142.349975585938 0.0337962962962963
6352 1142.079956054688 0.01257716049382716
6353 1141.609985351562 0.01766975308641975
6354 1140.579956054688 0.03020190329218107
6355 1144.839965820312 0.01219135802469136
6356 1144.77001953125 0.01195987654320988
6357 1142.099975585938 0.0
6358 1142.22998046875 0.006327160493827161
6359 1142.630004882812 0.0
6360 1141.900024414062 0.0
6361 1142.569946289062 0.0
6362 1143.569946289062 0.0003858024691358024
6363 1144.569946289062 0.0
6364 1144.5400390625 0.1335205832269051
6365 1132.469970703125 0.01427469135802469
6366 1133.010009765625 0.1433971264367816
6367 1132.239990234375 0.03063271604938272
6368 1132.75 0.01496913580246913
6369 1135.030029296875 0.01566358024691358
6370 1134.780029296875 0.01998456790123457
6371 1133.369995117188 0.01990740740740741
6372 1134.0 0.01489197530864197
6373 1133.430053710938 0.1020833333333333
6374 1133.319946289062 0.01126543209876543
6375 1136.18994140625 0.005632716049382716
6376 1135.319946289062 0.01496913580246914
6377 1135.329956054688 0.003472222222222222
6378 1134.339965820312 0.03865740740740741
6379 1133.800048828125 0.01003086419753086
6380 1136.4599609375 0.01859567901234568
6381 1135.910034179688 0.01149691358024691
6382 1134.839965820312 0.1410051511281397
6383 1135.410034179688 0.0349537037037037
6384 1136.18994140625 0.01535493827160494
6385 1134.0 0.006481481481481482
6386 1135.2900390625 0.009953703703703702
6387 1135.2900390625 0.01217206790123457
6388 1138.280029296875 0.02546296296296296
6389 1138.280029296875 0.001774691358024691
6390 1137.430053710938 0.007137345679012345
6391 1136.9599609375 0.1282736696466582
6392 1138.089965820312 0.02484567901234568
6393 1137.569946289062 0.2495257343550447
6394 1137.099975585938 0.02253086419753086
6395 1136.839965820312 0.03063271604938271
6396 1136.589965820312 0.01875
6397 1136.099975585938 0.0412037037037037
6398 1135.719970703125 0.03016975308641975
6399 1135.680053710938 0.01936728395061729
6400 1135.670043945312 0.02530864197530864
6401 1135.670043945312 0.1480267560664112
6402 1136.9599609375 0.01234567901234568
6403 1138.089965820312 0.006481481481481481
6404 1138.400024414062 0.0005401234567901234
6405 1139.5400390625 0.02268518518518519
6406 1139.130004882812 0.02962962962962963
6407 1139.199951171875 0.02006172839506173
6408 1138.47998046875 0.0242283950617284
6409 1138.280029296875 0.1554341634738187
6410 1138.010009765625 0.02430555555555556
6411 1137.369995117188 0.0304783950617284
6412 1137.300048828125 0.03641975308641975
6413 1138.400024414062 0.01527777777777778
6414 1140.5 0.01535493827160494
6415 1140.369995117188 0.04922839506172839
6416 1140.239990234375 0.03225308641975309
6417 1140.089965820312 0.1382273733503619
6418 1139.579956054688 0.01010802469135802
6419 1139.650024414062 0.01118827160493827
6420 1139.390014648438 0.04351851851851852
6421 1138.97998046875 0.02569444444444444
6422 1138.819946289062 0.01782407407407408
6423 1138.72998046875 0.009104938271604938
6424 1138.52001953125 0.03549382716049383
6425 1141.969970703125 0.0
6426 1141.650024414062 0.04050925925925926
6427 1141.140014648438 0.1696316943380162
6428 1140.819946289062 0.09074074074074073
6429 1140.27001953125 0.04506172839506173
6430 1143.400024414062 0.0
6431 1143.670043945312 0.0
6432 1158.099975585938 0.0
6433 1158.099975585938 0.02947530864197531
6434 1150.099975585938 0.0
6435 1144.260009765625 0.005709876543209876
6436 1156.300048828125 0.01666666666666667
6437 1152.449951171875 0.0304783950617284
6438 1156.489990234375 0.02368827160493827
6439 1150.589965820312 0.1070216049382716
6440 1150.7099609375 0.06003086419753086
6441 1149.469970703125 0.06566358024691357
6442 1149.630004882812 0.04984567901234568
6443 1155.0 0.01412037037037037
6444 1155.0 0.0
6445 1138.420043945312 0.0
6446 1147.630004882812 0.07222222222222222
6447 1145.920043945312 0.1433971264367816
6448 1155.0 0.3002973392933164
6449 1154.239990234375 0.06489197530864198
6450 1138.81005859375 0.03811728395061728
6451 1138.819946289062 0.1003343621399177
6452 1158.609985351562 0.2509588548318433
6453 1159.130004882812 0.3545411664538102
6454 1154.43994140625 0.06118827160493828
6455 1159.02001953125 0.0
6456 1159.02001953125 0.0
6457 1159.069946289062 0.0
6458 1159.069946289062 0.0
6459 1157.329956054688 0.0
6460 1157.329956054688 0.0
6461 1156.68994140625 0.0
6462 1156.68994140625 0.0
6463 1156.68994140625 0.0
6464 1156.670043945312 0.0
6465 1161.469970703125 0.0
6466 1160.5 0.0
6467 1115.949951171875 0.0
6468 1115.949951171875 0.0
6469 1115.949951171875 0.0
6470 1107.069946289062 0.0
6471 1107.4599609375 0.0
6472 1045.0 0.0
6473 1086.609985351562 0.0
6474 1086.650024414062 0.0
6475 1086.410034179688 0.0
6476 1086.130004882812 0.0
6477 1085.800048828125 0.0
6478 1085.719970703125 0.0
6479 1085.369995117188 0.0
6480 1085.329956054688 0.0
6481 1085.2900390625 0.0
6482 1085.170043945312 0.0
6483 1085.050048828125 0.0
6484 1085.050048828125 0.0
6485 1084.68994140625 0.0
6486 1084.52001953125 0.0
6490 1131.47998046875 0.0
6491 1131.390014648438 0.0078125
6492 1129.260009765625 0.1446316943380162
6493 1129.449951171875 0.05401234567901234
6494 1135.0 0.07492283950617283
6495 1130.900024414062 0.09938271604938272
6496 1135.0 0.0
6497 1135.0 0.0
6498 1135.0 0.03958333333333333
6499 1135.0 0.005478395061728395
6500 1132.0400390625 0.0
6501 1133.739990234375 0.0216820987654321
6502 1135.0 0.2422839506172839
6503 1131.9599609375 0.0
6504 1126.410034179688 0.0
6505 1141.06005859375 0.1541995955725841
6506 1140.589965820312 0.2214449659429545
6507 1140.0 0.05339506172839506
6508 1140.0 0.00933641975308642
6509 1140.0 0.0
6510 1140.0 0.0
6511 1140.0 0.0
6512 1140.0 0.0
6513 1140.0 0.0
6514 1140.0 0.008796296296296297
6515 1140.0 0.01010802469135802
6516 1140.0 0.01473765432098765
6517 1136.280029296875 0.008641975308641976
6518 1137.47998046875 0.07183641975308643
6519 1139.97998046875 0.02191358024691358
6520 1140.2099609375 0.12387552149851
6521 1135.56005859375 0.1084104938271605
6522 1137.75 0.4710864410387399
6523 1137.56005859375 0.04012345679012345
6524 1134.2900390625 0.06141975308641975
6525 1135.9599609375 0.0
6526 1140.030029296875 0.07330246913580248
6527 1140.829956054688 0.003395061728395062
6528 1141.25 0.06959876543209877
6529 1141.829956054688 0.004706790123456791
6530 1136.329956054688 0.008024691358024692
6531 1137.369995117188 0.03132716049382716
6532 1138.7900390625 0.1315915708812261
6533 1140.160034179688 0.01157407407407407
6534 1142.219970703125 0.004629629629629629
6535 1152.650024414062 0.01010802469135802
6536 1152.650024414062 0.0
6537 1157.0400390625 0.007021604938271605
6538 1155.530029296875 0.005324074074074074
6539 1155.140014648438 0.004861111111111111
6540 1154.930053710938 0.01111111111111111
6541 1154.609985351562 0.01813271604938272
6542 1154.099975585938 0.001388888888888889
6543 1153.819946289062 0.01022376543209877
6544 1146.449951171875 0.1163137931034483
6545 1146.410034179688 0.02469135802469136
6546 1145.47998046875 0.07106481481481482
6547 1142.02001953125 0.02145061728395062
6548 1152.22998046875 0.02160493827160494
6549 1152.27001953125 0.0
6550 1152.27001953125 0.0
6551 1152.050048828125 0.0
6552 1152.050048828125 0.0
6553 1152.0 0.0
6554 1152.0 0.0
6555 1151.010009765625 0.04513888888888889
6556 1150.900024414062 0.151267496807152
6557 1150.949951171875 0.007484567901234568
6558 1150.910034179688 0.1296625585355471
6559 1150.9599609375 0.03587962962962963
6560 1150.319946289062 0.0209104938271605
6561 1150.829956054688 0.1386903363133248
6562 1150.280029296875 0.04220679012345679
6563 1135.0 0.0
6564 1135.0 0.0
6565 1135.0 0.06442901234567901
6566 1134.140014648438 0.005478395061728395
6567 1141.339965820312 0.0
6568 1151.910034179688 0.1419310770540656
6569 1146.97998046875 0.0
6570 1146.670043945312 0.02631172839506173
6571 1146.489990234375 0.01936728395061729
6572 1146.329956054688 0.01558641975308642
6573 1147.170043945312 0.01273148148148148
6574 1146.829956054688 0.0320216049382716
6575 1149.989990234375 0.0
6576 1147.72998046875 0.03739711934156378
6577 1147.420043945312 0.1213292252022137
6578 1146.9599609375 0.04868827160493827
6579 1148.339965820312 0.03371913580246914
6580 1147.849975585938 0.01566358024691358
6581 1147.420043945312 0.1163137931034483
6582 1148.77001953125 0.0
6583 1151.52001953125 0.01080246913580247
6584 1151.31005859375 0.0117283950617284
6585 1151.109985351562 0.02222222222222222
6586 1150.880004882812 0.01658950617283951
6587 1150.4599609375 0.004475308641975309
6588 1150.300048828125 0.1130401234567901
6589 1150.160034179688 0.1335977437207322
6590 1150.0 0.3761790336313325
6591 1149.670043945312 0.02422839506172839
6592 1158.420043945312 0.0
6593 1158.449951171875 0.0
6594 1158.449951171875 0.0
6595 1158.449951171875 0.002854938271604938
6596 1159.430053710938 0.01342592592592593
6597 1159.430053710938 0.01087962962962963
6598 1159.420043945312 0.005092592592592593
6599 1159.31005859375 0.008024691358024692
6600 1159.430053710938 0.02060185185185185
6601 1159.239990234375 0.002623456790123457
6602 1158.589965820312 0.005015432098765432
6603 1158.68994140625 0.002314814814814815
6604 1159.130004882812 0.0209104938271605
6605 1159.469970703125 0.0158179012345679
6606 1159.469970703125 0.01041666666666667
6607 1159.569946289062 0.00949074074074074
6608 1159.969970703125 0.00779320987654321
6609 1160.25 0.00625
6610 1160.219970703125 0.01087962962962963
6611 1160.099975585938 0.0117283950617284
6612 1159.910034179688 0.1341378671775224
6613 1160.079956054688 0.1336749042145594
6614 1159.969970703125 0.00949074074074074
6615 1160.069946289062 0.003395061728395062
6616 1159.97998046875 0.009259259259259259
6617 1159.93994140625 0.01597222222222222
6618 1159.930053710938 0.01273148148148148
6619 1159.93994140625 0.008410493827160494
6620 1160.069946289062 0.01103395061728395
6621 1160.31005859375 1.066853916560238
6622 1160.170043945312 0.007021604938271605
6623 1160.079956054688 0.1656193486590039
6624 1160.18994140625 0.01967592592592593
6625 1160.010009765625 0.01442901234567901
6626 1160.079956054688 0.02052469135802469
6627 1159.859985351562 0.03217592592592593
6628 1159.609985351562 0.1420082375478927
6629 1159.380004882812 0.03248456790123457
6630 1159.010009765625 0.02453703703703704
6631 1158.949951171875 0.01327160493827161
6632 1158.650024414062 0.0125
6633 1158.420043945312 0.01188271604938272
6634 1158.2900390625 0.1291995955725841
6635 1157.949951171875 0.1217921881651767
6636 1152.0 0.0
6637 1151.77001953125 0.0
6638 1151.619995117188 0.01334876543209877
6639 1159.18994140625 0.002391975308641975
6640 1159.150024414062 0.04591049382716049
6641 1154.579956054688 0.02800925925925926
6642 1154.56005859375 0.06535493827160493
6643 1154.5 0.05895061728395062
6644 1154.680053710938 0.06280864197530864
6645 1154.670043945312 0.03549382716049383
6646 1154.319946289062 0.01689814814814815
6647 1154.219970703125 0.0006944444444444445
6648 1155.52001953125 0.01424897119341564
6649 1155.609985351562 0.02098765432098765
6650 1155.56005859375 0.02847222222222222
6651 1155.670043945312 0.1508816943380162
6652 1155.43994140625 0.02854938271604938
6653 1155.0 0.02160493827160494
6654 1155.06005859375 0.0162037037037037
6655 1155.0 0.07515432098765432
6656 1155.0 0.02993827160493827
6657 1155.0 0.02222222222222222
6658 1155.0 0.03287037037037037
6659 1155.0 0.03927469135802469
6660 1154.930053710938 0.0209104938271605
6661 1156.619995117188 0.0
6662 1156.619995117188 0.01103395061728395
6663 1156.619995117188 0.1251100893997446
6664 1156.56005859375 0.01666666666666667
6665 1156.630004882812 0.02137345679012346
6666 1156.400024414062 0.01412037037037037
6667 1156.400024414062 0.01010802469135802
6668 1156.180053710938 0.009722222222222222
6669 1156.180053710938 0.005246913580246914
6670 1155.989990234375 0.007484567901234569
6671 1156.06005859375 0.01141975308641975
6672 1156.109985351562 0.008410493827160494
6673 1156.109985351562 0.007175925925925926
6674 1155.920043945312 0.01435185185185185
6675 1155.7099609375 0.01766975308641975
6676 1155.52001953125 0.0308641975308642
6677 1155.359985351562 0.1476409535972754
6678 1155.170043945312 0.02229938271604938
6679 1155.219970703125 0.01967592592592593
6680 1155.0400390625 0.01666666666666667
6681 1155.06005859375 0.01520061728395062
6682 1157.510009765625 0.001774691358024691
6683 1157.430053710938 0.01195987654320988
6684 1157.630004882812 0.03688271604938272
6685 1157.359985351562 0.1789681140911026
6686 1157.069946289062 0.04760802469135803
6687 1156.68994140625 0.04020061728395062
6688 1156.550048828125 0.05462962962962963
6689 1156.2099609375 0.04691358024691358
6690 1158.339965820312 0.004706790123456791
6691 1158.449951171875 0.02253086419753086
6692 1158.420043945312 0.02345679012345679
6693 1158.319946289062 0.03680555555555556
6694 1158.219970703125 0.1484125585355471
6695 1158.089965820312 0.03780864197530864
6696 1157.890014648438 0.04336419753086419
6697 1157.719970703125 0.02013888888888889
6698 1157.5400390625 0.03117283950617284
6699 1157.280029296875 0.04652777777777778
6700 1157.010009765625 0.02638888888888889
6701 1156.7099609375 0.04166666666666666
6702 1156.4599609375 0.01867283950617284
6703 1150.079956054688 0.004089506172839506
6704 1150.329956054688 0.1349866326096211
6705 1154.420043945312 0.001157407407407407
6706 1154.319946289062 0.1367613239676458
6707 1154.119995117188 0.1717921881651767
6708 1154.079956054688 0.02137345679012346
6709 1155.2900390625 0.006481481481481481
6710 1154.68994140625 0.006172839506172839
6711 1156.5 0.0006944444444444445
6712 1156.349975585938 0.1293539165602384
6713 1156.43994140625 0.02746913580246913
6714 1156.349975585938 0.02060185185185185
6715 1156.219970703125 0.0
6716 1157.400024414062 0.0
6717 1157.18994140625 0.006558641975308642
6718 1156.68994140625 0.005709876543209876
6719 1157.140014648438 0.0
6720 1157.27001953125 0.03464506172839506
6721 1157.369995117188 0.09079218106995884
6722 1157.47998046875 0.02376543209876543
6723 1150.569946289062 0.01412037037037037
6724 1151.52001953125 0.0
6725 1146.180053710938 0.007021604938271605
6726 1146.349975585938 0.01226851851851852
6727 1146.530029296875 0.0
6728 1149.400024414062 0.01527777777777778
6729 1149.050048828125 0.0
6730 1140.089965820312 0.0
6731 1158.609985351562 0.1275020647083866
6732 1158.420043945312 0.03348765432098765
6733 1158.219970703125 0.01851851851851852
6734 1158.150024414062 0.006172839506172839
6735 1158.93994140625 0.01643518518518518
6736 1158.880004882812 0.01890432098765432
6737 1154.430053710938 0.006712962962962963
6738 1154.829956054688 0.01358024691358025
6739 1155.109985351562 0.1403107066836952
6740 1155.43994140625 0.008333333333333333
6741 1155.550048828125 0.03402777777777778
6742 1156.319946289062 0.04359567901234568
6743 1156.43994140625 0.02322530864197531
6744 1156.760009765625 0.1321316943380162
6745 1157.4599609375 0.04201388888888889
6746 1157.589965820312 0.02986111111111111
6747 1158.050048828125 0.01219135802469136
6748 1158.180053710938 0.0162037037037037
6749 1159.329956054688 0.01041666666666667
6750 1158.93994140625 0.005555555555555556
6751 1158.369995117188 0.02160493827160494
6752 1157.27001953125 0.1487212005108557
6753 1156.27001953125 0.2718251170710941
6754 1162.839965820312 0.02391975308641976
6755 1161.569946289062 0.03032407407407407
6756 1162.5400390625 0.02445987654320987
6757 1163.199951171875 0.03557098765432099
6758 1161.2099609375 0.0
6759 1161.75 0.0
6760 1161.969970703125 0.0
6761 1162.77001953125 0.0
6762 1163.280029296875 0.0
6763 1164.010009765625 0.0
6764 1164.119995117188 0.0
6765 1141.219970703125 0.1505730523627075
6766 1142.7900390625 0.0
6767 1142.910034179688 0.0
6768 1142.910034179688 0.0
6769 1142.869995117188 0.0
6770 1142.869995117188 0.0
6771 1142.869995117188 0.0
6772 1140.119995117188 0.0121141975308642
6773 1140.359985351562 0.1670082375478927
6774 1140.81005859375 0.1672397190293742
6775 1140.0 0.05015432098765432
6776 1142.079956054688 0.01720679012345679
6777 1142.31005859375 0.008564814814814815
6778 1141.849975585938 0.01180555555555556
6779 1141.449951171875 0.0
6780 1126.47998046875 0.07962962962962963
6781 1079.18994140625 0.0
6782 1072.0 0.0
6783 1180.0 0.0
6784 1179.93994140625 0.006635802469135803
6785 1179.829956054688 0.0
6786 1164.420043945312 0.002854938271604938
6787 1165.089965820312 0.0
6788 1165.72998046875 0.0
6789 1165.920043945312 0.0
6790 1166.140014648438 0.0
6791 1163.530029296875 0.0
6792 1163.5 0.1163137931034483
6793 1134.719970703125 0.0
6794 1140.0 0.0
6795 1140.0 0.0
6796 1140.069946289062 0.0
6797 1140.280029296875 0.0
6798 1140.260009765625 0.0
6799 1140.410034179688 0.0
6800 1140.7099609375 0.0
6801 1140.760009765625 0.0
6802 1140.680053710938 0.0
6803 1140.969970703125 0.0
6804 1141.079956054688 0.0
6805 1141.199951171875 0.0
6806 1141.22998046875 0.0
6807 1141.430053710938 0.0
6808 1141.420043945312 0.0
6809 1141.359985351562 0.0
6810 1141.359985351562 0.0
6811 1143.780029296875 0.1163137931034483
6812 1145.510009765625 0.0216820987654321
6813 1144.97998046875 0.03125
6814 1144.4599609375 0.02361111111111111
6815 1144.109985351562 0.006790123456790123
6816 1156.050048828125 0.004166666666666667
6817 1155.900024414062 0.01589506172839506
6818 1155.68994140625 0.01898148148148148
6819 1155.449951171875 0.02854938271604938
6820 1155.239990234375 0.02029320987654321
6821 1154.739990234375 0.03541666666666667
6822 1154.449951171875 0.009645061728395061
6823 1154.199951171875 0.01898148148148148
6824 1153.930053710938 0.01481481481481482
6825 1153.680053710938 0.02862654320987654
6826 1153.150024414062 0.02721836419753087
6827 1153.150024414062 0.006172839506172839
6828 1153.140014648438 0.1322088548318434
6829 1152.68994140625 0.01165123456790123
6830 1152.22998046875 0.04683641975308642
6831 1151.599975585938 0.2981368454661558
6832 1151.2099609375 0.1380730523627076
6833 1151.0 0.02299382716049383
6834 1150.800048828125 0.02399691358024691
6835 1150.369995117188 0.08557098765432099
6836 1149.93994140625 0.06527777777777777
6837 1149.719970703125 0.01820987654320988
6838 1149.089965820312 0.132054533844189
6839 1149.150024414062 0.02469135802469136
6840 1149.119995117188 0.1437057684120903
6841 1149.130004882812 0.01010802469135802
6842 1148.569946289062 0.07554012345679012
6843 1148.5 0.02908950617283951
6844 1143.780029296875 0.0
6845 1143.72998046875 0.03225308641975309
6846 1132.109985351562 0.007561728395061728
6847 1132.109985351562 0.0
6848 1132.109985351562 0.0
6849 1132.109985351562 0.0
6850 1131.910034179688 0.0
6851 1131.910034179688 0.0
6852 1131.7099609375 0.0
6853 1130.7900390625 0.0
6854 1142.079956054688 0.0
6855 1142.079956054688 0.0
6856 1141.760009765625 0.005478395061728395
6857 1147.130004882812 0.005324074074074074
6858 1146.599975585938 0.01998456790123457
6859 1146.2099609375 0.02106481481481481
6860 1145.640014648438 0.01419753086419753
6861 1145.369995117188 0.009645061728395063
6862 1144.920043945312 0.005246913580246914
6863 1144.75 0.006095679012345679
6864 1144.579956054688 0.008564814814814815
6865 1144.380004882812 0.01388888888888889
6866 1144.0400390625 0.005941358024691357
6867 1143.839965820312 0.008564814814814813
6868 1143.52001953125 0.01072530864197531
6869 1143.5400390625 0.04390432098765432
6870 1143.2900390625 0.02060185185185185
6871 1143.260009765625 0.01141975308641975
6872 1143.239990234375 0.02222222222222222
6873 1142.989990234375 0.0158179012345679
6874 1142.910034179688 0.008179012345679013
6875 1142.609985351562 0.00162037037037037
6876 1142.469970703125 0.01373456790123457
6877 1142.130004882812 0.01203703703703704
6878 1141.890014648438 0.01558641975308642
6879 1141.630004882812 0.01597222222222222
6880 1147.880004882812 0.0
6881 1147.510009765625 0.003626543209876544
6882 1147.170043945312 0.03626543209876543
6883 1146.619995117188 0.01774691358024691
6884 1146.599975585938 0.1383816943380162
6885 1146.0400390625 0.01489197530864197
6886 1145.699951171875 0.01450617283950617
6887 1145.160034179688 0.0220164609053498
6888 1144.880004882812 0.02646604938271605
6889 1144.56005859375 0.03395061728395062
6890 1144.430053710938 0.00949074074074074
6891 1144.180053710938 0.01049382716049383
6892 1144.280029296875 0.01473765432098766
6893 1144.27001953125 0.02708333333333333
6894 1144.079956054688 0.02700617283950617
6895 1144.030029296875 0.01219135802469136
6896 1143.75 0.02955246913580247
6897 1143.650024414062 0.1269619412515964
6898 1143.339965820312 0.01697530864197531
6899 1143.150024414062 0.01327160493827161
6900 1143.130004882812 0.01697530864197531
6901 1142.72998046875 0.02067901234567901
6902 1142.47998046875 0.1403107066836952
6903 1142.0400390625 0.005632716049382716
6904 1141.75 0.008333333333333333
6905 1148.640014648438 0.000308641975308642
6906 1137.430053710938 0.0
6907 1137.7099609375 0.0
6908 1137.530029296875 0.0
6909 1136.989990234375 0.0
6910 1138.02001953125 0.005709876543209876
6911 1137.849975585938 0.0
6912 1137.670043945312 0.0
6913 1138.410034179688 0.0
6914 1138.869995117188 0.0
6915 1138.859985351562 0.0
6916 1138.640014648438 0.0
6917 1139.839965820312 0.0
6918 1139.18994140625 0.0
6919 1140.0 0.001080246913580247
6920 1144.449951171875 0.00308641975308642
6921 1144.449951171875 0.004475308641975309
6922 1144.2099609375 0.01867283950617284
6923 1144.150024414062 0.03009259259259259
6924 1143.369995117188 0.01265432098765432
6925 1143.339965820312 0.02337962962962963
6926 1143.0 0.1420853980417199
6927 1142.680053710938 0.01983024691358025
6928 1142.47998046875 0.03348765432098765
6929 1142.180053710938 0.01473765432098765
6930 1142.0 0.04629629629629629
6931 1141.680053710938 0.06450617283950617
6932 1141.339965820312 0.01604938271604938
6933 1141.280029296875 0.01157407407407407
6934 1140.93994140625 0.01419753086419753
6935 1140.599975585938 0.02160493827160494
6936 1140.280029296875 0.007098765432098765
6937 1139.9599609375 0.02885802469135802
6938 1139.5 0.005169753086419753
6939 1142.510009765625 0.008796296296296295
6940 1142.319946289062 0.01859567901234568
6941 1142.140014648438 0.02114197530864198
6942 1141.969970703125 0.03271604938271605
6943 1141.660034179688 0.02145061728395062
6944 1141.469970703125 0.02146990740740741
6945 1141.300048828125 0.02353395061728395
6946 1141.140014648438 0.145480459770115
6947 1140.930053710938 0.02700617283950617
6948 1140.579956054688 0.004089506172839506
6949 1140.339965820312 0.01257716049382716
6950 1143.160034179688 0.1201203774655882
6951 1119.150024414062 0.01527777777777778
6952 1119.150024414062 0.0
6953 1123.630004882812 0.0
6954 1121.949951171875 0.0
6955 1116.4599609375 0.0
6956 1164.449951171875 0.0
6957 1164.239990234375 0.02175925925925926
6958 1163.369995117188 0.0470679012345679
6959 1162.829956054688 0.03055555555555556
6960 1162.31005859375 0.07700617283950617
6961 1161.619995117188 0.05941358024691358
6962 1160.75 0.1653107066836952
6963 1159.800048828125 0.1294310770540656
6964 1166.300048828125 0.0
6965 1154.849975585938 0.04128086419753087
6966 1155.760009765625 0.0
6967 1156.829956054688 0.0128858024691358
6968 1155.989990234375 0.0
6969 1157.300048828125 0.03171296296296296
6970 1157.77001953125 0.02600308641975309
6971 1158.589965820312 0.04799382716049383
6972 1160.640014648438 0.01566358024691358
6973 1160.920043945312 0.01234567901234568
6974 1160.089965820312 0.005889917695473251
6975 1159.589965820312 0.02723765432098765
6976 1159.18994140625 0.008950617283950617
6977 1163.219970703125 0.007098765432098766
6978 1162.699951171875 0.03989197530864198
6979 1162.119995117188 0.06141975308641975
6980 1161.359985351562 0.0415895061728395
6981 1161.339965820312 0.008950617283950617
6982 1161.099975585938 0.005015432098765432
6983 1174.260009765625 0.01165123456790123
6984 1173.880004882812 0.02013888888888889
6985 1173.369995117188 0.02098765432098765
6986 1172.859985351562 0.03850308641975309
6987 1172.2099609375 0.03070987654320988
6988 1171.52001953125 0.03966049382716049
6989 1170.780029296875 0.006481481481481482
6990 1170.609985351562 0.01813271604938271
6991 1170.2099609375 0.01095679012345679
6992 1170.0400390625 0.01365740740740741
6993 1169.800048828125 0.02955246913580247
6994 1169.239990234375 0.03125
6995 1168.930053710938 0.01435185185185185
6996 1168.380004882812 0.01265432098765432
6997 1167.77001953125 0.07486496913580247
6998 1166.180053710938 0.02947530864197531
6999 1165.400024414062 0.03526234567901235
7000 1164.72998046875 0.01844135802469136
7001 1166.119995117188 0.0
7002 1165.25 0.004706790123456791
7003 1156.170043945312 0.06579861111111111
7004 1155.780029296875 0.01774691358024691
7005 1166.050048828125 0.1370699659429545
7006 1165.469970703125 0.08726851851851852
7007 1164.579956054688 0.03487654320987654
7008 1159.25 0.05787037037037037
7009 1159.119995117188 0.02523148148148148
7010 1158.839965820312 0.0441358024691358
7011 1159.069946289062 0.05625
7012 1160.630004882812 0.007175925925925926
7013 1114.569946289062 0.0
7014 1115.0 0.0
7015 1115.0 0.0
7016 1114.319946289062 0.0
7017 1145.280029296875 0.05439814814814815
7018 1144.150024414062 0.4074909979423868
7019 1141.569946289062 0.02908950617283951
7020 1141.069946289062 0.0
7021 1140.599975585938 0.005015432098765432
7022 1140.170043945312 0.0
7023 1138.180053710938 0.1148148148148148
7024 1142.31005859375 0.2431985738612176
7025 1141.829956054688 0.02044753086419753
7026 1149.800048828125 0.01157407407407407
7027 1150.150024414062 0.0125
7028 1148.099975585938 0.04421296296296296
7029 1147.5400390625 0.003266460905349795
7030 1147.109985351562 0.02631172839506173
7031 1146.069946289062 0.06041666666666667
7032 1149.640014648438 0.03215020576131687
7033 1149.27001953125 0.006635802469135802
7034 1026.900024414062 0.0
7035 1016.630004882812 0.0
7036 1023.340026855469 0.0
7037 1149.27001953125 0.006018518518518519
7038 1149.27001953125 0.0
7039 1149.27001953125 0.0
7040 1149.27001953125 0.01589506172839506
7041 1149.530029296875 0.0
7042 1149.800048828125 0.008256172839506174
7043 1149.800048828125 0.0
7044 1149.800048828125 0.0
7045 1149.800048828125 0.002006172839506173
7046 1051.52001953125 0.0
7047 1051.410034179688 0.0
7048 1050.670043945312 0.0
7049 1052.56005859375 0.0
7050 1052.56005859375 0.0
7051 1052.56005859375 0.0
7052 1049.260009765625 0.0
7053 1050.079956054688 0.0
7054 1052.369995117188 0.0
7055 1053.880004882812 0.0
7056 1054.630004882812 0.0
7057 1046.819946289062 0.0
7058 1048.349975585938 0.0
7059 1112.4599609375 0.0
7060 1133.489990234375 0.0
7061 1126.47998046875 0.0
7062 1123.609985351562 0.1449403363133248
7063 1124.56005859375 0.02268518518518519
7064 1149.969970703125 0.0283179012345679
7065 1138.349975585938 0.01473765432098765
7066 1135.640014648438 0.0007716049382716049
7067 1140.22998046875 0.03927469135802469
7068 1132.5400390625 0.01165123456790123
7069 1132.489990234375 0.02484567901234568
7070 1134.109985351562 0.004629629629629629
7071 1134.9599609375 0.02175925925925926
7072 1135.25 0.01342592592592593
7073 1136.0 0.02214506172839506
7074 1123.5400390625 0.0
7075 1138.780029296875 0.0
7076 1138.780029296875 0.0
7077 1138.300048828125 0.0
7078 1127.7099609375 0.005555555555555556
7079 1134.239990234375 0.01751543209876543
7080 1131.719970703125 0.0
7081 1141.359985351562 0.0
7082 1141.680053710938 0.0
7083 1141.97998046875 0.08310185185185186
7084 1142.2099609375 0.01628086419753087
7085 1143.239990234375 0.02029320987654321
7086 1144.4599609375 0.1163137931034483
7087 1116.119995117188 0.0
7088 1115.489990234375 0.0
7089 1115.0 0.01388888888888889
7090 1132.900024414062 0.001003086419753086
7091 1132.739990234375 0.004861111111111111
7092 1132.0 0.0
7093 1115.619995117188 0.0
7094 1115.2900390625 0.0
7095 1115.0 0.0
7096 1115.0 0.0
7097 1172.160034179688 0.1022762345679012
7098 1170.569946289062 0.1918539165602384
7099 1168.97998046875 0.0412037037037037
7100 1179.410034179688 0.0
7101 1178.5 0.1298168795232014
7102 1177.530029296875 0.02654320987654321
7103 1176.859985351562 0.004166666666666667
7104 1052.56005859375 0.0
7105 1163.030029296875 0.01149691358024691
7106 1162.5 0.00779320987654321
7107 1161.9599609375 0.0103395061728395
7108 1161.640014648438 0.004861111111111111
7109 1161.099975585938 0.01558641975308642
7110 1160.56005859375 0.0091820987654321
7111 1160.030029296875 0.03333333333333333
7112 1159.52001953125 0.0150462962962963
7113 1158.849975585938 0.0
7114 1135.0 0.0
7115 1135.0 0.1247242869306088
7116 1134.489990234375 0.05054012345679012
7117 1131.77001953125 0.4225710018447567
7118 1129.010009765625 0.01859567901234568
7119 1125.77001953125 0.01003086419753086
7120 1125.739990234375 0.01558641975308642
7121 1124.569946289062 0.01604938271604938
7122 1159.640014648438 0.01759259259259259
7123 1159.22998046875 0.01550925925925926
7124 1158.72998046875 0.03325617283950617
7125 1158.02001953125 0.02476851851851852
7126 1157.449951171875 0.01604938271604938
7127 1170.72998046875 0.005401234567901235
7128 1170.72998046875 0.004629629629629629
7129 1077.449951171875 0.1451388888888889
7130 1077.449951171875 0.0
7131 1076.319946289062 0.1152006172839506
7132 1064.219970703125 0.1876872498935717
7133 1090.180053710938 0.0
7134 1090.469970703125 0.0
7135 1090.68994140625 0.0
7136 1139.699951171875 0.0
7137 1139.670043945312 0.0
7138 1139.670043945312 0.01620370370370371
7139 1124.9599609375 0.0
7140 1124.9599609375 0.00771604938271605
7141 1108.900024414062 0.0
7142 1113.819946289062 0.0
7143 1106.949951171875 0.0
7144 1123.31005859375 0.02608024691358025
7145 1091.359985351562 0.6008487654320988
7146 1120.880004882812 0.009876543209876543
7147 1121.43994140625 0.002623456790123457
7148 1126.800048828125 0.2490627713920818
7149 1107.68994140625 0.0
7150 1121.880004882812 0.01180555555555556
7151 1111.910034179688 0.0
7152 1111.910034179688 0.01365740740740741
7153 1109.22998046875 0.0621141975308642
7154 1110.0 0.004938271604938272
7155 1108.119995117188 0.0
7156 1066.569946289062 0.0
7157 1066.569946289062 0.0
7158 1126.180053710938 0.01265432098765432
7159 1129.140014648438 0.2369742940258266
7160 1129.7099609375 0.03888888888888889
7161 1156.199951171875 0.02114197530864197
7162 1116.900024414062 0.0
7163 1117.77001953125 0.0
7164 1118.319946289062 0.0
7165 1118.47998046875 0.0
7166 1118.56005859375 0.0
7167 1118.400024414062 0.0
7168 1118.630004882812 0.0
7169 1118.050048828125 0.0
7170 1117.900024414062 0.0
7171 1117.7900390625 0.0
7172 1117.699951171875 0.0
7173 1117.599975585938 0.0
7174 1117.420043945312 0.0
7175 1117.0400390625 0.0
7176 1116.890014648438 0.0
7177 1116.140014648438 0.0
7178 1115.680053710938 0.0
7179 1114.989990234375 0.0
7180 1114.680053710938 0.0
7181 1114.319946289062 0.0
7182 1113.859985351562 0.0
7183 1111.739990234375 0.0
7184 1146.0400390625 0.000462962962962963
7185 1142.530029296875 0.01635802469135803
7186 1142.869995117188 0.1835398733503619
7187 1138.880004882812 0.0
7188 1156.5 0.01126543209876543
7191 1115.27001953125 0.0
7192 1114.660034179688 0.0
7193 1114.0400390625 0.0
7194 1112.5 0.0
7195 1111.849975585938 0.0
7196 1111.150024414062 0.0
7197 1110.670043945312 0.0
7198 1110.18994140625 0.0
7199 1110.0 0.0
7200 1109.239990234375 0.0
7201 1108.7900390625 0.0
7202 1107.630004882812 0.0
7203 1106.75 0.0
7204 1106.0 0.0
7205 1105.640014648438 0.0
7206 1105.5 0.0
7207 1104.630004882812 0.0
7208 1103.510009765625 0.0
7209 1102.619995117188 0.0
7210 1101.449951171875 0.0
7211 1100.739990234375 0.0
7212 1100.2099609375 0.0
7213 1099.97998046875 0.0
7214 1099.170043945312 0.0
7215 1098.77001953125 0.0
7216 1098.260009765625 0.0
7217 1065.599975585938 0.0
7218 1160.359985351562 0.0
7220 1042.280029296875 0.0
7221 1042.280029296875 0.0
7222 1041.180053710938 0.0
7223 1039.369995117188 0.0
7224 1038.06005859375 0.0
7225 1037.469970703125 0.0
7226 1034.910034179688 0.0
7227 1033.640014648438 0.0
7228 1033.150024414062 0.0
7229 1031.699951171875 0.0
7230 1030.0 0.0
7231 1028.609985351562 0.0
7232 1027.109985351562 0.0
7233 1026.359985351562 0.0
7234 1026.180053710938 0.0
7235 1026.7099609375 0.0
7236 1027.5 0.0
7237 1028.5 0.0
7238 1115.0 0.0
7239 1102.380004882812 0.0
7240 1069.430053710938 0.0
7241 1115.050048828125 0.0
7242 1114.660034179688 0.0
7243 1090.180053710938 0.0
7244 1120.880004882812 0.0
7245 1115.0 0.0
7246 1108.900024414062 0.009645061728395061
7247 1111.239990234375 0.1720236696466582
7248 1117.0400390625 0.01358024691358025
7249 1106.949951171875 0.1178570029799915
7251 1114.780029296875 0.2080576202639421
7252 1061.300048828125 0.04112654320987654
7253 1061.06005859375 0.0
7254 1090.430053710938 0.03410493827160494
7255 1090.430053710938 0.004475308641975309
7256 1079.859985351562 0.1131172839506173
7257 1074.069946289062 0.04274691358024691
7258 1090.349975585938 0.01473765432098765
7259 1089.359985351562 0.0
7260 1060.109985351562 0.0
7262 1124.140014648438 0.0
7263 1128.849975585938 0.0
7264 1143.069946289062 0.0
7265 1144.280029296875 0.0
7266 1143.25 0.0
7267 1086.56005859375 0.0
7275 1097.31005859375 0.0
7276 1097.640014648438 0.0
7277 1097.52001953125 0.0
7278 1097.72998046875 0.0
7279 1097.550048828125 0.0
7280 1096.72998046875 0.0
7281 1096.72998046875 0.0
7282 1096.260009765625 0.0
7283 1095.650024414062 0.0
7284 1095.300048828125 0.0
7285 1095.530029296875 0.0
7286 1095.930053710938 0.0
7287 1096.219970703125 0.0
7288 1096.31005859375 0.0
7289 1096.400024414062 0.0
7290 1096.380004882812 0.0
7291 1095.77001953125 0.0
7292 1095.75 0.0
7293 1096.300048828125 0.0
7294 1096.150024414062 0.0
7296 1115.0 0.0
7297 1130.469970703125 0.0
7298 1130.469970703125 0.0
7299 1164.170043945312 0.002160493827160494
7300 1164.5400390625 0.02075617283950617
7301 1165.359985351562 0.0412037037037037
7302 1166.0 0.03518518518518519
7303 1166.47998046875 0.02484567901234568
7304 1166.9599609375 0.009259259259259259
7305 1167.380004882812 0.02731481481481481
7306 1167.859985351562 0.0216820987654321
7307 1168.5 0.01736111111111111
7308 1168.969970703125 0.0162037037037037
7309 1094.530029296875 0.0
7310 1095.0 0.01057098765432099
7311 1097.569946289062 0.01041666666666667
7312 1099.02001953125 0.01975308641975309
7313 1100.0 0.00308641975308642
7314 1100.75 0.0
7315 1102.119995117188 0.006712962962962963
7316 1103.510009765625 0.004243827160493827
7317 1104.670043945312 0.0
7318 1105.640014648438 0.007716049382716049
7319 1106.839965820312 0.0117283950617284
7320 1107.900024414062 0.0
7321 1109.079956054688 0.0
7322 1110.2900390625 0.0132716049382716
7323 1111.400024414062 0.003395061728395062
7324 1113.239990234375 0.0
7325 1114.530029296875 0.0121141975308642
7326 1115.7900390625 0.0
7327 1113.239990234375 0.0
7328 1112.260009765625 0.0
7329 1111.369995117188 0.003935185185185185
7330 1110.410034179688 0.01311728395061728
7331 1109.420043945312 0.007175925925925926
7332 1108.319946289062 0.01057098765432099
7333 1107.22998046875 0.0
7334 1105.930053710938 0.008796296296296297
7335 1105.0 0.01157407407407407
7336 1103.819946289062 0.005709876543209876
7337 1102.800048828125 0.1167767560664112
7338 1101.4599609375 0.0
7339 1100.109985351562 0.00949074074074074
7340 1099.589965820312 0.01103395061728395
7341 1097.849975585938 0.002160493827160494
7342 1095.880004882812 0.003858024691358024
7343 1115.0 0.00154320987654321
7344 1114.150024414062 0.006172839506172839
7345 1113.119995117188 0.006558641975308642
7346 1111.930053710938 0.01466049382716049
7347 1110.859985351562 0.008950617283950617
7348 1110.0 0.001697530864197531
7349 1109.140014648438 0.007175925925925926
7350 1108.180053710938 0.003858024691358024
7351 1107.079956054688 0.01905864197530864
7352 1105.97998046875 0.01566358024691358
7353 1105.0 0.0
7354 1104.2099609375 0.0
7355 1103.109985351562 0.004552469135802469
7356 1102.2099609375 0.008564814814814815
7357 1100.650024414062 0.0
7358 1100.0400390625 0.0
7359 1100.0 0.0
7360 1100.0 0.005787037037037037
7361 1099.849975585938 0.005324074074074074
7362 1099.599975585938 0.0
7363 1151.75 0.1325946573009792
7364 1130.0 0.0
7365 1130.0 0.0
7366 1130.0 0.0
7367 1129.930053710938 0.0
7368 1130.0 0.0
7369 1130.0 0.0
7370 1130.0 0.0
7371 1096.510009765625 0.0
7372 1095.819946289062 0.0
7373 1095.550048828125 0.0
7374 1092.109985351562 0.0
7375 1091.849975585938 0.0
7376 1091.800048828125 0.0
7377 1091.77001953125 0.0
7378 1091.640014648438 0.0
7379 1091.650024414062 0.0
7380 1091.68994140625 0.0
7381 1091.68994140625 0.0
7382 1091.52001953125 0.0
7383 1092.109985351562 0.0
7384 1095.0 0.0
7385 1094.869995117188 0.0
7386 1094.119995117188 0.0
7387 1093.640014648438 0.0
7388 1093.030029296875 0.0
7389 1092.410034179688 0.0
7390 1092.2099609375 0.0
7391 1132.170043945312 0.0
7392 1131.719970703125 0.0
7393 1131.2900390625 0.0
7394 1130.699951171875 0.0
7395 1130.420043945312 0.0
7396 1130.530029296875 0.0
7397 1130.530029296875 0.0
7398 1130.300048828125 0.0
7399 1130.430053710938 0.0
7400 1130.0 0.0
7401 1130.0 0.0
7402 1130.0 0.0
7403 1130.0 0.0
7404 1130.0 0.0
7405 1130.0 0.0
7409 1155.0 0.0
7410 1161.910034179688 0.0
7411 1162.0400390625 0.0
7464 1133.489990234375 0.0
7465 1133.489990234375 0.0
7466 1133.489990234375 0.0
7467 1133.619995117188 0.0
7468 1133.619995117188 0.1163137931034483
7469 1121.839965820312 0.0
7470 1121.839965820312 0.0
7512 1162.800048828125 0.0
7513 1162.800048828125 0.0
7514 1105.410034179688 0.007407407407407407
7515 1105.410034179688 0.0
7516 1137.640014648438 0.05632716049382716
7517 1163.52001953125 0.0
7518 1162.670043945312 0.0
7519 1113.670043945312 0.0
7520 1113.670043945312 0.0
7521 1113.670043945312 0.0
7522 1113.949951171875 0.0
7523 1160.140014648438 0.0
7524 1113.089965820312 0.03649691358024691
7525 1117.2099609375 0.0
7526 1117.2099609375 0.0
7527 1117.239990234375 0.0
7528 1125.0 0.0
7529 1143.050048828125 0.0
7530 1143.050048828125 0.0
7531 1143.050048828125 0.0
7532 1160.219970703125 0.0
7533 1160.890014648438 0.0
7534 1160.890014648438 0.0
7535 1156.27001953125 0.02623456790123457
7536 1156.569946289062 0.03001543209876543
7537 1156.880004882812 0.1357067972186746
7538 1157.300048828125 0.2756502128565347
7539 1157.829956054688 0.0765432098765432
7540 1158.0 0.2641975308641975
7541 1158.18994140625 0.1450946573009791
7542 1158.619995117188 0.1403878671775224
7543 1158.859985351562 0.000308641975308642
7590 1160.359985351562 0.0
7591 1160.359985351562 0.0
7607 1134.869995117188 0.0091820987654321
7608 1118.180053710938 0.0
7609 1110.369995117188 0.0
7610 1140.670043945312 0.02546296296296296
7612 1115.949951171875 0.0
7613 1131.780029296875 0.0
7614 1132.02001953125 0.0
7615 1132.599975585938 0.0
7616 1132.2900390625 0.0
7617 1160.550048828125 0.01072530864197531
7618 1066.819946289062 0.0
7619 1113.9599609375 0.0
7620 1113.9599609375 0.0
7621 1015.359985351562 0.0
7622 1162.72998046875 0.0
7623 1042.280029296875 0.0
7624 1166.22998046875 0.0
7625 1166.22998046875 0.0
7626 1166.22998046875 0.0
7627 1148.650024414062 0.1207119412515964
7628 1148.180053710938 0.008487654320987654
7629 1147.800048828125 0.03209876543209877
7630 1147.280029296875 0.02770061728395062
7631 1146.530029296875 0.02808641975308642
7632 1145.969970703125 0.01296296296296296
7633 1145.410034179688 0.0
7634 1145.410034179688 0.0
7635 1147.68994140625 0.01118827160493827
7636 1147.079956054688 0.008796296296296297
7637 1146.640014648438 0.01743827160493827
7638 1146.400024414062 0.02762345679012346
7639 1145.630004882812 0.02716049382716049
7640 1145.349975585938 0.01435185185185185
7641 1145.410034179688 0.0
7642 1145.0 0.0
7643 1143.0 0.0
7644 1144.010009765625 0.0
7645 1144.680053710938 0.0
7646 1145.0 0.0
7647 1145.0 0.0
7648 1145.0 0.0
7649 1145.0 0.0
7650 1145.199951171875 0.0
7651 1145.670043945312 0.0
7652 1145.02001953125 0.0
7653 1144.97998046875 0.0
7654 1145.400024414062 0.009722222222222222
7655 1145.329956054688 0.0
7656 1145.18994140625 0.0
7657 1145.02001953125 0.0
7658 1145.02001953125 0.0
7659 1065.599975585938 0.0
7660 1090.739990234375 0.0
7698 1105.170043945312 0.0
7699 1106.300048828125 0.0
7700 1104.630004882812 0.0
7701 1104.97998046875 0.0
7702 1104.780029296875 0.0
7703 1104.839965820312 0.0
7704 1115.900024414062 0.0
7705 1121.880004882812 0.0
7706 1122.81005859375 0.0
7707 1115.410034179688 0.0
7708 1114.5400390625 0.0
7709 1113.9599609375 0.0
7710 1113.569946289062 0.0
7711 1112.619995117188 0.0
7712 1112.010009765625 0.0
7713 1111.410034179688 0.0
7714 1107.4599609375 0.6250771604938271
7715 1111.010009765625 0.0
7716 1111.010009765625 0.0
7717 1111.010009765625 0.0
7718 1113.369995117188 0.0
7719 1111.719970703125 0.0
7720 1111.719970703125 0.0
7721 1114.7099609375 0.0
7722 1114.7099609375 0.0
7723 1115.609985351562 0.0
7724 1116.099975585938 0.0
7725 1116.099975585938 0.0
7726 1115.609985351562 0.7556327160493826
7727 1121.780029296875 0.0
7728 1131.75 0.0
7729 1123.7099609375 0.0
7730 1121.099975585938 0.0
7731 1121.099975585938 0.0
7732 1117.680053710938 0.0
7733 1114.329956054688 0.0
7734 1120.52001953125 0.0
7735 1120.910034179688 1.429166666666667
7736 1121.099975585938 0.0
7737 1113.68994140625 0.0
7738 1122.680053710938 0.0
7739 1120.109985351562 0.0
7740 1124.2099609375 0.0
7741 1119.489990234375 3.386651234567901
7742 1120.910034179688 0.0
7743 1120.910034179688 0.0
7744 1122.949951171875 0.0
7745 1113.68994140625 0.0
7746 1113.68994140625 0.0
7747 1114.660034179688 0.0
7748 1111.890014648438 0.0
7749 1144.31005859375 0.0
7750 1122.97998046875 0.0
7751 1126.349975585938 0.0
7752 1126.579956054688 0.0
7753 1126.579956054688 0.0
7754 1123.25 0.0
7755 1123.25 0.0
7756 1125.400024414062 0.0
7757 1126.349975585938 0.0
7758 1122.31005859375 0.0
7759 1129.719970703125 0.0
7760 1122.2099609375 0.0
7761 1122.2099609375 0.0
7762 1122.2099609375 0.0
7763 1120.619995117188 0.0
7764 1122.31005859375 0.0
7765 1121.719970703125 0.0
7766 1120.969970703125 0.0
7767 1121.2900390625 0.0
7768 1130.589965820312 0.0
7769 1129.839965820312 0.0
7770 1127.31005859375 0.0
7771 1127.31005859375 0.0
7772 1127.089965820312 0.0
7773 1130.989990234375 0.0
7774 1131.75 0.0
7775 1130.989990234375 0.0
7776 1149.420043945312 0.0
7777 1122.97998046875 0.0
7778 1141.47998046875 1.402546296296296
7779 1130.619995117188 0.0
7780 1142.069946289062 0.0
7781 1140.7099609375 0.0
7782 1136.0 0.0
7783 1135.109985351562 0.0
7784 1129.839965820312 0.0
7785 1131.5 0.0
7786 1140.7099609375 0.0
7787 1136.0 0.0
7788 1134.239990234375 0.0
7789 1140.449951171875 0.0
7790 1139.56005859375 0.0
7791 1139.910034179688 0.0
7792 1142.359985351562 0.0
7793 1143.150024414062 0.0
7794 1142.359985351562 0.0
7795 1127.5400390625 1.503086419753086
7796 1129.300048828125 0.7435185185185185
7797 1128.329956054688 0.005748456790123457
7798 1128.329956054688 0.0
7799 1144.31005859375 0.0
7800 1131.75 0.0
7801 1155.9599609375 0.0
7802 1155.869995117188 0.0
7803 1151.530029296875 0.0
7804 1151.2900390625 0.0
7805 1151.2900390625 0.0
7806 1151.089965820312 0.0
7807 1150.829956054688 0.0
7808 1150.77001953125 0.0
7809 1150.569946289062 0.0
7810 1150.2099609375 0.0
7811 1150.160034179688 0.0
7812 1149.849975585938 0.0
7813 1149.849975585938 0.0
7814 1150.160034179688 0.0
7815 1150.160034179688 0.0
7816 1150.430053710938 0.0
7817 1150.510009765625 0.0
7818 1150.77001953125 0.0
7819 1150.77001953125 0.0
7820 1150.800048828125 0.0
7821 1152.5400390625 0.0
7822 1152.930053710938 0.0
7823 1154.079956054688 0.0
7824 1155.680053710938 0.0
7825 1150.800048828125 0.0
7826 1149.849975585938 0.0
7827 1146.5 0.0
7828 1152.5400390625 0.0
7829 1150.630004882812 0.0
7830 1150.390014648438 0.0
7831 1149.81005859375 0.0
7832 1151.599975585938 0.0
7833 1156.140014648438 0.0
7834 1155.219970703125 0.0
7835 1151.599975585938 0.0
7836 1151.099975585938 0.0
7837 1150.630004882812 0.0
7838 1150.140014648438 0.0
7839 1150.329956054688 0.0
7840 1150.329956054688 0.0
7841 1142.660034179688 0.0
7842 1142.660034179688 0.0
7843 1142.660034179688 0.0
7844 1150.329956054688 0.0
7845 1150.699951171875 0.0
7846 1152.719970703125 0.0
7847 1154.079956054688 0.0
7848 1155.680053710938 0.0
7849 1155.680053710938 0.0
7850 1153.97998046875 0.0
7851 1155.140014648438 0.0
7852 1155.81005859375 0.0
7853 1155.81005859375 0.0
7854 1155.219970703125 0.0
7855 1155.219970703125 0.0
7856 1154.800048828125 0.0
7857 1140.93994140625 0.0
7858 1140.640014648438 0.0
7859 1140.640014648438 0.0
7860 1141.56005859375 0.0
7861 1142.630004882812 0.0
7862 1145.0400390625 0.0
7863 1141.280029296875 0.0
7864 1145.800048828125 0.0
7865 1146.180053710938 0.0
7866 1155.890014648438 0.0
7867 1145.079956054688 0.0
7868 1145.079956054688 0.0
7869 1141.030029296875 0.0
7870 1134.079956054688 0.0
7871 1133.530029296875 0.0
7872 1134.4599609375 0.0
7873 1142.160034179688 0.0
7874 1141.469970703125 0.0
7875 1144.81005859375 0.0
7876 1141.239990234375 0.0
7877 1141.160034179688 0.0
7878 1141.239990234375 0.0
7879 1140.550048828125 0.0
7880 1140.079956054688 0.0
7881 1137.130004882812 0.0
7882 1134.079956054688 0.0
7883 1133.550048828125 0.0
7884 1132.780029296875 0.0
7885 1129.599975585938 0.0
7886 1124.780029296875 0.0
7887 1137.93994140625 0.0
7888 1137.390014648438 0.0
7889 1128.599975585938 0.0
7890 1133.280029296875 0.0
7891 1133.530029296875 0.0
7892 1126.170043945312 0.0
7893 1135.43994140625 0.0
7894 1133.0400390625 0.0
7895 1124.319946289062 1.089737654320988
7896 1128.56005859375 0.0
7897 1132.0 0.0
7898 1131.849975585938 0.0
7899 1134.400024414062 0.0
7900 1133.890014648438 0.0
7901 1128.969970703125 0.0
7902 1128.75 0.0
7903 1128.75 0.760570987654321
7904 1132.140014648438 3.670370370370371
7905 1132.140014648438 0.02716049382716049
7906 1141.199951171875 0.0
7907 1140.530029296875 0.0
7908 1140.300048828125 2.839506172839506
7909 1141.199951171875 1.419135802469136
7910 1141.52001953125 0.0
7911 1141.52001953125 0.0
7912 1131.420043945312 0.0
7913 1140.300048828125 0.0
7914 1130.660034179688 0.0
7915 1140.300048828125 0.0
7916 1141.52001953125 0.0
7917 1142.160034179688 0.0
7918 1130.660034179688 0.0
7919 1140.300048828125 0.0
7920 1137.199951171875 0.0
7921 1134.650024414062 0.0
7922 1133.349975585938 0.0
7923 1132.25 0.0
7924 1132.25 0.0
7925 1139.390014648438 0.0
7926 1134.650024414062 0.0
7927 1135.260009765625 0.0
7928 1127.0 0.7667438271604938
7929 1132.699951171875 0.0
7930 1132.699951171875 0.0
7931 1132.699951171875 0.0
7932 1121.800048828125 0.685570987654321
7933 1115.069946289062 0.6614197530864198
7934 1118.0 0.0
7935 1118.0 0.6557098765432099
7936 1116.02001953125 0.0
7937 1114.599975585938 0.0
7938 1112.099975585938 0.0
7939 1120.219970703125 0.0
7940 1119.719970703125 0.0
7941 1117.5 0.0
7942 1117.699951171875 0.0
7943 1118.7900390625 0.0
7944 1120.449951171875 0.0
7945 1119.719970703125 0.0
7946 1119.719970703125 0.0
7947 1129.099975585938 0.0
7948 1141.199951171875 0.0
7949 1131.420043945312 0.0
7950 1130.099975585938 0.0
7951 1116.02001953125 0.0
7952 1122.079956054688 0.0
7953 1127.829956054688 0.0
7954 1129.099975585938 0.0
7955 1128.489990234375 0.0
7956 1128.489990234375 0.0
7957 1129.589965820312 0.0
7958 1128.5 0.6609567901234568
7959 1127.7900390625 0.0
7960 1124.22998046875 0.0
7961 1126.569946289062 0.0
7962 1124.22998046875 0.0
7963 1124.22998046875 0.0
7964 1121.25 0.0
7965 1121.109985351562 0.0
7966 1122.660034179688 0.0
7967 1122.660034179688 0.0
7968 1123.489990234375 0.0
7969 1115.380004882812 0.0
7970 1120.619995117188 0.0
7971 1120.910034179688 0.0
7972 1119.660034179688 0.0
7973 1120.119995117188 0.0
7974 1120.119995117188 0.0
7975 1121.430053710938 0.0
7976 1120.449951171875 0.0
7977 1120.699951171875 0.0
7978 1118.300048828125 0.0
7979 1118.300048828125 0.0
7980 1118.300048828125 0.0
7981 1117.52001953125 0.0
7982 1118.069946289062 0.0
7983 1119.530029296875 0.0
7984 1120.140014648438 0.0
7985 1116.300048828125 0.0
7986 1119.119995117188 0.0
7987 1123.260009765625 0.0
7988 1125.329956054688 0.0
7989 1125.329956054688 0.0
7990 1125.329956054688 0.0
7991 1124.569946289062 0.0
7992 1128.670043945312 0.0
7993 1127.829956054688 0.0
7994 1124.18994140625 0.0
7995 1124.18994140625 0.0
7996 1127.0 0.0
7997 1126.0400390625 0.0
7998 1111.359985351562 0.0
7999 1111.010009765625 0.0
8000 1126.0400390625 0.0
8001 1142.069946289062 0.0
8002 1122.97998046875 0.0
8003 1128.329956054688 0.0
8004 1129.050048828125 0.0
8005 1120.489990234375 0.0
8006 1111.890014648438 0.0
8007 1112.160034179688 0.0
8008 1112.760009765625 0.0
8009 1114.2900390625 0.0
8010 1140.339965820312 0.0
8011 1140.339965820312 0.008101851851851851
8012 1140.670043945312 0.1336749042145594
8013 1140.989990234375 0.04295267489711934
8014 1141.119995117188 0.0337962962962963
8015 1141.089965820312 0.03117283950617284
8016 1139.969970703125 0.0
8017 1050.719970703125 0.0
8018 1050.0 0.0
8019 1050.0 0.0
8020 1049.800048828125 0.0
8021 1157.949951171875 0.005632716049382716
8022 1157.869995117188 0.008719135802469136
8023 1159.900024414062 0.0
8024 1160.199951171875 0.0
8025 1160.18994140625 0.02191358024691358
8026 1160.160034179688 0.132054533844189
8027 1160.390014648438 0.01342592592592593
8028 1160.280029296875 0.02175925925925926
8029 1160.219970703125 0.01203703703703704
8030 1161.18994140625 0.01072530864197531
8031 1161.089965820312 0.002160493827160494
8032 1156.119995117188 0.006481481481481481
8033 1157.680053710938 0.0
8034 1159.579956054688 0.0
8035 1160.319946289062 0.0
8036 1164.599975585938 0.0
8037 1142.180053710938 0.006404320987654321
8038 1140.369995117188 0.01612654320987654
8039 1140.630004882812 0.0
8040 1144.18994140625 0.008256172839506172
8041 1143.920043945312 0.03927469135802469
8042 1143.630004882812 0.02947530864197531
8043 1143.380004882812 0.03240740740740741
8044 1142.579956054688 0.04074074074074074
8045 1141.829956054688 0.1298940400170285
8046 1143.050048828125 0.005324074074074074
8047 1142.800048828125 0.01867283950617284
8048 1142.780029296875 0.05871913580246914
8049 1141.760009765625 0.02008101851851852
8050 1141.47998046875 0.1306399247906911
8051 1141.2099609375 0.02700617283950617
8052 1140.93994140625 0.01111111111111111
8053 1140.699951171875 0.01118827160493827
8054 1140.43994140625 0.01296296296296296
8055 1141.910034179688 0.04143518518518519
8056 1141.43994140625 0.0162037037037037
8057 1141.170043945312 0.5588734567901235
8058 1141.140014648438 0.008873456790123458
8059 1140.630004882812 0.0
8060 1140.099975585938 0.03055555555555555
8061 1139.760009765625 0.007330246913580247
8062 1139.06005859375 0.01674382716049383
8063 1138.670043945312 0.1175483610046829
8064 1138.219970703125 0.0
8065 1139.22998046875 0.0
8066 1136.93994140625 0.0
8067 1136.260009765625 0.0
8068 1136.650024414062 0.0
8069 1137.109985351562 0.725925925925926
8070 1137.109985351562 0.0
8071 1136.180053710938 0.1163137931034483
8072 1135.260009765625 0.0
8073 1134.319946289062 0.0
8074 1133.760009765625 0.0
8075 1133.099975585938 0.1163137931034483
8076 1132.160034179688 0.0
8077 1131.589965820312 0.0
8078 1130.640014648438 0.0
8079 1130.349975585938 0.0
8080 1130.109985351562 0.01720679012345679
8081 1130.170043945312 0.0
8082 1130.849975585938 0.0
8083 1131.839965820312 0.01111111111111111
8084 1132.430053710938 0.02083333333333333
8085 1133.400024414062 0.0
8086 1133.400024414062 0.0
8087 1134.339965820312 0.0
8088 1134.339965820312 0.0
8089 1133.849975585938 0.0
8090 1129.900024414062 0.0
8091 1130.089965820312 0.0
8092 1130.680053710938 0.0
8093 1131.640014648438 0.0
8094 1132.2900390625 0.0
8095 1133.239990234375 0.0
8096 1133.81005859375 0.0
8097 1134.719970703125 0.0
8098 1141.77001953125 0.0
8099 1141.989990234375 0.01427469135802469
8100 1130.0 0.0
8101 1130.0 0.0
8102 1130.0 0.0
8103 1130.0 0.007638888888888889
8104 1128.849975585938 0.0
8105 1129.930053710938 0.02083333333333333
8106 1164.300048828125 0.0
8107 1164.5 0.0
8108 1164.5 0.0
8109 1164.390014648438 0.0
8110 1163.7900390625 0.0
8111 1164.18994140625 0.0
8112 1164.069946289062 0.0
8113 1174.510009765625 0.0
8114 1158.25 0.0
8115 1158.25 0.0
8116 1158.25 0.0
8117 1158.25 0.0
8118 1114.880004882812 0.007175925925925926
8119 1115.619995117188 0.004012345679012346
8120 1118.719970703125 0.0
8121 1118.719970703125 0.0
8122 1118.719970703125 0.0
8123 1118.719970703125 0.0
8124 1118.719970703125 0.0
8125 1117.900024414062 0.0
8126 1118.5 0.0
8127 1118.5 0.0
8128 1118.5 0.0
8129 1117.7099609375 0.0
8130 1117.079956054688 0.0
8131 1116.849975585938 0.0
8132 1116.849975585938 0.0
8133 1116.849975585938 0.0
8134 1117.469970703125 0.0
8135 1116.68994140625 0.0
8136 1117.469970703125 0.0
8137 1117.469970703125 0.0
8138 1117.469970703125 0.0
8139 1117.469970703125 0.0
8140 1117.900024414062 0.0
8141 1117.900024414062 0.0
8142 1117.900024414062 0.0
8143 1167.180053710938 0.0
8144 1166.900024414062 0.0
8145 1166.900024414062 0.0
8146 1166.819946289062 0.0
8147 1172.420043945312 0.0
8148 1166.02001953125 0.003317901234567901
8149 1172.420043945312 0.007561728395061728
8150 1166.22998046875 0.0
8151 1166.22998046875 0.0
8152 1166.22998046875 0.0
8153 1166.22998046875 0.0
8154 1180.0 0.02561728395061728
8155 1180.0 0.0
8156 1177.530029296875 0.0
8157 1177.890014648438 0.0
8158 1180.0 0.0
8159 1180.0 0.0
8160 1180.0 0.00625
8161 1159.150024414062 0.001157407407407407
8162 1158.2099609375 0.0
8165 1143.630004882812 0.0
8166 1143.630004882812 0.0
8167 1162.72998046875 0.0
8168 1151.81005859375 0.0
8169 1142.569946289062 0.0
8170 1143.239990234375 0.0
8171 1143.239990234375 0.0
8172 1143.300048828125 0.0
8173 1143.300048828125 0.0
8174 1130.469970703125 0.0
8175 1130.430053710938 0.01458333333333333
8176 1131.010009765625 0.0
8177 1136.449951171875 0.0
8178 1136.449951171875 0.008179012345679013
8179 1139.849975585938 0.0
8180 1139.930053710938 0.0
8181 1140.27001953125 0.0
8182 1141.719970703125 0.004629629629629629
8183 1163.869995117188 0.0
8184 1163.7900390625 0.0
8185 1162.089965820312 0.0
8186 1162.260009765625 0.0
8187 1142.75 0.0
8188 1142.930053710938 0.0
8189 1142.910034179688 0.0
8190 1142.910034179688 0.0
8191 1142.910034179688 0.0
8192 1142.910034179688 0.0
8193 1142.869995117188 0.0
8194 1142.869995117188 0.0
8195 1142.630004882812 0.0
8196 1142.869995117188 0.0
8197 1143.219970703125 0.0
8198 1143.0400390625 0.06149691358024691
8199 1143.219970703125 0.0
8200 1143.359985351562 0.01442901234567901
8201 1150.97998046875 0.0
8202 1135.900024414062 0.01334876543209877
8203 1135.900024414062 0.0
8204 1135.900024414062 0.0
8205 1135.56005859375 0.0
8206 1130.0 0.0
8207 1146.77001953125 0.004166666666666667
8208 1146.77001953125 0.0
8209 1144.22998046875 0.0
8210 1142.949951171875 0.0
8211 1140.0 0.0
8212 1137.170043945312 0.0150462962962963
8213 1136.969970703125 0.0
8214 1130.130004882812 0.0
8215 1130.0 0.0
8216 1130.0 0.0
8218 1039.719970703125 0.0
8219 1040.119995117188 0.0
8220 1015.359985351562 0.0
8221 1016.590026855469 0.0
8222 1016.590026855469 0.0
8223 1016.590026855469 0.0
8224 1143.449951171875 0.009104938271604938
8225 1017.659973144531 0.0
8226 1016.52001953125 0.0
8227 1040.089965820312 0.0
8228 1067.2900390625 0.0
8229 1098.900024414062 0.0
8230 1108.18994140625 0.0
8231 1107.9599609375 0.0
8232 1108.300048828125 0.1163137931034483
8233 1104.489990234375 0.008101851851851851
8234 1152.349975585938 0.004089506172839506
8235 1152.119995117188 0.0
8236 1152.22998046875 0.0
8237 1151.77001953125 0.0
8238 1151.619995117188 0.006404320987654321
8239 1164.75 0.005632716049382716
8240 1165.02001953125 0.008487654320987654
8241 1165.2900390625 0.0
8242 1165.359985351562 0.01226851851851852
8243 1165.589965820312 0.007098765432098766
8244 1165.609985351562 0.001466049382716049
8245 1165.609985351562 0.0
8246 1165.410034179688 0.0
8247 1165.0 0.0
8248 1165.2900390625 0.000462962962962963
8249 1165.7099609375 0.02546296296296297
8250 1166.119995117188 0.01520061728395062
8251 1166.72998046875 0.0
8252 1167.339965820312 0.0
8253 1167.77001953125 0.0
8254 1167.77001953125 0.0
8255 1168.02001953125 0.0
8256 1168.2099609375 0.0
8257 1168.449951171875 0.0
8258 1168.25 0.003009259259259259
8259 1167.640014648438 0.0
8260 1167.22998046875 0.0
8261 1167.030029296875 0.02260802469135802
8262 1166.609985351562 0.0
8263 1166.579956054688 0.02037037037037037
8264 1167.630004882812 0.0008487654320987654
8265 1167.819946289062 0.008333333333333333
8266 1168.0 0.001234567901234568
8267 1168.170043945312 0.1246471264367816
8268 1168.089965820312 0.01566358024691358
8269 1168.449951171875 0.0
8270 1168.630004882812 0.1163137931034483
8271 1168.800048828125 0.0
8272 1168.969970703125 0.0
8273 1169.130004882812 0.00162037037037037
8274 1169.089965820312 0.0
8275 1162.180053710938 0.0
8276 1161.9599609375 0.0
8277 1161.93994140625 0.0
8278 1161.680053710938 0.0
8279 1162.530029296875 0.002160493827160494
8280 1162.800048828125 0.0
8281 1161.219970703125 0.007098765432098766
8282 1161.75 0.01697530864197531
8283 1162.260009765625 0.0117283950617284
8284 1162.739990234375 0.006944444444444444
8285 1163.2099609375 0.009259259259259259
8286 1163.650024414062 0.006558641975308642
8287 1163.819946289062 0.004861111111111111
8288 1166.089965820312 0.0
8289 1166.150024414062 0.125804533844189
8290 1166.06005859375 0.01064814814814815
8291 1165.93994140625 0.002006172839506173
8292 1165.949951171875 0.0
8293 1165.949951171875 0.004398148148148148
8294 1169.359985351562 0.001388888888888889
8295 1169.319946289062 0.000308641975308642
8296 1169.5 0.0
8297 1138.780029296875 0.0
8298 1103.089965820312 0.0
8299 1168.680053710938 0.001157407407407407
8300 1168.22998046875 0.0
8301 1165.68994140625 0.0
8302 1165.239990234375 0.01535493827160494
8303 1165.050048828125 0.005941358024691357
8304 1162.170043945312 0.0
8305 1161.219970703125 0.0
8306 1108.130004882812 0.0
8307 1108.130004882812 0.0
8308 1115.949951171875 0.0
8309 1115.949951171875 0.0
8310 1028.089965820312 0.0
8311 1029.380004882812 0.0
8312 1030.31005859375 0.0
8313 1158.25 0.0
8314 1158.25 0.0
8315 1158.25 0.0
8316 1158.25 0.0
8317 1158.400024414062 0.0
8318 1158.400024414062 0.0
8319 1158.400024414062 0.0
8320 1158.400024414062 0.0
8359 1160.890014648438 0.0
8360 1113.670043945312 0.0
8361 1130.0 0.0
8362 1130.0 0.0
8363 1113.670043945312 0.0
8364 1117.900024414062 0.0
8365 1117.900024414062 0.0
8366 1130.219970703125 0.0
8367 1020.0 0.0
8368 1020.77001953125 0.0
8369 1020.059997558594 0.0
8370 1020.559997558594 0.0
8371 1014.960021972656 0.0
8374 1013.869995117188 0.0
8375 1142.930053710938 0.0
8376 1142.910034179688 0.0
8377 1142.869995117188 0.0
8378 1142.869995117188 0.0
8379 1142.869995117188 0.0
8380 1142.869995117188 0.0
8381 1011.419982910156 0.0
8383 1162.400024414062 0.0
8384 1162.400024414062 0.8946759259259259
8385 1162.609985351562 0.0
8386 1160.140014648438 0.01412037037037037
8387 1160.140014648438 0.0
8388 1142.7900390625 0.0
8389 1116.780029296875 0.0
8390 1117.25 0.0
8391 1108.130004882812 0.0
8392 1108.130004882812 0.0
8393 1115.0 0.0
8394 1115.0 0.0
8395 1115.0 0.0
8396 1137.7900390625 0.0
8397 1137.7900390625 0.0
8398 1137.7900390625 0.0
8399 1180.0 0.004938271604938272
8400 1179.530029296875 0.0
8401 1179.530029296875 0.0
8402 1180.0 0.1163137931034483
8403 1180.0 0.0
8404 1180.0 0.005709876543209877
8405 1180.0 0.007407407407407407
8406 1180.0 0.01666666666666667
8407 1180.0 0.01743827160493827
8408 1179.699951171875 0.02037037037037037
8409 1178.97998046875 0.006944444444444444
8410 1178.869995117188 0.000462962962962963
8411 1178.410034179688 0.01851851851851852
8412 1177.839965820312 0.03055555555555555
8413 1177.130004882812 0.03441358024691359
8414 1176.530029296875 0.01134259259259259
8415 1179.829956054688 0.0
8416 1179.829956054688 0.0
8417 1179.829956054688 0.0
8418 1179.829956054688 0.0
8419 1166.349975585938 0.0
8420 1163.969970703125 0.0
8421 1164.420043945312 0.0
8422 1163.5 0.008487654320987654
8423 1163.530029296875 0.0
8424 1136.430053710938 0.0
8425 1136.72998046875 0.0
8426 1158.550048828125 0.0
8427 1166.089965820312 0.0
8428 1166.089965820312 0.0
8429 1166.22998046875 0.0
8430 1166.329956054688 0.0
8431 1166.329956054688 0.0
8432 1166.329956054688 0.0
8433 1166.329956054688 0.0
8434 1142.099975585938 0.0
8435 1142.109985351562 0.0
8436 1141.680053710938 0.0
8437 1133.180053710938 0.002314814814814815
8438 1144.859985351562 0.0005401234567901234
8439 1121.949951171875 0.0
8440 1119.7099609375 0.01388888888888889
8441 1117.819946289062 0.0
8442 1162.800048828125 0.0
8443 1162.800048828125 0.0
8444 1147.430053710938 0.007716049382716049
8445 1166.739990234375 0.0
8446 1166.5400390625 0.0
8447 1167.219970703125 0.0
8448 1167.469970703125 0.0
8449 1167.739990234375 0.0
8450 1166.010009765625 0.0
8451 1166.969970703125 0.0
8452 1167.180053710938 0.0
8453 1168.449951171875 0.0
8454 1140.599975585938 0.0
8455 1140.079956054688 0.0
8456 1139.900024414062 0.0
8457 1139.900024414062 0.0
8458 1139.739990234375 0.0
8459 1139.739990234375 0.0
8460 1138.43994140625 0.0
8461 1138.18994140625 0.0
8462 1136.969970703125 0.0
8463 1137.47998046875 0.0
8464 1133.550048828125 0.009876543209876543
8465 1131.530029296875 0.0
8466 1130.989990234375 0.01705246913580247
8467 1130.47998046875 0.0
8468 1130.260009765625 0.0
8469 1130.949951171875 0.0
8470 1131.52001953125 0.0
8471 1131.52001953125 0.0
8472 1131.619995117188 0.0
8473 1131.880004882812 0.0
8474 1131.949951171875 0.0
8475 1132.140014648438 0.0
8476 1132.630004882812 0.0
8477 1132.920043945312 0.0
8478 1133.130004882812 0.0
8479 1133.410034179688 0.0
8480 1133.4599609375 0.0
8481 1133.780029296875 0.0
8482 1134.300048828125 0.0
8483 1134.829956054688 0.0
8484 1135.0 0.0
8485 1135.0 0.0
8486 1135.0 0.0
8487 1135.0 0.0
8488 1135.0 0.0
8489 1135.0 0.0
8490 1135.0 0.0
8491 1135.0 0.0
8492 1135.25 0.0
8493 1135.880004882812 0.0
8494 1136.880004882812 0.0
8495 1137.199951171875 0.0
8496 1137.300048828125 0.0
8497 1137.68994140625 0.0
8498 1137.859985351562 0.0
8499 1138.0400390625 0.0
8500 1138.550048828125 0.0
8501 1138.550048828125 0.0
8502 1139.180053710938 0.0
8503 1140.0 0.0
8504 1141.069946289062 0.0
8505 1141.069946289062 0.0
8506 1141.069946289062 0.0
8507 1141.410034179688 0.01080246913580247
8508 1141.859985351562 0.008487654320987654
8509 1142.910034179688 0.005092592592592593
8510 1144.010009765625 0.0287037037037037
8511 1145.06005859375 0.1347551511281397
8512 1145.81005859375 0.02353395061728395
8513 1146.589965820312 0.0
8514 1146.849975585938 0.0
8515 1147.109985351562 0.004938271604938272
8516 1147.449951171875 0.0
8517 1147.640014648438 0.0
8518 1148.180053710938 0.0
8519 1148.5400390625 0.0
8520 1149.099975585938 0.0
8521 1149.670043945312 0.01103395061728395
8522 1149.849975585938 0.0
8523 1150.530029296875 0.01111111111111111
8524 1151.280029296875 0.0
8525 1152.06005859375 0.006249999999999999
8526 1152.880004882812 0.0
8527 1153.849975585938 0.01589506172839506
8528 1154.7099609375 0.0
8529 1155.81005859375 0.006635802469135803
8530 1156.5 0.0
8531 1157.530029296875 0.01126543209876543
8532 1158.02001953125 0.0
8533 1159.9599609375 0.0
8534 1161.530029296875 0.0
8535 1161.75 0.0
8536 1164.2099609375 0.0
8537 1165.180053710938 0.0
8538 1165.380004882812 0.0
8539 1166.569946289062 0.0
8540 1161.989990234375 0.0
8541 1161.859985351562 0.0
8542 1161.719970703125 0.0
8543 1161.93994140625 0.0
8544 1161.969970703125 0.0
8545 1161.859985351562 0.0
8546 1161.75 0.0
8547 1161.81005859375 0.0
8548 1162.180053710938 0.0
8549 1162.489990234375 0.0
8550 1162.589965820312 0.0
8551 1163.0400390625 0.0
8552 1163.22998046875 0.0
8553 1138.400024414062 0.0
8554 1139.900024414062 0.0
8555 1140.780029296875 0.0
8556 1140.780029296875 0.0
8557 1146.849975585938 0.001080246913580247
8558 1146.97998046875 0.0125
8559 1147.109985351562 0.03171296296296296
8560 1147.449951171875 0.0
8561 1147.640014648438 0.00933641975308642
8562 1148.180053710938 0.01126543209876543
8563 1148.5400390625 0.1385802469135803
8564 1149.099975585938 0.02283950617283951
8565 1149.670043945312 0.03263888888888889
8566 1149.849975585938 0.009413580246913581
8567 1150.530029296875 0.0
8568 1151.280029296875 0.0
8569 1152.06005859375 0.02276234567901235
8570 1152.880004882812 0.06597222222222222
8571 1153.849975585938 0.02800925925925926
8572 1154.7099609375 0.01844135802469136
8573 1155.81005859375 0.02160493827160494
8574 1156.5 0.008410493827160494
8575 1157.530029296875 0.009259259259259259
8576 1158.02001953125 0.009104938271604938
8577 1158.75 0.0
8578 1159.430053710938 0.0
8579 1159.9599609375 0.0
8580 1160.640014648438 0.0
8581 1161.010009765625 0.0
8582 1143.079956054688 0.00625
8583 1143.550048828125 0.008873456790123456
8584 1143.81005859375 0.01697530864197531
8585 1144.319946289062 0.02777777777777778
8586 1144.619995117188 0.1133487654320988
8587 1145.410034179688 0.007175925925925926
8588 1146.119995117188 0.009953703703703704
8589 1146.319946289062 0.0125
8590 1160.859985351562 0.0
8591 1160.859985351562 0.0
8592 1160.859985351562 0.0
8593 1140.0 0.0
8594 1140.0 0.0
8595 1140.0 0.0
8596 1140.260009765625 0.0
8597 1140.410034179688 0.0
8598 1140.630004882812 0.0
8599 1140.829956054688 0.0
8600 1140.920043945312 0.0
8601 1141.02001953125 0.0
8602 1141.199951171875 0.0
8603 1141.22998046875 0.0
8604 1141.430053710938 0.0
8605 1141.420043945312 0.0
8606 1141.420043945312 0.0
8607 1141.359985351562 0.0
8608 1141.680053710938 0.0
8609 1142.449951171875 0.001929012345679012
8610 1142.449951171875 0.0
8611 1142.760009765625 0.004320987654320987
8612 1143.660034179688 0.0
8613 1143.880004882812 0.0
8614 1144.319946289062 0.01003086419753086
8615 1144.650024414062 0.006867283950617285
8616 1144.97998046875 0.007407407407407408
8617 1145.0 0.02770061728395062
8618 1145.199951171875 0.01242283950617284
8619 1145.510009765625 0.0
8620 1145.819946289062 0.008950617283950617
8621 1145.989990234375 0.006867283950617284
8622 1146.349975585938 0.1244928054491273
8623 1146.280029296875 0.2428127713920818
8624 1146.329956054688 0.003626543209876543
8625 1146.579956054688 0.006558641975308642
8626 1146.43994140625 0.02345679012345679
8627 1146.430053710938 0.006172839506172839
8628 1146.680053710938 0.004012345679012345
8629 1146.900024414062 0.01311728395061728
8630 1147.239990234375 0.00625
8631 1147.739990234375 0.02962962962962963
8632 1147.819946289062 0.007870370370370371
8633 1148.2099609375 0.01064814814814815
8634 1148.819946289062 0.01805555555555555
8635 1149.25 0.003703703703703704
8636 1149.680053710938 0.0162037037037037
8637 1150.0 0.0
8638 1150.0400390625 0.0
8639 1150.0400390625 0.003317901234567901
8640 1143.150024414062 0.0
8641 1143.469970703125 0.004783950617283951
8642 1141.949951171875 0.0
8643 1154.670043945312 0.0
8644 1154.670043945312 0.0
8645 1154.670043945312 0.0
8646 1154.099975585938 0.0
8647 1151.890014648438 0.005169753086419752
8648 1151.7099609375 0.006790123456790123
8649 1151.5400390625 0.0
8650 1150.93994140625 0.0345679012345679
8651 1150.7099609375 0.2509146232439336
8652 1150.619995117188 0.004089506172839506
8653 1150.2099609375 0.0
8654 1146.2900390625 0.01149691358024691
8655 1145.97998046875 0.01103395061728395
8656 1145.369995117188 0.01898148148148148
8657 1145.099975585938 0.007407407407407408
8658 1144.920043945312 0.006712962962962963
8659 1144.609985351562 0.01273148148148148
8660 1144.579956054688 0.002854938271604938
8661 1144.25 0.1246471264367816
8662 1144.0400390625 0.0154320987654321
8663 1143.7099609375 0.01064814814814815
8664 1143.52001953125 0.005015432098765432
8665 1143.380004882812 0.025
8666 1143.18994140625 0.01041666666666667
8667 1143.130004882812 0.01234567901234568
8668 1143.0400390625 0.003240740740740741
8669 1142.989990234375 0.02623456790123457
8670 1142.719970703125 0.007870370370370371
8671 1142.609985351562 0.02438271604938272
8672 1142.2900390625 0.01520061728395062
8673 1142.130004882812 0.01975308641975309
8674 1141.890014648438 0.002623456790123457
8675 1141.489990234375 0.00316358024691358
8676 1158.989990234375 0.0
8677 1158.680053710938 0.0
8678 1157.579956054688 0.01944444444444444
8679 1155.319946289062 0.1098765432098765
8680 1153.920043945312 0.1337520647083866
8681 1152.869995117188 0.007098765432098765
8682 1152.069946289062 0.0
8683 1152.069946289062 0.0
8684 1158.989990234375 0.01608796296296296
8685 1141.199951171875 0.0
8686 1141.7900390625 0.0
8687 1141.890014648438 0.0
8688 1142.079956054688 0.1163137931034483
8689 1142.199951171875 0.0
8690 1142.510009765625 0.0
8691 1146.349975585938 0.004938271604938272
8692 1146.530029296875 0.0
8693 1161.31005859375 0.0
8694 1161.31005859375 0.0
8695 1161.160034179688 0.0
8696 1161.349975585938 0.0
8697 1161.27001953125 0.0
8698 1161.180053710938 0.0
8699 1161.010009765625 0.0
8700 1160.81005859375 0.0
8701 1160.550048828125 0.0
8702 1160.52001953125 0.01570216049382716
8703 1160.52001953125 0.0
8704 1158.06005859375 0.0
8705 1158.06005859375 0.0
8706 1158.170043945312 0.0
8707 1158.0 0.0
8708 1157.829956054688 0.08804012345679013
8709 1157.47998046875 0.0
8710 1160.469970703125 0.0
8711 1160.25 0.0
8712 1151.56005859375 0.002314814814814815
8713 1151.119995117188 0.0
8714 1150.77001953125 0.03070987654320988
8715 1150.050048828125 0.146946509152831
8716 1149.849975585938 0.06844135802469137
8717 1148.75 0.1008487654320988
8718 1147.280029296875 0.1209104938271605
8719 1146.5400390625 0.01844135802469136
8720 1150.25 0.0
8721 1150.0 0.0
8722 1150.0 0.005401234567901234
8723 1149.569946289062 0.0
8724 1148.619995117188 0.0
8725 1148.969970703125 0.00625
8726 1142.140014648438 0.0
8727 1142.430053710938 0.0
8728 1142.589965820312 0.0
8729 1142.72998046875 0.0
8730 1143.030029296875 0.0
8731 1143.140014648438 0.0
8732 1142.910034179688 0.0
8733 1142.449951171875 0.0
8734 1142.449951171875 0.0
8735 1142.219970703125 0.170216049382716
8736 1141.719970703125 0.0
8737 1141.2900390625 0.0
8738 1140.72998046875 0.0
8739 1140.27001953125 0.0
8740 1139.930053710938 0.0
8741 1139.849975585938 0.0
8742 1139.660034179688 0.0
8743 1139.569946289062 0.003626543209876543
8744 1139.599975585938 0.02276234567901235
8745 1139.489990234375 0.01782407407407408
8746 1139.52001953125 0.025
8747 1138.819946289062 0.01003086419753086
8748 1138.680053710938 0.01527777777777778
8749 1138.219970703125 0.01658950617283951
8750 1137.469970703125 0.0
8751 1137.109985351562 0.0
8752 1137.449951171875 0.0
8753 1137.449951171875 0.0
8754 1137.449951171875 0.0
8755 1137.449951171875 0.0
8756 1163.849975585938 0.0
8757 1163.800048828125 0.0
8758 1163.93994140625 0.0
8759 1163.420043945312 0.0
8760 1163.069946289062 0.0
8761 1162.680053710938 0.0
8762 1161.699951171875 0.0
8763 1160.660034179688 0.0
8764 1160.099975585938 0.0
8765 1160.0 0.0
8766 1160.0 0.0
8767 1160.0 0.0
8768 1160.0 0.0
8769 1160.0 0.0
8770 1160.0 0.0
8771 1159.56005859375 0.0
8772 1159.349975585938 0.0
8773 1159.079956054688 0.0
8774 1158.839965820312 0.0
8775 1158.369995117188 0.0
8776 1158.130004882812 0.0
8777 1157.859985351562 0.0
8778 1157.859985351562 0.0
8779 1157.859985351562 0.0
8780 1157.579956054688 0.0
8787 1043.969970703125 0.0
8788 1043.969970703125 0.0
8789 1045.140014648438 0.0
8790 1045.140014648438 0.0
8791 1046.760009765625 0.0
8792 1047.780029296875 0.0
8793 1047.660034179688 0.0
8794 1048.75 0.0
8795 1049.900024414062 0.0
8796 1053.489990234375 0.0
8797 1056.579956054688 0.0
8798 1058.160034179688 0.0
8799 1058.839965820312 0.0
8800 1060.0 0.0
8801 1060.079956054688 0.0
8802 1137.069946289062 0.0
8803 1136.630004882812 0.0
8804 1136.280029296875 0.0
8805 1135.819946289062 0.0
8806 1135.359985351562 0.0
8807 1135.0 0.0
8808 1134.02001953125 0.0
8809 1132.839965820312 0.0
8810 1131.619995117188 0.0
8811 1130.469970703125 0.0
8812 1129.380004882812 0.0
8813 1127.869995117188 0.0
8814 1126.969970703125 0.0
8815 1126.010009765625 0.0
8816 1125.569946289062 0.0
8817 1125.0 0.0
8818 1124.2900390625 0.0
8819 1123.410034179688 0.0
8820 1122.56005859375 0.0
8821 1142.089965820312 0.0
8822 1141.219970703125 0.0
8823 1140.359985351562 0.0
8824 1139.02001953125 0.0
8825 1137.760009765625 0.0
8826 1165.280029296875 0.0
8827 1179.410034179688 0.0
8828 1179.02001953125 0.02114197530864197
8829 1178.5 0.01589506172839506
8830 1177.949951171875 0.1437057684120903
8831 1177.640014648438 0.008873456790123458
8832 1177.640014648438 0.00316358024691358
8833 1177.420043945312 0.03348765432098765
8834 1177.099975585938 0.01126543209876543
8835 1176.670043945312 0.01111111111111111
8836 1176.099975585938 0.04699074074074074
8837 1175.530029296875 0.02623456790123457
8838 1174.93994140625 0.03070987654320988
8839 1173.47998046875 0.01674382716049383
8840 1172.68994140625 0.01358024691358025
8841 1172.079956054688 0.0412037037037037
8842 1172.449951171875 0.03287037037037037
8843 1172.800048828125 0.0
8844 1173.680053710938 0.0
8845 1173.9599609375 0.03904320987654322
8846 1173.969970703125 0.008564814814814815
8847 1157.56005859375 0.0
8848 1157.56005859375 0.0
8849 1157.56005859375 0.0
8850 1155.4599609375 0.0
8851 1157.02001953125 0.000308641975308642
8852 1158.52001953125 0.1447088548318433
8853 1158.52001953125 0.0
8854 1157.02001953125 0.0
8855 1157.47998046875 0.0
8856 1157.699951171875 0.0
8857 1157.660034179688 0.0
8858 1157.660034179688 0.0
8859 1156.77001953125 0.02021604938271605
8860 1156.420043945312 0.02453703703703704
8861 1156.069946289062 0.1476409535972754
8862 1155.989990234375 0.0
8863 1150.109985351562 0.005246913580246914
8864 1150.329956054688 0.0
8865 1149.660034179688 0.01077674897119342
8866 1148.97998046875 0.001311728395061728
8867 1148.969970703125 0.01087962962962963
8868 1146.18994140625 0.001157407407407407
8869 1146.640014648438 0.0
8870 1143.780029296875 0.0
8871 1149.719970703125 0.0
8872 1149.77001953125 0.006327160493827161
8873 1149.93994140625 0.05131172839506173
8874 1149.949951171875 0.0091820987654321
8875 1150.27001953125 0.0
8876 1150.27001953125 0.0
8877 1149.719970703125 0.0
8878 1150.609985351562 0.00308641975308642
8879 1150.5 0.0
8880 1150.5 0.0
8881 1150.989990234375 0.0
8882 1164.5 0.0
8883 1164.5 0.0
8884 1146.030029296875 0.0
8885 1146.030029296875 0.0
8886 1146.030029296875 0.002391975308641975
8887 1143.880004882812 0.002391975308641975
8888 1162.219970703125 0.0
8889 1161.930053710938 0.0
8890 1078.579956054688 0.0
8891 1078.31005859375 0.0
8892 1085.369995117188 0.0
8893 1084.260009765625 0.0
8894 1170.359985351562 0.0
8895 1170.359985351562 0.0
8896 1166.910034179688 0.0
8897 1166.910034179688 0.0
8898 1160.97998046875 0.0
8899 1160.97998046875 0.0
8900 1163.550048828125 0.0
8901 1172.18994140625 0.0
8902 1168.260009765625 0.01064814814814815
8903 1167.219970703125 0.0
8904 1160.780029296875 0.0
8905 1160.589965820312 0.0
8906 1115.0 0.0
8907 1115.0 0.0
8908 1115.0 0.0
8909 1115.0 0.0
8910 1115.0 0.0
8911 1113.9599609375 0.0
8912 1113.9599609375 0.0
8913 1074.300048828125 0.0
8914 1074.300048828125 0.0
8915 1074.300048828125 0.0
8916 1074.300048828125 0.0
8917 1074.300048828125 0.0
8918 1074.300048828125 0.0
8919 1074.300048828125 0.0
8920 1052.56005859375 0.0
8921 1052.56005859375 0.0
8922 1052.56005859375 0.0
8923 1132.4599609375 0.01296296296296296
8924 1115.0 0.0
8925 1115.0 0.0
8926 1113.9599609375 0.0
8927 1113.97998046875 0.0
8928 1114.569946289062 0.0
8929 1159.489990234375 0.0
8930 1149.359985351562 0.0
8931 1147.550048828125 0.0
8932 1135.0 0.0
8933 1132.420043945312 0.0
8934 1132.280029296875 0.0
8935 1142.410034179688 0.0
8936 1142.119995117188 0.0
8937 1112.420043945312 0.0
8938 1090.180053710938 0.0
8939 1090.180053710938 0.0
8940 1090.180053710938 0.0
8941 1090.180053710938 0.0
8942 1090.180053710938 0.0
8943 1090.180053710938 0.0
8944 1090.180053710938 0.0
8945 1090.7900390625 0.0
8946 1090.650024414062 0.0
8947 1090.469970703125 0.0
8948 1090.319946289062 0.0
8949 1089.900024414062 0.0
8950 1089.650024414062 0.0
8951 1089.380004882812 0.0
8952 1089.2099609375 0.0
8953 1089.140014648438 0.0
8954 1088.949951171875 0.0
8955 1088.930053710938 0.0
8956 1088.7099609375 0.0
8957 1088.369995117188 0.0
8958 1088.050048828125 0.0
8959 1087.400024414062 0.0
8960 1087.119995117188 0.0
8961 1087.0 0.0
8962 1086.880004882812 0.0
8963 1086.68994140625 0.0
8964 1086.31005859375 0.0
8965 1085.780029296875 0.0
8966 1085.400024414062 0.0
8967 1085.0 0.0
8968 1085.0 0.0
8969 1085.0 0.0
8970 1085.0 0.0
8971 1084.7099609375 0.0
8972 1084.430053710938 0.0
8973 1083.930053710938 0.0
8974 1083.550048828125 0.0
8975 1082.930053710938 0.0
8976 1082.390014648438 0.0
8977 1082.0 0.0
8978 1081.380004882812 0.0
8979 1080.640014648438 0.0
8980 1080.0 0.0
8981 1079.819946289062 0.0
8982 1079.030029296875 0.0
8983 1078.4599609375 0.0
8984 1142.349975585938 0.0
8985 1142.530029296875 0.0
8986 1142.22998046875 0.003240740740740741
8987 1151.52001953125 0.0
8988 1151.52001953125 0.0
8989 1152.199951171875 0.0
8990 1152.0 0.0
8991 1152.0 0.0
8992 1150.0 0.0
8993 1150.0 0.0
8994 1150.0 0.0
8995 1150.0 0.0
8996 1151.72998046875 0.0
8997 1151.72998046875 0.0
8998 1151.130004882812 0.0
8999 1150.0 0.01111111111111111
9000 1150.0 0.0
9001 1142.930053710938 0.0
9002 1143.02001953125 0.0
9003 1143.02001953125 0.0
9004 1142.930053710938 0.0
9005 1142.9599609375 0.0
9006 1143.02001953125 0.0
9007 1143.069946289062 0.0
9008 1142.9599609375 0.0
9009 1125.530029296875 0.01049382716049383
9010 1124.56005859375 0.005478395061728395
9011 1124.280029296875 0.01705246913580247
9012 1123.72998046875 0.0
9013 1126.400024414062 0.0
9014 1105.680053710938 0.0
9015 1107.969970703125 0.0
9016 1102.81005859375 0.3209104938271605
9017 1102.81005859375 0.0
9018 1103.599975585938 0.0
9019 1104.589965820312 0.0
9020 1105.329956054688 0.0
9021 1105.949951171875 0.0
9022 1106.569946289062 0.0
9023 1106.81005859375 0.0
9024 1114.349975585938 0.0
9025 1115.0 0.0
9026 1115.0 0.0878858024691358
9027 1115.0 0.0
9028 1115.02001953125 0.0
9029 1115.400024414062 0.0
9030 1115.920043945312 0.0
9031 1115.829956054688 0.0
9032 1116.06005859375 0.0
9033 1116.150024414062 0.0
9034 1116.27001953125 0.0
9035 1108.18994140625 0.0
9036 1108.18994140625 0.0
9037 1110.0 0.005324074074074074
9038 1110.010009765625 0.0
9039 1110.7900390625 0.0
9040 1112.140014648438 0.001157407407407407
9041 1114.069946289062 0.0
9042 1114.839965820312 0.0
9043 1115.0 0.0
9044 1115.0 0.0
9045 1115.0 0.0
9046 1114.839965820312 0.0
9047 1114.069946289062 0.0
9048 1112.7099609375 0.0
9049 1111.359985351562 0.0
9050 1109.449951171875 0.0
9051 1116.780029296875 0.0
9052 1116.780029296875 0.0
9053 1123.72998046875 0.0
9054 1152.25 0.0
9055 1147.550048828125 0.0
9056 1145.050048828125 0.005478395061728395
9057 1145.06005859375 0.0
9058 1145.0 0.005941358024691357
9059 1136.349975585938 0.0
9060 1077.839965820312 0.0
9061 1080.0 0.0
9062 1082.339965820312 0.0
9063 1084.56005859375 0.0
9064 1079.18994140625 0.0
9065 1075.869995117188 0.0
9066 1076.199951171875 0.0
9067 1084.56005859375 0.0
9068 1084.56005859375 0.0
9069 1084.56005859375 0.0
9070 1174.510009765625 0.0
9071 1174.510009765625 0.0
9072 1160.469970703125 0.0
9073 1160.18994140625 0.0
9074 1159.780029296875 0.0
9075 1159.660034179688 0.0
9076 1159.319946289062 0.07785493827160493
9077 1158.969970703125 0.007253086419753086
9078 1158.4599609375 0.0
9079 1142.010009765625 0.0
9080 1155.0 0.0
9081 1135.0 0.0
9082 1170.079956054688 0.0
9083 1170.079956054688 0.0
9084 1174.300048828125 0.0
9085 1174.31005859375 0.0
9086 1164.079956054688 0.0
9087 1164.079956054688 0.0
9088 1163.579956054688 0.0
9118 1020.52001953125 0.0
9119 1117.170043945312 0.0
9120 1117.170043945312 0.0
9150 1020.559997558594 0.0
9151 1158.400024414062 0.0
9152 1175.0 0.0
9153 1136.0 0.0
9154 1179.739990234375 0.0
9155 1179.739990234375 0.0
9156 1143.760009765625 0.0
9157 1092.449951171875 0.0
9158 1092.449951171875 0.0
9159 1092.449951171875 0.0
9160 1092.449951171875 0.0
9161 1158.319946289062 0.0
9162 1126.869995117188 0.004629629629629629
9163 1136.920043945312 0.0
9164 1136.920043945312 0.0
9165 1138.469970703125 0.0
9166 1138.81005859375 0.0
9167 1138.81005859375 0.0
9168 1138.599975585938 0.01473765432098765
9169 1137.31005859375 0.0006172839506172839
9170 1116.569946289062 0.0
9171 1135.0 0.0
9172 1145.430053710938 0.0
9173 1142.219970703125 0.0191358024691358
9174 1141.410034179688 0.02376543209876543
9175 1139.099975585938 0.01712962962962963
9176 1138.920043945312 0.0
9177 1138.869995117188 0.0
9178 1138.869995117188 0.0
9179 1121.7099609375 0.0
9180 1132.920043945312 0.00933641975308642
9181 1132.510009765625 0.0
9182 1132.47998046875 0.0
9183 1132.47998046875 0.0
9184 1164.180053710938 0.0
9185 1164.969970703125 0.0
9186 1163.680053710938 0.0
9187 1163.25 0.0
9188 1163.150024414062 0.0
9189 1162.77001953125 0.0
9190 1162.640014648438 0.0
9191 1162.390014648438 0.0
9192 1158.400024414062 0.0
9193 1158.859985351562 0.0
9194 1158.25 0.0
9195 1158.400024414062 0.0
9196 1164.890014648438 0.0
9197 1164.06005859375 0.0
9198 1158.25 0.0
9199 1158.25 0.0
9200 1160.640014648438 0.0
9201 1160.219970703125 0.0
9202 1160.550048828125 0.0
9203 1158.609985351562 0.0
9204 1159.25 0.0
9205 1159.75 0.0
9206 1160.219970703125 0.0
9207 1160.219970703125 0.0
9208 1161.0 0.0
9209 1160.219970703125 0.0
9210 1160.819946289062 0.0
9211 1121.949951171875 0.0
9212 1158.859985351562 0.0
9213 1160.140014648438 0.0
9214 1159.760009765625 0.0
9215 1159.699951171875 0.0
9216 1159.050048828125 0.0
9217 1120.0 0.0
9218 1120.0 0.0
9223 1160.550048828125 0.0
9224 1116.27001953125 0.0
9225 1109.109985351562 0.004012345679012346
9226 1110.180053710938 0.006018518518518519
9227 1111.7900390625 0.0
9228 1111.869995117188 0.0
9229 1111.869995117188 0.0
9230 1113.069946289062 0.01766975308641975
9231 1113.819946289062 0.0
9232 1113.819946289062 0.0
9233 1070.099975585938 0.0
9234 1072.0 0.0
9235 1072.0 0.0
9236 1161.72998046875 0.01419753086419753
9237 1138.140014648438 0.0
9238 1157.7900390625 0.005709876543209876
9239 1139.81005859375 0.0
9240 1140.0 0.0
9241 1179.739990234375 0.0
9242 1179.739990234375 0.0
9243 1140.0 0.0
9244 1179.829956054688 0.0
9245 1179.829956054688 0.0
9246 1179.530029296875 0.0
9247 1179.530029296875 0.01188271604938272
9248 1179.619995117188 0.0
9249 1179.530029296875 0.0
9250 1179.530029296875 0.0
9251 1179.829956054688 0.0
9252 1180.0 0.0
9253 1180.0 0.0
9254 1180.0 0.0
9255 1180.0 0.0
9256 1180.0 0.0
9257 1180.0 0.0
9258 1180.0 0.0
9259 1180.0 0.0
9260 1155.670043945312 0.1281193486590038
9261 1155.670043945312 0.0
9262 1163.699951171875 0.004938271604938272
9263 1164.180053710938 0.0
9264 1140.0 0.0
9265 1140.0 0.0
9266 1158.2099609375 0.0
9267 1158.109985351562 0.0
9268 1159.369995117188 0.005864197530864198
9269 1159.18994140625 0.01296296296296296
9270 1140.280029296875 0.0
9271 1140.280029296875 0.008564814814814815
9272 1145.430053710938 0.0
9273 1145.25 0.0
9274 1144.900024414062 0.04760802469135803
9275 1147.349975585938 0.0095679012345679
9276 1144.7900390625 0.009953703703703704
9277 1144.989990234375 0.008873456790123456
9278 1145.02001953125 0.02638888888888889
9279 1145.430053710938 0.02114197530864198
9280 1143.660034179688 0.1378415708812261
9281 1143.329956054688 0.02361111111111111
9282 1143.180053710938 0.03904320987654321
9283 1142.7099609375 0.02098765432098765
9284 1142.680053710938 0.03626543209876543
9285 1142.329956054688 0.03811728395061728
9286 1142.130004882812 0.1494928054491273
9287 1141.630004882812 0.01304012345679012
9288 1141.31005859375 0.03094135802469136
9289 1141.010009765625 0.01658950617283951
9290 1140.719970703125 0.01342592592592593
9291 1140.22998046875 0.03078703703703704
9292 1140.0 0.01782407407407408
9293 1147.130004882812 0.0
9294 1147.130004882812 0.005864197530864198
9295 1137.47998046875 0.0
9296 1137.77001953125 0.0
9297 1137.180053710938 0.008719135802469136
9298 1136.119995117188 0.008101851851851851
9299 1135.27001953125 0.0
9300 1134.599975585938 0.0
9301 1142.72998046875 0.0
9302 1141.050048828125 0.006404320987654321
9303 1143.660034179688 0.0
9304 1143.150024414062 0.0
9305 1143.349975585938 0.0
9306 1140.050048828125 0.01242283950617284
9307 1139.420043945312 0.01728395061728395
9308 1144.31005859375 0.007561728395061728
9309 1144.619995117188 0.06867283950617284
9310 1135.0 0.007484567901234567
9311 1135.589965820312 0.01705246913580247
9312 1143.660034179688 0.0
9313 1089.869995117188 0.0002314814814814815
9314 1086.369995117188 0.0
9315 1162.800048828125 0.0
9316 1077.880004882812 0.0
9317 1077.0400390625 0.0
9318 1076.47998046875 0.0
9319 1075.81005859375 0.0
9320 1075.0 0.0
9321 1074.660034179688 0.0
9322 1074.469970703125 0.0
9323 1073.579956054688 0.0
9324 1072.680053710938 0.0
9325 1072.050048828125 0.0
9326 1071.5400390625 0.0
9327 1070.680053710938 0.0
9328 1070.030029296875 0.0
9329 1069.150024414062 0.0
9330 1068.43994140625 0.0
9331 1067.4599609375 0.0
9332 1066.880004882812 0.0
9333 1065.719970703125 0.0
9334 1065.0 0.0
9335 1064.530029296875 0.0
9336 1063.300048828125 0.0
9337 1061.010009765625 0.0
9338 1059.900024414062 0.0
9339 1059.469970703125 0.0
9340 1058.119995117188 0.05802469135802469
9341 1056.420043945312 0.0
9342 1055.0 0.0
9343 1053.819946289062 0.0
9344 1052.7900390625 0.0
9345 1051.849975585938 0.0
9346 1050.68994140625 0.0
9347 1050.0 0.0
9348 1049.339965820312 0.0
9349 1047.280029296875 0.0
9350 1044.0 0.0
9351 1040.800048828125 0.0
9352 1039.72998046875 0.0
9353 1039.010009765625 0.0
9354 1037.989990234375 0.0
9355 1037.199951171875 0.0
9356 1036.68994140625 0.0
9357 1036.68994140625 0.0
9358 1035.77001953125 0.0
9359 1035.300048828125 0.0
9360 1069.150024414062 0.0
9361 1036.68994140625 0.0
9362 1035.300048828125 0.0
9363 1035.300048828125 0.0
9364 1030.109985351562 0.0
9365 1030.0 0.0
9366 1030.0 0.0
9367 1028.900024414062 0.0
9368 1028.010009765625 0.0
9369 1025.699951171875 0.0
9370 1025.0 0.371604938271605
9371 1025.0 0.0
9372 1025.0 0.0
9373 1023.119995117188 0.0
9374 1019.900024414062 0.0
9375 1017.929992675781 0.0
9376 1019.609985351562 0.0
9377 1016.72998046875 0.0
9378 1015.919982910156 0.0
9379 1015.919982910156 0.1597993827160494
9380 1015.0 0.0
9381 1013.859985351562 0.0
9382 1010.0 0.0
9383 1009.390014648438 0.0
9384 1035.300048828125 0.0
9385 1033.27001953125 0.0
9386 1032.680053710938 0.0
9387 1032.72998046875 0.0
9388 1032.300048828125 0.0
9389 1031.2099609375 0.0
9390 997.4580078125 0.0
9391 997.0050048828125 0.0
9392 997.4580078125 0.0
9393 997.0419921875 0.0
9394 997.9390258789062 0.0
9395 998.614990234375 0.0
9396 997.469970703125 0.0
9397 997.2340087890625 0.0
9398 996.7269897460938 0.0
9399 997.6810302734375 0.0
9400 998.9559936523438 0.0
9401 995.4559936523438 0.0
9402 996.6110229492188 0.0
9403 995.8359985351562 0.0
9404 996.5850219726562 0.0
9405 995.9439697265625 0.0
9406 996.6300048828125 0.0
9407 997.208984375 0.0
9408 996.14501953125 0.0
9409 996.5880126953125 0.0
9410 995.0 0.0
9411 994.5460205078125 0.0
9412 993.93701171875 0.0
9413 993.530029296875 0.0
9414 992.156982421875 0.0
9415 988.7059936523438 0.0
9416 985.0 0.0
9417 985.0 0.0
9418 985.0 0.0
9419 985.0 0.0
9420 985.0 0.0
9421 985.0 0.0
9422 985.0 0.0
9423 985.0 0.0
9424 985.0 0.0
9425 985.0 0.0
9426 985.0 0.0
9427 980.7750244140625 0.0
9428 981.1069946289062 0.0
9429 981.60400390625 0.0
9430 981.2050170898438 0.0
9431 980.8179931640625 0.0
9432 980.8319702148438 0.0
9433 985.0 0.0
9434 996.3070068359375 0.0
9435 997.0050048828125 0.0
9436 985.0 0.0
9437 985.0 0.0
9438 985.0 0.0
9439 985.0 0.0
9440 985.0 0.0
9441 1008.880004882812 0.0
9442 1007.859985351562 0.0
9443 1007.859985351562 0.0
9444 1007.369995117188 0.0
9445 1006.75 0.0
9446 1006.080017089844 0.0
9447 1004.989990234375 0.0
9448 1003.409973144531 0.0
9449 1002.599975585938 0.0
9450 1001.27001953125 0.0
9451 1000.450012207031 0.0
9452 999.7000122070312 0.0
9453 998.2109985351562 0.0
9454 1036.68994140625 0.0
9455 1009.390014648438 0.0
9456 1009.390014648438 0.0
9457 1035.300048828125 0.0

[PIPES]
0 9065 9066 3.87304996046 63 140
1 2547 9157 125.400024927 85 137
2 9157 9158 1.29075508073 85 137
3 9158 9159 1.2092766852 85 137
4 9158 9160 0.500069764698 85 137
5 9455 9441 4.75236499051 63 135
6 9383 9456 0.268700967446 63 135
7 9456 9455 0.147849112556 63 135
8 9363 9384 0.214033735675 250 133
9 9359 9457 0.963406165953 250 133
10 9186 9187 26.8873059666 450 142
11 9187 9188 24.764721841 450 142
12 9188 9189 24.0033314102 450 142
13 9361 9454 0.518631815977 63 130
14 9189 9190 18.1466258252 450 142
15 9191 8540 32.4166485956 450 142
16 9192 9193 1.32722024134 200 135
17 9194 8313 2.9696910611 200 135
18 9195 9151 2.63990492271 200 135
19 9193 9194 2.75370290514 200 135
20 9151 9192 2.35929472978 200 135
21 8318 9195 2.13299610142 200 135
22 8316 9194 1.24970716624 200 135
23 9212 9193 1.07444272574 200 142
24 9202 9213 16.9228320617 200 142
25 9213 9214 18.504169395 200 142
26 9214 9215 17.3544046281 200 142
27 9190 9191 26.7725143916 450 142
28 9356 9357 3.68183096469 250 133
29 9453 9392 16.7338129546 63 135
30 9452 9453 22.5825909054 63 135
31 9060 9061 61.3715801491 63 140
32 9061 9062 40.0105026341 63 140
33 9062 9063 56.4697822642 63 140
34 9064 9060 32.467654073 63 140
35 6781 9064 2.6121494987 63 140
36 9066 9060 50.5232950034 63 140
37 9067 9068 1.73534146494 63 140
38 9069 9067 1.28872417586 63 140
39 9068 9063 1.41249991164 63 140
40 9063 9069 1.58261176573 63 140
41 2746 9082 1.27018137257 85 132
42 9082 9083 0.655562056206 85 132
43 8184 2245 1.09755453557 200 132
44 8320 9151 2.07551399409 200 135
45 8313 8114 1.12418020319 200 135
46 8170 337 0.214207096077 150 131
47 9441 9442 23.8913676094 63 135
48 9442 9443 1.17675038065 63 135
49 9443 9444 10.2127151471 63 135
50 9444 9445 11.3740948647 63 135
51 9445 9446 20.4006483478 63 135
52 9446 9447 20.5135798196 63 135
53 9447 9448 20.1188172861 63 135
54 9448 9449 20.0968407716 63 135
55 9449 9450 19.3119124111 63 135
56 9450 9451 17.6025801802 63 135
57 9451 9452 17.7169902919 63 135
58 9215 9216 18.1895205545 200 142
59 9216 9212 11.2164552785 200 142
60 9457 9362 1.57792523258 250 133
61 9244 8415 1.80945627194 110 132
62 8418 9245 1.68483619397 110 132
63 235 9268 10.0571865499 200 135
64 9245 9251 4.72800137549 110 132
65 9251 9252 16.435175721 110 132
66 9252 9253 11.9692737046 110 132
67 9253 9254 11.6871665079 110 132
68 9254 9255 17.4446357663 110 132
69 9255 9256 21.5404046385 110 132
70 9256 9257 16.792439757 110 132
71 9257 9258 13.6675557807 110 132
72 9258 9259 16.5981933052 110 132
73 9259 8402 4.59903174573 110 132
74 9240 9265 3.30323844838 110 132
75 9265 6794 1.11351784943 110 132
76 9266 4300 4.52614162074 110 132
77 4305 9267 7.03285393338 110 132
78 9269 2872 5.8081212059 200 135
79 9267 9266 7.5329489379 110 132
80 9266 4465 6.1886068386 110 132
81 9244 9245 4.99780631875 110 132
82 2790 9244 4.77773523754 110 132
83 9268 9269 18.711558947 200 135
84 4068 4063 4.02616405489 60 132
85 6854 6855 4.28644304794 110 132
86 3829 9310 13.4650837728 32 142
87 4106 9301 13.6886268485 110 132
88 9239 9240 1.68058700793 110 132
89 9237 8396 5.15379704161 125 135
90 9301 2902 0.823366868888 110 132
91 8534 8535 13.5723323577 450 142
92 8526 8527 38.3937537239 450 142
93 8527 8528 31.7305357034 450 142
94 8528 8529 35.2640967841 450 142
95 8529 8530 26.1343348098 450 142
96 8542 8543 27.2534188135 450 142
97 8467 8468 28.5682383951 450 142
98 8541 8542 15.0966995727 450 142
99 8540 8541 21.4925217226 450 142
100 8465 8466 26.6102122123 450 142
101 8466 8467 18.1682949399 450 142
102 8532 8533 70.9526398212 450 142
103 8464 8465 77.5489993438 450 142
104 8530 8531 30.1532948292 450 142
105 8462 8463 7.33163346128 450 142
106 8537 8538 16.568980445 450 142
107 8536 8537 25.6672811182 450 142
108 8535 8536 81.7280022918 450 142
109 8460 8461 30.0000407972 450 142
110 8458 8460 89.0304157386 450 142
111 8531 8532 23.5593697919 450 142
112 8538 8539 61.2988750924 450 142
113 8491 8492 30.2050198647 450 142
114 8546 8547 13.3535111488 450 142
115 8544 8545 11.2951517033 450 142
116 8569 8570 33.2806972286 250 142
117 8568 8569 32.1495846475 250 142
118 8567 8568 29.5107706438 250 142
119 8566 8567 40.913506254 250 142
120 8565 8566 29.1779675958 250 142
121 8564 8565 42.9673714574 250 142
122 8563 8564 40.6914043138 250 142
123 8562 8563 35.5197730989 250 142
124 8561 8562 38.3759683267 250 142
125 8560 8561 22.99910833 250 142
126 8559 8560 29.1806268789 250 142
127 8558 8559 25.514825905 250 142
128 8543 8544 25.7985367801 450 142
129 8557 8558 21.9369530251 250 142
130 8454 8555 4.55136067574 160 142
131 8554 8458 8.0000451964 280 142
132 8457 8554 2.9999802936 280 142
133 8461 8553 7.57541197838 450 142
134 8552 8108 133.596181181 450 142
135 8551 8552 11.1132052271 450 142
136 8550 8551 31.3358147174 450 142
137 8549 8550 14.1389627976 450 142
138 8548 8549 21.0007840332 450 142
139 8547 8548 14.4215943985 450 142
140 8525 8526 33.5548107133 450 142
141 8545 8546 4.51203280142 450 142
142 8555 8556 1.25697452631 450 142
143 8524 8525 31.9638317159 450 142
144 8469 8470 22.3339738857 450 142
145 8522 8523 40.794480081 450 142
146 8570 8571 38.5721160556 250 142
147 8510 8511 27.3043124977 450 142
148 8509 8510 23.7893780085 450 142
149 8508 8509 21.1156734435 450 142
150 8507 8508 21.0796531758 450 142
151 8506 8507 12.4772941377 450 142
152 8505 8506 3.42032162261 450 142
153 8504 8505 1.98192593731 450 142
154 8503 8504 152.142437716 450 142
155 8502 8503 26.9375173313 450 142
156 8501 8502 21.2677483767 450 142
157 8485 8486 25.2699209537 450 142
158 8500 8501 3.88477719525 450 142
159 8486 8487 26.1277016592 450 142
160 8487 8488 22.2345224597 450 142
161 8488 8489 27.8488006922 450 142
162 8489 8490 21.3491742695 450 142
163 8498 8499 19.3970581526 450 142
164 8497 8498 28.6677564177 450 142
165 8496 8497 18.9327261901 450 142
166 8495 8496 23.0713693136 450 142
167 8494 8495 22.1824666801 450 142
168 8493 8494 26.0148605219 450 142
169 8492 8493 26.9057824454 450 142
170 8499 8500 17.841979487 450 142
171 8484 8485 8.18538437241 450 142
172 8483 8484 15.0002655222 450 142
173 8482 8483 24.9366558299 450 142
174 8521 8522 29.1326111425 450 142
175 8520 8521 43.0434202757 450 142
176 8519 8520 40.756813381 450 142
177 8518 8519 35.4734194855 450 142
178 8517 8518 38.3498071054 450 142
179 8516 8517 23.0829857683 450 142
180 8515 8516 29.0558251644 450 142
181 8468 8469 27.7784061864 450 142
182 8514 8515 40.5212798029 450 142
183 8513 8514 9.55789673625 450 142
184 8490 8491 24.1552300757 450 142
185 8512 8513 28.6370227854 450 142
186 8511 8512 30.2191092685 450 142
187 8470 8471 0.999972679412 63 140
188 8470 8472 34.837745816 450 142
189 8472 8473 19.7774621219 450 142
190 8473 8474 20.1617607615 450 142
191 8474 8475 24.2567831339 450 142
192 8475 8476 27.0916889469 450 142
193 8476 8477 24.5907553568 450 142
194 8477 8478 14.3465520594 450 142
195 8478 8479 15.2168025551 450 142
196 8479 8480 11.1209989658 450 142
197 8480 8481 12.8377652645 450 142
198 8481 8482 19.272977612 450 142
199 8523 8524 29.6807109415 450 142
200 8571 8572 31.6830036608 250 142
201 8706 8704 1.47758265372 110 137
202 8573 8574 26.2936560025 250 142
203 8656 8657 15.1853636442 160 142
204 8655 8656 21.9922006627 160 142
205 8654 8655 20.4388007718 160 142
206 4118 8654 9.38471805667 160 142
207 8652 8653 28.7115020084 225 142
208 8651 8652 31.5813068923 225 142
209 8650 8651 31.0495557616 225 142
210 8649 8650 55.363001409 225 142
211 8649 8648 9.13244249959 110 140
212 8647 8648 9.65609817691 110 140
213 1158 8647 81.1496271646 110 140
214 8657 8658 19.3156985379 160 142
215 8646 1158 79.4628197656 110 140
216 8644 8645 5.01954310699 110 140
217 8643 8644 1.11591408746 110 140
218 8608 8642 18.941395566 225 142
219 8641 8612 10.693433359 250 142
220 8640 8641 11.6441697854 250 142
221 8611 8640 20.0058110809 250 142
222 8637 8638 6.07948764269 160 142
223 8636 8637 26.8605922864 250 142
224 8635 8636 19.4811597698 250 142
225 8634 8635 22.205110336 250 142
226 8633 8634 18.8301899352 250 142
227 8646 8645 23.1294245493 110 140
228 8632 8633 20.9040826874 250 142
229 8658 8659 18.8427179033 160 142
230 8660 8661 18.4121060726 160 142
231 8683 3760 3.08330706874 32 140
232 8682 8683 2.36158191252 32 140
233 8681 8682 21.3634132569 32 140
234 8680 8681 34.4640977255 32 140
235 8679 8680 35.3763481582 32 140
236 8678 8679 43.0940937129 32 140
237 8677 8678 28.3998773247 32 140
238 8676 8677 4.79122614712 32 140
239 5076 8676 0.879418017901 32 140
240 8675 4063 20.6377414704 160 142
241 8674 8675 20.3042963433 160 142
242 8659 8660 18.3606117818 160 142
243 8673 8674 20.1063799084 160 142
244 8671 8672 19.435938593 160 142
245 8670 8671 19.7544497518 160 142
246 8669 8670 19.9565015222 160 142
247 8668 8669 20.0655641832 160 142
248 8667 8668 18.2126940622 160 142
249 8666 8667 21.260927285 160 142
250 8665 8666 21.1413239415 160 142
251 8664 8665 20.1580400826 160 142
252 8663 8664 17.3857395013 160 142
253 8662 8663 18.5231226849 160 142
254 8661 8662 19.2139962526 160 142
255 8672 8673 20.3914012514 160 142
256 8572 8573 35.2689955914 250 142
257 8631 8632 17.9969585481 250 142
258 8629 8630 18.8614150325 250 142
259 8599 8600 23.7932936976 225 142
260 8598 8599 34.2594716394 225 142
261 8597 8598 25.8005225149 225 142
262 8596 8597 28.3601603659 225 142
263 8595 8596 25.2151293666 225 142
264 8594 8595 23.6293586248 225 142
265 8593 8594 5.68269788452 225 142
266 8581 8592 5.19551672126 250 142
267 8590 8591 2.08147303553 250 142
268 8589 8557 45.3704765786 200 142
269 8588 8589 30.8772539264 200 142
270 8600 8601 24.2494264261 225 142
271 8587 8588 42.676522831 200 142
272 8585 8586 38.3314618688 200 142
273 8584 8585 29.2281218177 200 142
274 8583 8584 25.8407035903 200 142
275 8582 8583 14.4536394593 200 142
276 1445 8582 0.690893581252 200 142
277 8580 8581 11.2700086952 250 142
278 8578 8579 24.6661291824 250 142
279 8577 8578 20.9862382523 250 142
280 8576 8577 25.0262072638 250 142
281 8575 8576 23.5491601764 250 142
282 8574 8575 29.9899123871 250 142
283 8586 8587 33.9427026773 200 142
284 8630 8631 20.3996757816 250 142
285 8601 8602 11.8266879979 225 142
286 8603 8604 7.67522774857 225 142
287 8628 8629 21.3149857375 250 142
288 8627 8628 20.2366077446 250 142
289 8626 8627 18.5680607765 250 142
290 8625 8626 18.2639059345 250 142
291 8624 8625 18.5081968061 250 142
292 8623 8624 17.2207137189 250 142
293 8622 8623 18.4068082246 250 142
294 8621 8622 18.8162572787 250 142
295 8620 8621 19.111697204 250 142
296 8619 8620 22.8659862678 250 142
297 8618 8619 17.9433305708 250 142
298 8602 8603 11.9804923523 225 142
299 8617 8618 18.5380152393 250 142
300 8458 8459 0.900010561066 280 142
301 8615 8616 22.0742015032 250 142
302 8614 8615 20.2924431747 250 142
303 8613 8614 15.684111324 250 142
304 8612 8613 8.80762090468 250 142
305 8610 8611 18.4657328588 225 142
306 8609 8610 1.05005952165 225 142
307 8607 8608 18.985280354 225 142
308 8606 8607 12.5177724126 225 142
309 8605 8606 5.17068090358 225 142
310 8604 8605 11.7232217415 225 142
311 8616 8617 19.7049315907 250 142
312 8456 8457 3.09998609015 280 142
313 8306 8307 1.03115044963 150 119
314 8454 8455 23.7749583568 225 142
315 1559 8147 1.64718244244 60 132
316 8146 2108 8.77158252538 85 132
317 8145 8146 12.2068350113 85 132
318 8144 8145 2.82150403205 85 132
319 8143 8144 7.75784538397 85 132
320 8139 8136 3.0143798208 200 120
321 8138 8139 0.696709243214 200 120
322 8134 8137 2.40340936424 250 122
323 8135 3219 25.711348256 200 120
324 8135 8136 4.77410276593 200 120
325 8133 8134 4.66541887675 250 122
326 8147 8149 0.567652182372 60 132
327 8132 8133 2.24719081546 250 122
328 8130 8131 0.987508284033 250 122
329 8129 8130 1.61308346926 250 122
330 8124 8120 2.54344353214 300 123
331 8128 8124 4.35704590331 300 123
332 8127 8128 0.34629611574 300 123
333 8126 8127 2.25234855186 300 123
334 8125 8126 3.66309404721 300 123
335 8123 8124 0.650529784164 100 118
336 8122 8123 0.45181080099 100 118
337 8120 8121 1.06964012647 100 118
338 8116 8117 4.59786493928 200 135
339 8131 8132 4.32622010668 250 122
340 8115 8116 0.468710998923 200 135
341 8158 8159 2.16076953898 110 132
342 8170 8171 1.28596150799 150 119
343 5560 8232 0.00602992448912 150 119
344 8226 32 7.13055685053 60 132
345 8225 8226 6.17435891412 60 132
346 40 8225 6.63575715369 60 132
347 7621 8220 4.95248656109 100 118
348 6259 6273 3.72322508057 60 132
349 8224 8197 28.424094093 110 137
350 5526 8224 8.59212034323 110 137
351 8221 40 1.75292469836 100 118
352 8222 8223 0.525421735445 100 118
353 8221 8222 0.706442495774 100 118
354 8160 8158 0.418294154682 110 132
355 8220 8221 6.77260023974 100 118
356 8216 8206 0.163382282278 125 140
357 8215 8216 6.31616032491 125 140
358 8105 8215 6.31616032491 125 140
359 8101 8102 0.640053903852 125 140
360 8206 8101 1.20136437812 125 140
361 8183 8184 6.3843372124 200 120
362 8181 8182 74.4392459118 200 137
363 8180 8181 18.2568485778 200 137
364 8179 8180 10.0825592487 200 137
365 8172 8173 5.06842759144 150 119
366 8171 8172 5.06842759133 150 119
367 8232 2196 15.6232159626 150 119
368 8114 8115 0.584116024404 200 135
369 7263 8104 0.779300026183 125 140
370 37 7621 5.36151228783 100 118
371 7139 8105 164.108726906 125 140
372 8102 8103 1.58628204624 125 140
373 8100 8101 0.684873162952 150 119
374 2594 8100 0.684873163875 150 119
375 8035 8036 147.558014382 63 140
376 8023 8035 12.7891047771 63 140
377 8034 8023 15.8195911773 63 140
378 8033 8034 54.2948739811 63 140
379 8033 1183 43.8455400845 63 140
380 8032 8033 37.0574628401 63 140
381 8010 8016 10.6859128875 60 132
382 8015 3938 17.4090861541 60 132
383 8014 8015 18.4022440304 60 132
384 8013 8014 25.8325738114 60 132
385 8455 8456 43.010674557 280 142
386 673 671 6.09542861533 150 119
387 8235 8236 7.75101245011 110 132
388 8404 8405 19.398487055 110 132
389 8403 8404 16.1814178919 110 132
390 8402 8403 4.80398220237 110 132
391 8398 3941 10.648846182 125 135
392 8397 8398 2.94172823262 125 135
393 8391 8392 0.368089662889 150 119
394 8307 8391 0.368089663127 150 119
395 6810 2876 2.79004041482 60 132
396 8319 8320 4.05754935229 200 135
397 8317 8318 3.66126769983 200 135
398 8315 8316 1.28069512318 200 135
399 8405 8406 22.4995417061 110 132
400 8313 8314 3.29494400633 200 135
401 8311 8312 20.42121038 63 140
402 8310 8311 30.9879262049 63 140
403 8685 8686 76.5351479882 280 142
404 1623 8306 1.03115045018 150 119
405 1625 2038 5.32880493246 150 119
406 2688 688 18.3210470118 150 119
407 8298 2947 4.69860984694 150 119
408 2951 8298 4.68278047413 150 119
409 8295 8296 10.1644553715 60 132
410 8294 8295 20.2186951609 60 132
411 1020 8294 10.7571288454 60 132
412 8312 902 57.4252675151 63 140
413 8292 8293 2.59372511994 60 132
414 8406 8407 15.2437477022 110 132
415 8408 8409 32.1585828821 110 132
416 8453 8258 12.4380545908 85 132
417 8257 8453 1.4701972654 85 132
418 8257 8269 15.9793081826 85 132
419 8252 8253 24.0613241938 85 132
420 1032 8451 4.11428730083 60 132
421 8452 8143 0.313638326852 85 132
422 8451 8452 10.3192418811 85 132
423 8449 8253 13.3992565843 85 132
424 8448 8449 22.2248458485 85 132
425 8447 8448 17.3562745137 85 132
426 8143 8447 12.3918534529 85 132
427 8407 8408 38.8804035213 110 132
428 8446 4866 9.91733296793 60 132
429 2108 8445 1.78014028969 60 132
430 8436 2914 2.23993889413 110 132
431 7082 8436 2.64316448425 110 132
432 8416 8417 1.20246829484 110 132
433 8417 8418 1.85293955683 110 132
434 8415 8416 1.92610383931 110 132
435 8413 8414 21.6023603093 110 132
436 8412 8413 31.5666249237 110 132
437 8411 8412 22.6877160218 110 132
438 8410 8411 19.9799469468 110 132
439 8409 8410 16.2336071163 110 132
440 8445 8446 2.09437542207 60 132
441 8234 8235 3.45007655136 110 132
442 8291 8292 11.6421586054 60 132
443 8289 8290 17.7132480366 60 132
444 8260 8261 13.7654367893 60 132
445 8259 8260 20.8926953741 60 132
446 8258 8259 26.5068003543 60 132
447 8256 8257 17.8620465788 85 132
448 8255 8256 26.2038413218 85 132
449 8254 8255 29.9211697129 85 132
450 8253 8254 2.18654064693 85 132
451 8251 8252 24.1924901776 60 132
452 8250 8251 32.4618265045 60 132
453 8249 8250 21.4165293647 60 132
454 8248 8249 21.9687623906 60 132
455 8261 8262 23.0294814743 60 132
456 8241 8248 6.18107280356 60 132
457 8246 8247 18.428085658 60 132
458 8245 8246 13.1010018702 60 132
459 8244 8245 3.18105674261 60 132
460 8243 8244 17.7103387877 60 132
461 8242 8243 16.57486908 60 132
462 8241 8242 14.7406859062 60 132
463 8240 8241 22.9077088561 60 132
464 8239 8240 19.4463895872 60 132
465 6786 8239 24.1217467239 60 132
466 8237 8238 13.8002377869 110 132
467 8236 8237 15.644084772 110 132
468 8247 5964 5.663087232 60 132
469 8290 8291 21.1996915072 60 132
470 8262 4727 9.33423189211 60 132
471 8259 8264 8.54254154231 60 132
472 8288 8289 8.48837446202 60 132
473 8287 2866 29.7045093331 60 132
474 8286 8287 18.3313301749 60 132
475 8285 8286 24.5493389324 60 132
476 8284 8285 20.3566811882 60 132
477 8283 8284 24.4117467214 60 132
478 8282 8283 19.8747733825 60 132
479 8281 8282 23.0481573453 60 132
480 8280 4694 19.9033154276 60 132
481 8279 8280 13.1585984811 60 132
482 8277 8278 9.91333092375 60 132
483 4727 8263 26.2777923354 60 132
484 8276 8277 12.1074919781 60 132
485 4697 8275 15.9976782379 60 132
486 8273 8274 5.4966877296 60 132
487 8272 8273 19.6919907577 60 132
488 8271 8272 19.9814072826 60 132
489 8270 8271 18.565322755 60 132
490 8269 8270 26.9890636557 60 132
491 8268 1021 14.1287035853 60 132
492 8267 8268 19.1391172736 60 132
493 8266 8267 20.9994948746 60 132
494 8265 8266 25.4081570563 60 132
495 8264 8265 17.6324120024 60 132
496 8275 8276 15.7964295019 60 132
497 8687 8688 8.45282112644 280 142
498 8396 8397 0.901369946244 125 135
499 8691 8692 4.57286606332 200 142
500 9406 9407 20.2969685422 63 135
501 9405 9406 19.0102423184 63 135
502 9404 9405 19.0706057583 63 135
503 9403 9404 19.7717111551 63 135
504 9402 9403 19.6807823523 63 135
505 9401 9402 19.6983099027 63 135
506 9400 9401 19.3872144718 63 135
507 9399 9400 16.6490555293 63 135
508 9398 9399 22.857739368 63 135
509 9397 9398 18.934101113 63 135
510 9396 9397 21.2217418942 63 135
511 9395 9396 20.5367066979 63 135
512 9394 9395 19.857296216 63 135
513 9393 9394 17.321346397 63 135
514 9392 9390 0.77605412168 63 135
515 9390 9391 2.23209520464 63 135
516 9389 9364 23.6593189497 63 135
517 9388 9389 16.8217999999 63 135
518 9387 9388 33.0687865431 63 135
519 9386 9387 23.6887214639 63 135
520 9385 9386 26.8346070657 63 135
521 9384 9385 19.8340969044 63 135
522 9382 9383 12.5649588893 63 135
523 9407 9408 29.9633621608 63 135
524 9408 9409 20.1397343581 63 135
525 9409 9410 18.5690293226 63 135
526 9410 9411 20.291093539 63 135
527 9392 9435 5.89300127251 110 142
528 9434 9393 127.561699114 63 135
529 9433 9429 85.7813652552 63 135
530 9415 9433 95.2031542016 63 135
531 9432 9427 10.3119529187 63 135
532 9431 9432 21.5119961415 63 135
533 9430 9431 24.0811305798 63 135
534 9429 9430 38.5447878705 63 135
535 9428 9422 138.962167758 63 135
536 9427 9428 81.307918003 63 135
537 9426 9421 2.48888027035 63 135
538 9381 9382 42.9138831265 63 135
539 9425 9426 19.9024537434 63 135
540 9423 9424 18.9251278727 63 135
541 9422 9423 19.1426540743 63 135
542 9421 9420 0.260386251682 63 135
543 9420 9416 0.186461792149 63 135
544 9418 9419 12.0006703978 63 135
545 9417 9418 10.725888308 63 135
546 9416 9417 2.60266978323 63 135
547 9414 9415 39.6227662087 63 135
548 9413 9414 35.584576125 63 135
549 9412 9413 20.0886363145 63 135
550 9411 9412 22.401001429 63 135
551 9424 9425 24.1026111654 63 135
552 9380 9381 19.8594163183 63 135
553 9379 9380 27.0510579421 63 135
554 9378 9379 18.8604880394 63 135
555 9346 9347 20.0248092371 250 122
556 9345 9346 19.958878576 250 122
557 9344 9345 19.6034560478 250 122
558 9343 9344 19.3714447574 250 122
559 9342 9343 19.559620267 250 122
560 9341 9342 19.9407788466 250 122
561 9340 9341 19.9973859293 250 122
562 9339 9340 21.0914250108 250 122
563 9338 9339 19.722520047 250 122
564 9337 9338 19.8956867939 250 122
565 9336 9337 20.1610480137 250 122
566 9347 9348 19.4186042142 250 122
567 9335 9336 17.7510768399 250 122
568 9333 9334 19.7869154751 250 122
569 9332 9333 20.6498752779 250 122
570 9331 9332 14.7549441881 250 122
571 9330 9331 21.50113404 250 122
572 9329 9330 16.8630621481 250 122
573 9328 9329 20.2695266698 250 122
574 9327 9328 20.2851765489 250 122
575 9326 9327 20.0893516171 250 122
576 9325 9326 20.8930501837 250 122
577 9324 9325 20.942848899 250 122
578 9323 9324 20.6444237754 250 122
579 9334 9335 19.0826430298 250 122
580 9435 9434 27.6981091419 110 142
581 9348 9349 19.2576038228 250 122
582 9350 9351 20.3426956429 250 122
583 9377 9378 24.1639734888 63 135
584 9376 9377 30.9857471908 63 135
585 9375 9376 24.5218953387 63 135
586 9374 9375 24.3301689177 63 135
587 9373 9374 23.313443221 63 135
588 9372 9373 27.6287135857 63 135
589 9371 9372 25.671671286 63 135
590 9370 9371 25.7725994005 63 135
591 9369 9370 28.8204216629 63 135
592 9368 9369 27.3432486178 63 135
593 9367 9368 25.8837065798 63 135
594 9349 9350 20.3664177757 250 122
595 9366 9367 37.1235902448 63 135
596 9364 9365 20.4086049657 63 135
597 9362 9363 1.60897728061 250 122
598 9357 9361 0.78338961525 63 118
599 9329 9360 6.21747547411 250 122
600 9358 9359 12.4947531806 250 122
601 9357 9358 14.6490520746 250 122
602 9355 9356 16.5419675201 250 122
603 9354 9355 20.8653636436 250 122
604 9353 9354 25.9365899265 250 122
605 9352 9353 21.9143493863 250 122
606 9351 9352 24.7592775532 250 122
607 9365 9366 26.9878240546 63 135
608 9322 9323 21.100200046 250 122
609 2972 2814 6.99332556972 60 137
610 9014 9015 34.3608147319 63 140
611 9299 9300 41.9208591755 450 142
612 9300 8464 41.1586293745 450 142
613 8454 9302 38.2859883111 280 142
614 9302 8685 46.1521088255 280 142
615 8690 9304 25.3181670944 225 142
616 9304 9305 10.9396928658 225 142
617 8887 9308 17.9672531567 225 142
618 9308 9309 19.6567273257 225 142
619 9309 9274 18.8816093741 225 142
620 9312 8887 18.7470902815 225 142
621 9305 9312 11.9181191887 225 142
622 8689 8690 14.5584358231 225 142
623 9210 8534 15.3268400195 450 142
624 8580 9210 13.1943628113 450 142
625 9209 9200 3.44650968365 450 142
626 9202 8591 8.24454904799 250 142
627 8592 8590 1.55409298343 250 142
628 9201 9202 5.04986039358 250 142
629 8579 9201 12.6324918367 250 142
630 9200 8580 6.39214682281 450 142
631 9197 9186 19.2378662541 450 142
632 9196 9197 27.5646544149 450 142
633 8826 9196 16.1941773494 450 142
634 9298 9299 43.0232073185 450 142
635 9297 9298 58.0456650926 450 142
636 9296 9297 29.7666124375 450 142
637 9295 9296 3.47104854554 450 142
638 8533 9209 14.0274424256 450 142
639 8591 9223 3.58156530069 250 142
640 9034 9224 2.71758790053 110 140
641 9224 9051 1.44120401059 110 140
642 9023 9225 33.7332908559 110 140
643 9225 9226 31.8447092631 110 140
644 9226 9227 30.6776747645 110 140
645 9227 9228 7.41049971324 110 140
646 9228 9229 5.37516697444 110 140
647 9229 9230 16.5909352663 110 140
648 9230 9231 30.4205342818 110 140
649 8846 9085 17.443984683 180 142
650 9231 9232 2.41876993525 110 140
651 9243 8593 2.21659581336 225 142
652 8461 8462 95.4027738162 450 142
653 8594 9264 0.892672398171 225 142
654 40 35 1.48337217257 60 132
655 35 36 4.50499733567 60 132
656 8642 8726 10.0371824731 225 142
657 8686 8687 19.1029389361 280 142
658 8687 9079 11.7019643648 250 142
659 9274 8691 190.56690659 225 142
660 8653 8637 16.2830029489 225 142
661 8463 9295 5.6239584808 450 142
662 9232 9024 13.1016118858 110 140
663 9085 9070 29.5731183301 180 142
664 2050 9081 8.01022528643 300 123
665 8484 9081 2.29997608698 450 142
666 9041 9042 7.22581656212 63 140
667 9040 9041 21.5868173204 63 140
668 9039 9040 11.6919384618 63 140
669 9038 9039 6.68215130079 63 140
670 9037 9038 11.972124999 63 140
671 9035 9036 2.22937704332 63 140
672 9033 9034 40.8318255899 110 140
673 9032 9033 15.3457105992 110 140
674 9031 9032 13.6441083511 110 140
675 9030 9031 43.466591677 110 140
676 9029 9030 41.357219116 110 140
677 9042 9043 13.4821418178 63 140
678 9028 9029 29.7930367194 110 140
679 9026 9027 20.2234893624 110 140
680 9025 9026 25.3929169658 110 140
681 9024 9025 12.1804658359 110 140
682 9022 9023 15.9569882176 110 140
683 9021 9022 21.5608106763 110 140
684 9020 9021 21.3519339875 110 140
685 9019 9020 20.2596101151 110 140
686 9018 9019 10.8884108115 110 140
687 9017 9018 31.9550232654 110 140
688 9016 9017 6.40173515568 110 140
689 5552 9014 28.6695321373 60 137
690 9027 9028 18.7269556525 110 140
691 9013 2567 10.9756753327 60 137
692 9043 9044 23.3299218389 63 140
693 9045 9046 13.9903542846 63 140
694 4063 8685 2.75720967982 110 140
695 9079 8689 11.324202083 250 142
696 9078 8706 16.9380968953 110 137
697 9077 9078 30.7201354974 110 137
698 9076 9077 20.5875675345 110 137
699 9075 9076 25.9223627204 110 137
700 9074 9075 21.569300638 110 137
701 9073 9074 27.7075386314 110 137
702 8710 9073 8.65616163524 110 137
703 9072 8710 4.88732125596 110 137
704 8703 9072 4.77121024725 110 137
705 8395 9045 22.5757101771 63 140
706 9071 5051 0.00667532769651 180 142
707 9440 9436 19.2674892239 32 135
708 9419 9440 10.3955777134 32 135
709 9438 9439 38.5969162792 32 135
710 9437 9438 44.948544903 32 135
711 9436 9437 11.4258293939 32 135
712 6223 9013 8.79288991156 63 140
713 9050 2816 19.6106859905 63 140
714 9049 9050 18.7711346753 63 140
715 9048 9049 12.1528424259 63 140
716 9047 9048 21.2095167661 63 140
717 9046 9047 6.38861894329 63 140
718 9070 9071 0.001726267631 180 142
719 9321 9322 20.2794341735 250 122
720 9036 9037 18.2307037989 63 140
721 9319 9320 19.1228173925 250 122
722 2859 8827 0.401233124063 180 142
723 8539 8826 14.4025422313 450 142
724 8704 8705 5.18357391829 110 137
725 8706 8707 8.79108027987 110 137
726 8707 8708 18.0935195421 110 137
727 8708 8709 16.1899287832 110 137
728 8705 1160 2.85439962302 85 137
729 8710 8711 4.73431864155 85 137
730 8711 6609 1.41574167893 85 137
731 4543 8712 19.0353481722 60 137
732 8712 6636 23.4128806428 60 137
733 4516 8722 19.4854755395 60 140
734 8722 4526 19.2409308762 60 140
735 4602 8724 6.00332099104 110 132
736 2083 8725 24.0832609301 32 140
737 8725 4505 21.428864086 32 140
738 8726 8609 12.7759649819 225 142
739 8726 8727 37.1433348369 200 142
740 8727 8728 20.8888541096 200 142
741 8779 8780 9.44738905682 180 137
742 8778 8779 0.643342832547 180 137
743 8827 8828 27.1499699376 180 142
744 8777 8778 1.2608350413 180 137
745 8828 8829 28.7199351148 180 142
746 8830 8831 11.3220465468 180 142
747 8851 5127 48.6442898869 60 140
748 5122 8851 4.97465989392 60 140
749 8847 5185 0.362887227966 32 140
750 216 8847 47.7741547199 32 140
751 8845 8846 9.72517079376 180 142
752 8844 8845 26.400647341 180 142
753 8843 8844 39.2159716057 180 142
754 8842 8843 24.5992793595 180 142
755 8841 8842 21.0564529304 180 142
756 8840 8841 27.581583294 180 142
757 8839 8840 35.7459980703 180 142
758 8838 8839 43.0297463275 180 142
759 8837 8838 35.5538633904 180 142
760 8836 8837 34.2766599445 180 142
761 8835 8836 31.2957672858 180 142
762 8834 8835 17.9506098504 180 142
763 8833 8834 18.6170350489 180 142
764 8832 8833 12.508556312 180 142
765 8701 8702 10.5387164777 85 137
766 8702 8703 5.07346552363 85 137
767 8831 8832 8.10181707958 180 142
768 8829 8830 30.6748773425 180 142
769 8776 8777 10.5569941269 180 137
770 8775 8776 9.36083420438 180 137
771 8774 8775 7.33361534259 180 137
772 8750 8751 30.5462490823 200 142
773 8749 8750 32.3801105779 200 142
774 8748 8749 17.9896046094 200 142
775 8747 8748 26.4201809225 200 142
776 8746 8747 33.0268829289 200 142
777 8745 8746 15.9523321178 200 142
778 8744 8745 12.3490932868 200 142
779 8743 8744 16.3777069518 200 142
780 8742 8743 15.1120267664 200 142
781 8741 8742 13.0419419574 200 142
782 8740 8741 9.98089379759 200 142
783 8731 8732 31.0647633827 200 142
784 8732 8733 28.2232536921 200 142
785 8733 8734 24.9913823546 200 142
786 8734 8735 22.9722094067 200 142
787 8735 8736 32.6418962834 200 142
788 8736 8737 20.3432334206 200 142
789 8737 8738 35.0510353622 200 142
790 8738 8739 26.3343543879 200 142
791 9320 9321 20.3876285034 250 122
792 8739 8740 10.9718516664 200 142
793 8730 8731 24.4962543459 200 142
794 8729 8730 24.0844486345 200 142
795 8752 8753 1.00003880929 200 142
796 8754 8752 5.86997754391 200 142
797 8773 8774 7.15199168138 180 137
798 8772 8773 11.6824593727 180 137
799 8771 8772 7.04191167197 180 137
800 8770 8771 14.8015774838 180 137
801 8769 8770 10.6116379974 180 137
802 8768 8769 10.4798115446 180 137
803 8767 8768 14.7847286077 180 137
804 8728 8729 26.5446880747 200 142
805 8766 8767 4.13904167614 180 137
806 8765 8766 1.24634224823 180 137
807 5127 8852 0.663549855041 60 140
808 8764 8765 23.6851120539 180 137
809 8761 8762 51.3913058496 180 137
810 8760 8761 41.7560692712 180 137
811 8759 8760 41.5534339379 180 137
813 8758 8183 9.23142879607 200 120
814 8757 8758 16.0501164643 200 120
815 8756 8757 9.58965635446 200 120
816 8688 6854 1.4780720542 280 142
817 8751 8755 12.6753577469 200 142
818 8755 8754 0.507264871117 200 142
819 8763 8764 24.9767657837 180 137
820 4981 8855 3.85586141494 32 140
821 8762 8763 41.5384914991 180 137
822 4978 8856 3.6376122348 32 135
823 8964 8965 20.9842134241 300 123
824 8963 8964 20.0003507216 300 123
825 8962 8963 20.7683105236 300 123
826 8961 8962 20.7116794343 300 123
827 8960 8961 20.1649560625 300 123
828 8959 8960 20.9976258894 300 123
829 8958 8959 22.9651665137 300 123
830 8957 8958 20.8072160559 300 123
831 8956 8957 20.5327837856 300 123
832 8955 8956 20.3163964575 300 123
833 8954 8955 19.7822931178 300 123
834 8953 8954 20.7338871656 300 123
835 8952 8953 20.6532245669 300 123
836 8695 8696 20.2973212522 85 137
837 8951 8952 19.422869021 300 123
838 8950 8951 20.2100822605 300 123
839 8949 8950 19.9559199242 300 123
840 8948 8949 22.9283449032 300 123
841 8947 8948 18.881826209 300 123
842 8946 8947 21.162617277 300 123
843 8945 8946 20.2963478982 300 123
844 8965 8966 20.1976690981 300 123
845 7660 8945 9.50536401191 300 123
846 8966 8967 20.5073429282 300 123
847 8968 8969 20.0033025274 300 123
848 9317 9318 16.3173720001 250 122
849 9318 9319 21.732217029 250 122
850 5039 8855 4.11637928887 32 140
851 9316 9317 20.5991868769 250 122
852 8983 9316 20.9135307882 250 122
853 8982 8983 16.4330710459 250 122
854 8981 8982 20.428427497 250 122
855 8980 8981 21.398315471 250 122
856 8979 8980 20.3422035429 250 122
857 8978 8979 19.427799649 300 123
858 8977 8978 21.6777094963 300 123
859 8976 8977 20.2975933794 300 123
860 8975 8976 19.6534660563 300 123
861 8974 8975 18.9797484171 300 123
862 8973 8974 20.469858134 300 123
863 8972 8973 20.3194776748 300 123
864 8971 8972 19.7956772052 300 123
865 8970 8971 28.3350004411 300 123
866 8969 8970 14.6665007413 300 123
867 8693 8694 2.9586838286 85 137
868 8694 8695 13.9789299686 85 137
869 8967 8968 19.8980813651 300 123
870 1790 8930 1.34633618778 110 118
871 4699 8693 0.691792946024 85 137
872 3663 8922 0.0695783014302 60 118
873 8878 8879 18.0142750333 32 140
874 4448 8878 15.7786276376 32 140
875 1184 8871 0.789407758655 60 137
876 4589 8875 0.373568734932 60 137
877 8874 4589 21.527643104 60 137
878 8873 8874 26.9336954203 60 137
879 8872 8873 21.9321302432 60 137
880 8871 8872 25.6365502518 60 137
881 4372 8869 3.41493365364 32 140
882 8868 4372 27.9410894681 32 140
883 8879 4261 0.649945798411 32 140
884 4362 8868 8.92673703002 32 140
885 8864 8865 38.6797903217 160 142
886 143 8864 1.07674505804 160 142
887 8863 281 26.0017507876 60 137
888 8862 6968 0.947160582795 32 140
889 8861 8862 17.0750873797 32 140
890 8860 8861 20.9996028767 32 140
891 8921 3662 0.11146479247 60 118
892 8857 4981 0.00733893743796 32 140
893 8859 8860 25.9062797989 32 140
894 8858 4978 3.87164687002 85 132
895 8865 8866 40.1209491902 160 142
896 8881 4448 1.08578234438 32 140
897 8866 8867 15.2789224343 160 142
898 8700 8701 14.2047273816 85 137
899 8917 8915 0.560161583143 100 118
900 8926 8911 1.46511194124 60 132
901 8922 8920 0.352895933148 60 118
902 8887 4600 4.54033401821 225 142
903 8920 8921 0.39821401323 60 118
904 8919 5920 0.791343794204 100 118
905 8915 8916 0.962486882801 100 118
906 8916 8919 0.603433509156 100 118
907 8911 8912 2.0627857374 60 132
908 8906 8907 0.353544905439 100 118
909 8907 3304 0.825896482174 100 118
910 8912 3492 12.2490698429 60 132
911 2745 8901 0.462840414498 200 120
912 2717 8898 0.548470135688 200 120
913 8898 8899 0.624023364784 200 120
914 2720 8896 0.297070294626 200 120
915 8896 8897 0.633469028452 200 120
916 8696 8697 19.5052368609 85 137
917 8699 8700 25.513067339 85 137
918 8698 8699 23.2302100075 85 137
919 8901 1166 8.54964339981 200 120
920 8697 8698 35.1095608768 85 137
921 6486 2447 11.5979377479 85 132
922 6592 242 7.64849639797 110 132
923 1146 6592 4.49607656759 110 132
924 6553 6554 3.64790234102 60 132
925 6550 6551 3.8324487108 60 132
926 6484 6485 20.8626079387 85 132
927 6551 6552 2.97166103883 60 132
928 6549 6550 0.000999999605119 60 132
929 6548 6549 11.1056647874 60 132
930 4148 6548 9.98503537338 60 132
931 6485 6486 14.7704476912 85 132
932 6552 6553 3.47811450359 60 132
933 4630 6554 1.89207733798 110 132
934 4572 6728 12.5037961232 110 132
935 6636 6637 3.13811365267 110 132
936 6637 6638 15.7887169859 110 132
937 6638 4634 40.8657642676 110 132
938 6725 6726 20.2864916905 110 132
939 6726 6727 18.0514448366 110 132
940 6727 4248 8.00984598626 110 132
941 6728 6729 19.9583229121 110 132
942 6729 4602 12.4098451092 110 132
943 3185 6776 43.1900347975 110 132
944 6776 6777 16.8404732712 110 132
945 6777 3190 6.13498533013 110 132
946 6483 6484 23.2152494927 85 132
947 6795 6796 19.4001173711 110 132
948 6794 6795 5.3807405623 110 132
949 6554 6636 3.7217211527 110 132
950 6482 6483 16.8961014728 85 132
951 6279 6273 17.1585412256 110 132
952 6480 6481 15.097092336 85 132
953 5943 5944 6.41518590887 60 132
954 6796 6797 18.5362675855 110 132
955 5273 6082 23.1175401161 75 132
956 6082 2196 18.7209132256 75 132
957 6259 6260 26.1425750067 60 132
958 6260 363 11.7382181363 60 132
959 363 6261 0.543619352276 110 132
960 6261 6262 17.9000251393 110 132
961 6262 6247 24.6823431175 110 132
962 6275 6279 29.4676437756 110 132
963 1421 6455 17.943159054 32 135
964 6455 6456 4.06491159259 32 135
965 6456 6457 3.08503034018 32 135
966 6457 6458 4.64367089404 32 135
967 6458 6459 41.8135521637 32 135
968 6459 6460 0.854615995977 32 135
969 6460 6461 7.48817830974 32 135
970 6461 6462 0.856785533746 32 135
971 6462 6463 0.68770439187 32 135
972 6463 6464 9.47062343502 32 135
973 1423 6465 9.01570906858 32 135
974 6465 6466 26.4175792415 32 135
975 6473 6474 8.58155539491 85 132
976 6474 6475 9.72629107133 85 132
977 6475 6476 19.0524036538 85 132
978 6476 6477 13.9500971327 85 132
979 6477 6478 20.689053724 85 132
980 6478 6479 14.8194004269 85 132
981 6479 6480 10.7752361454 85 132
982 6481 6482 13.8390711398 85 132
983 6797 6798 18.9681555511 110 132
984 7224 7225 13.9470038364 32 135
985 6799 6800 19.1531556149 110 132
986 7177 7178 23.8181495919 60 132
987 7178 7179 24.7208321058 60 132
988 7179 7180 24.8884475206 60 132
989 7180 7181 18.5480980163 60 132
990 7181 7182 22.2627608572 60 132
991 7182 2376 15.5422773757 60 132
992 2376 7183 19.4207506034 60 132
993 7183 2375 22.0415971509 60 132
994 7220 7221 7.49578128047 32 135
995 7221 7222 15.7289393478 32 135
996 7222 7223 20.2527159907 32 135
997 7223 7224 15.4320856009 32 135
998 7225 1322 16.5357395054 32 135
999 1322 7226 13.2764004535 32 135
1000 7226 7227 22.7956117267 32 135
1001 7227 7228 10.1339237216 32 135
1002 7228 7229 21.2976592138 32 135
1003 7229 7230 11.550174371 32 135
1004 7230 7231 21.7665443521 32 135
1005 7231 7232 18.0503818513 32 135
1006 7232 7233 13.4910908755 32 135
1007 7233 7234 26.7272452753 32 135
1008 7234 7235 14.9224149854 32 135
1009 7235 7236 19.4288458229 32 135
1010 7236 7237 17.6915039495 32 135
1011 7237 2380 20.1794327222 32 135
1012 5630 4618 23.7892343351 110 132
1013 7176 7177 23.4095405549 60 132
1014 6798 6799 18.2166476053 110 132
1015 7175 7176 13.444302028 60 132
1016 7173 7174 21.3972311529 60 132
1017 6800 6801 18.8420038213 110 132
1018 6801 6802 18.0748528621 110 132
1019 6802 6803 20.0353875932 110 132
1020 6803 6804 18.9234791991 110 132
1021 6804 6805 18.6902380934 110 132
1022 6805 6806 18.5693659557 110 132
1023 6806 6807 9.98450384385 110 132
1024 6807 6808 11.61734307 110 132
1025 6808 6809 8.62658402933 110 132
1026 6809 6810 4.9387230459 110 132
1027 3985 6854 21.0377700812 110 132
1028 2917 6855 10.9899219744 60 132
1029 4066 6856 19.4342464004 60 132
1030 6856 6855 23.0877683371 60 132
1031 3491 7016 1.71368521051 110 132
1032 6810 7081 2.27818646509 110 132
1033 7081 7082 10.9582423784 110 132
1034 2374 7162 3.48610068702 60 132
1035 7162 7163 24.7219001295 60 132
1036 7163 7164 27.4756200473 60 132
1037 7164 7165 21.2650376211 60 132
1038 7165 7166 17.98182385 60 132
1039 7166 7167 18.9693914504 60 132
1040 7167 7168 26.1244579854 60 132
1041 7168 7169 21.8314491043 60 132
1042 7169 7170 19.4563616842 60 132
1043 7170 7171 19.9284083665 60 132
1044 7171 7172 18.485674048 60 132
1045 7172 7173 17.5385149881 60 132
1046 7174 7175 24.540662419 60 132
1047 4633 5630 13.2291246098 110 132
1048 4065 2918 18.1706950882 60 132
1049 5557 5558 23.7705325138 150 108
1050 2452 2453 16.0080994809 60 135
1051 2451 2452 19.7226065722 60 135
1052 2450 2451 19.5766157705 60 135
1053 2449 2450 15.6723670827 60 135
1054 2448 2449 15.4437276917 60 135
1055 2447 2448 13.3769137319 60 135
1056 2444 2445 24.1506641107 85 132
1057 2443 2444 22.1892512041 85 132
1058 2442 2443 26.9958321411 85 132
1059 2435 2436 23.5894909861 32 135
1060 2434 2435 20.9118378201 32 135
1061 2433 2434 21.9130191894 32 135
1062 2432 2433 22.1965636301 32 135
1063 2431 2432 18.5772054947 32 135
1064 2430 2431 17.6964121226 32 135
1065 2429 2430 18.6078858823 32 135
1066 2428 2429 34.6313225271 32 135
1067 2453 2454 16.6580078342 60 135
1068 2427 2428 16.1350801985 32 135
1069 2454 2397 20.0229318532 60 135
1070 2455 2456 18.1885916448 60 135
1071 2904 2890 17.3038983122 110 132
1072 2903 2904 14.103932077 110 132
1073 2902 2903 6.74135143779 110 132
1074 2893 2891 11.6961355838 110 132
1075 2891 2892 1.34704750132 110 132
1076 2890 2891 0.386424895337 110 132
1077 2874 2875 8.86726216281 200 135
1078 2873 2874 15.4026680112 200 135
1079 2872 2873 11.3962879856 200 135
1080 537 2763 166.963035406 200 110
1081 2744 2745 25.6920136602 200 110
1082 2743 2744 24.8958978242 200 110
1083 2742 2743 32.0503424169 200 110
1084 2741 2742 23.9620228478 200 110
1085 121 2741 9.48034118395 200 110
1086 2624 673 0.986582485138 150 108
1087 2623 2624 41.3691412037 150 108
1088 2397 2455 21.4859667922 60 135
1089 2426 2427 5.49071070125 32 135
1090 2425 2426 3.28858176053 32 135
1091 2424 2425 6.85592896688 32 135
1092 2378 2379 4.57370330748 32 135
1093 2397 2398 9.77156896348 32 135
1094 2398 2399 14.2884284646 32 135
1095 2399 2400 20.0599521434 32 135
1096 2400 2401 11.9850795575 32 135
1097 2401 2402 15.2810014397 32 135
1098 2412 2413 10.3746237033 32 135
1099 2411 2412 9.415770282 32 135
1100 2402 2403 15.5997406709 32 135
1101 2403 2404 10.5279092891 32 135
1102 2404 2405 20.3196612669 32 135
1103 2405 2406 16.8228731197 32 135
1104 2406 2407 22.8273609955 32 135
1105 2410 2411 18.8256413707 32 135
1106 2409 2410 27.3277211813 32 135
1107 2408 2409 21.2423739261 32 135
1108 2407 2408 22.8870769646 32 135
1109 2377 2378 111.963784881 32 135
1110 2376 2377 138.873073002 32 135
1111 2375 1370 12.9871028339 32 135
1112 7698 7699 43.504279791 63 140
1113 2423 2424 11.6229470455 32 135
1114 2422 2423 27.807947155 32 135
1115 2421 2422 19.6716799743 32 135
1116 2420 2421 25.8042385661 32 135
1117 2419 2420 13.0150501339 32 135
1118 2418 2419 16.9602578108 32 135
1119 2417 2418 28.4857292346 32 135
1120 2416 2417 18.2659707919 32 135
1121 2892 2908 1.83368024788 110 132
1122 2415 2416 18.0863106246 32 135
1123 2413 2414 9.45000582032 32 135
1124 2271 2272 22.3320965427 300 112
1125 2272 2273 19.9320266154 300 112
1126 2273 2274 21.534930346 300 112
1127 2274 2275 11.3975127254 300 112
1128 2275 2276 11.1667893464 300 112
1129 2276 2277 26.1366226586 300 112
1130 2374 869 31.3041456202 85 132
1131 2414 2415 18.1718843276 32 135
1132 5558 5551 17.5692768215 150 108
1133 2914 2915 0.891156086041 110 132
1134 2916 2917 6.51900682697 60 132
1135 5113 5114 11.2464786046 32 135
1136 5112 5113 17.4743987595 32 135
1137 5111 5112 15.6279295442 32 135
1138 5104 3761 5.10563130847 60 132
1139 5103 5104 14.6053644491 60 132
1140 5102 5103 30.1886188346 60 132
1141 5101 5102 57.1114925252 60 132
1142 5100 5101 42.5180285163 60 132
1143 5099 5100 11.6072306691 60 132
1144 5096 5099 7.48320621473 60 132
1145 5042 5036 38.62245693 32 135
1146 5041 5042 22.9384906844 32 135
1147 5040 5041 9.61149958888 32 135
1148 5039 5040 3.32555775902 32 135
1149 4980 4981 4.12941444959 85 132
1150 4979 4980 39.5300313184 85 132
1151 4852 3998 3.25435120582 60 132
1152 5114 5108 9.43161969109 32 135
1153 4851 4852 16.3533523315 60 132
1154 5178 5179 21.9260767494 85 132
1155 5180 212 11.7544552594 85 132
1156 2196 5557 21.5048954657 150 108
1157 5556 673 21.1974320383 150 108
1158 5551 5556 16.1297663028 150 108
1159 5555 2621 9.59614276638 75 107
1160 5554 5555 19.8211609398 75 107
1161 498 5554 26.7974814486 75 107
1162 5552 5553 6.77218458056 150 108
1163 5551 5552 5.39223682729 150 108
1164 5349 5350 0.544518135558 110 135
1165 5222 5349 33.3213179377 110 135
1166 5349 5225 12.5919061299 110 135
1167 4991 5247 2.96366327317 110 135
1168 4945 5247 11.1753759401 110 135
1169 5214 5013 5.51075370841 60 132
1170 5213 5214 19.6487567223 60 132
1171 5212 5213 11.0349505428 60 132
1172 118 5212 8.37922434679 60 132
1173 5179 5180 10.2734741646 85 132
1174 4850 4851 301.797139417 60 132
1175 4739 4740 39.341808962100004 60 132
1176 4738 4739 24.0762364973 60 132
1177 4468 4469 21.0036592048 110 132
1178 4467 4468 11.8448101464 110 132
1179 4466 4467 17.7619602925 110 132
1180 4465 4466 11.9938801358 110 132
1181 4306 1172 12.8711368312 110 132
1182 2875 4306 7.22376084408 110 132
1183 4301 4302 16.0666180676 110 132
1184 4300 4301 12.1911252268 110 132
1185 4247 4248 13.3140262448 110 132
1186 1427 4247 12.6648087627 110 132
1187 4067 4068 20.7079022847 60 132
1188 4066 4067 27.2481070165 60 132
1189 4064 4065 14.8229124332 60 132
1190 4063 4064 17.7672424987 60 132
1191 3998 3999 2.33644010417 60 132
1192 1160 3998 5.81296255119 60 132
1193 2908 2914 7.15108158627 110 132
1194 4469 4470 21.4100215087 110 132
1195 4470 4471 14.3132115545 110 132
1196 4471 4472 16.2852951151 110 132
1197 4602 4562 17.2048039636 110 132
1198 4638 4630 2.84779234641 110 132
1199 4637 4638 13.4967329501 110 132
1200 4636 4637 22.0413456877 110 132
1201 4635 4636 17.4783478122 110 132
1202 4152 4635 7.46658156379 110 132
1203 4632 4633 23.7962582801 110 132
1204 4631 4632 15.2039714163 110 132
1205 4630 4631 8.76715123724 110 132
1206 2915 2916 0.595638312474 60 132
1207 4619 4606 2.43257177887 110 132
1208 4610 4603 3.29723717257 110 132
1209 4609 4610 0.000984884958176 110 132
1210 4608 4609 12.5500208873 110 132
1211 4607 4608 0.00304630908132 110 132
1212 4606 4607 21.2434354524 110 132
1213 4605 4572 7.02132397859 110 132
1214 4604 4605 25.1460987768 110 132
1215 4603 4604 9.28403360671 110 132
1216 4618 4619 6.76307099224 110 132
1217 7700 7698 44.4475299128 63 140
1218 7897 7898 5.89180266166 90 140
1219 7702 7701 16.3281050397 63 140
1220 7945 7946 3.95999999996 160 142
1221 7944 7945 28.7677000007 160 142
1222 7942 7943 54.5054008107 63 140
1223 7939 7941 96.4912 160 142
1224 7939 7940 18.7619000003 160 142
1225 7933 7938 85.9009065974 75 140
1226 7936 7937 47.7560000001 75 140
1227 7934 7935 3.80962286874 90 140
1228 7932 7933 221.315400001 75 140
1229 7930 7931 1.21020000055 90 140
1230 7929 7924 15.8437999999 90 140
1231 7924 7897 16.6042999998 90 140
1232 7929 7930 0.655899999663 90 140
1233 7928 7901 36.8015999999 63 140
1234 7920 7927 39.0244000005 150 142
1235 7925 7926 104.6366 160 142
1236 7879 7925 22.2947000004 160 142
1237 7946 7940 0.0400079992289 160 142
1238 7923 7924 1.57279999927 125 140
1239 7937 7938 318.051386407 75 140
1240 7932 7944 48.1461999994 160 142
1241 7962 7963 7.57060000021 125 140
1242 7953 7961 14.6606000001 100 137
1243 7959 7960 99.0533000265 125 140
1244 7955 7959 3.96000000123 125 140
1245 7932 7958 247.475199999 63 140
1246 7750 7957 247.475199999 63 140
1247 7954 7950 38.2714999998 125 140
1248 7955 7956 9.99998301268e-05 125 140
1249 7954 7955 27.4667092985 125 140
1250 7947 7953 97.7890999997 150 140
1251 7952 7750 33.7112000007 160 142
1252 7943 7935 46.7905000001 90 140
1253 7935 7951 105.021 90 140
1254 7949 7950 30.458100693 125 140
1255 7948 7949 256.135500082 125 140
1256 7916 7948 2.31680026128 125 140
1257 7947 7914 32.6405001983 150 140
1258 7944 7943 80.4669000003 160 142
1259 7900 7923 122.892700001 125 140
1260 7922 7900 22.0960999997 90 140
1261 7899 7921 7.57050000038 125 140
1262 7896 7885 33.3023999995 63 140
1263 7895 7894 242.4206 63 140
1264 7886 7895 35.2216999996 63 140
1265 7894 7883 35.2215999998 63 140
1266 7893 7881 33.2040999997 63 140
1267 7878 7868 133.7753 63 140
1268 7871 7884 32.1415999997 160 142
1269 7885 7892 136.594099999 75 140
1270 7891 7871 0.82620000001 60 137
1271 7890 7891 0.74489999935 60 137
1272 7887 7888 18.8997 75 140
1273 7888 7889 340.4316 75 140
1274 7870 7888 133.836700001 63 140
1275 7869 7887 123.662118001 75 140
1276 7883 7886 242.4206 63 140
1277 7884 7885 136.229900001 75 140
1278 7882 7883 19.9534999998 63 140
1279 7892 7889 133.836700001 63 140
1280 7899 7900 16.6151000001 125 140
1281 7901 7902 9.28759999946 63 140
1282 7902 7903 4.50000641777 110 137
1283 7918 7908 256.1751 63 140
1284 7918 7901 138.861500001 63 140
1285 7919 7920 95.7420128475 150 142
1286 7915 7919 4.04710054492 150 142
1287 7918 7912 38.7577 63 140
1288 7904 7909 235.9793 63 140
1289 7917 7916 18.5293059913 125 140
1290 7911 7906 3.37160000019 63 140
1291 7963 7960 1.41079999972 125 140
1292 7910 7916 4.17709999997 63 140
1293 7876 7915 26.1605000002 150 140
1294 7913 7914 253.359500026 150 140
1295 7904 7912 20.1957 63 140
1296 7910 7911 0.884999999776 63 140
1297 7909 7906 5.25710000005 63 140
1298 7907 7908 3.95840654798 63 140
1299 7906 7907 29.5422008532 63 140
1300 7904 7905 0.46190000046 63 140
1301 7915 7913 0.0516999997199 150 140
1302 7861 7873 18.4731999999 250 140
1303 7964 7965 4.8245000001 90 140
1304 7968 7969 258.437799999 75 140
1305 8435 5602 67.2099631071 85 132
1306 8434 8435 18.2155285404 85 132
1307 2893 8434 8.39286956867 85 132
1308 2270 2271 21.2107469219 300 112
1309 31 8227 10.9046365998 60 135
1310 34 8218 10.9239751924 60 135
1311 7789 9059 125.631900212 160 142
1312 8227 8218 6.3756002305 60 135
1313 9059 9153 4.50000001 160 142
1314 7917 7873 0.462100096571 125 140
1315 7882 7870 0.879599999636 63 140
1316 7936 7951 0.412000000477 75 140
1317 7921 7926 1.41089999955 125 140
1318 7716 7999 0.64980613258 63 140
1319 7715 7716 0.0241847063208 63 140
1320 7736 7731 0.437701381883 160 142
1321 8006 7748 1.65297669991 150 140
1322 8893 2442 11.4340068663 85 135
1323 8005 7739 10.5571999997 150 140
1324 2447 8893 3.21424143377 85 135
1325 8892 1763 15.201899092 60 132
1326 8787 8788 0.000199999660254 85 137
1327 8788 8789 9.18189871506 85 137
1328 8789 8790 9.44553333553 85 137
1329 8790 8791 14.513339967 85 137
1330 8791 8792 6.97412646913 85 137
1331 8792 8793 14.9872932849 85 137
1332 8793 8794 8.091950197 85 137
1333 8794 8795 15.6851443411 85 137
1334 8795 8796 15.5020838523 85 137
1335 8796 8797 15.5020838523 85 137
1336 8797 8798 15.5020838522 85 137
1337 8798 8799 15.5020838525 85 137
1338 8799 8800 15.5020838522 85 137
1339 8800 8801 15.5020838524 85 137
1340 8801 1721 15.5020838522 85 137
1341 2373 2374 10.5156539023 85 132
1342 2445 8892 14.2565962983 85 135
1343 7740 7800 285.6383 150 140
1344 8003 8004 30.3596000001 63 140
1345 7800 8003 128.1015 150 142
1346 7984 7982 62.9309000309 63 140
1347 7981 7983 63.0396999996 63 140
1348 7981 7982 19.5065034259 63 140
1349 7980 7978 1.77937205221 63 140
1350 7978 7979 1.94613728703 63 140
1351 7952 7932 2.31680000015 160 142
1352 7977 7975 36.5129112014 125 140
1353 7976 7977 3.94430000089 125 140
1354 7944 7976 3.22279999964 125 140
1355 7969 7951 30.2899009287 75 140
1356 7975 7972 87.6233999999 125 140
1357 7974 7971 30.3980004797 125 140
1358 7973 7974 3.96000368178 125 140
1359 7972 7973 14.4199000001 125 140
1360 7971 7970 17.8015000001 125 140
1361 7970 7964 20.2703999998 125 140
1362 7964 7966 33.4948000005 125 140
1363 7983 7985 81.3385999994 63 140
1364 7984 7983 19.5042000003 63 140
1365 7968 7984 176.669 75 140
1366 7980 7986 39.9053311948 63 140
1367 7793 7838 208.0 150 140
1368 7777 7750 0.474499999546 160 142
1369 7777 8002 0.838900000788 160 142
1370 8001 7780 0.533983566807 200 140
1371 7997 8000 1.49980000274 63 140
1372 7998 7999 1.51687057521 63 140
1373 7892 7997 1.5 63 140
1374 7993 7991 125.3902 125 140
1375 7966 7967 1.64350292388 85 137
1376 7884 7992 136.0614 160 142
1377 7994 7995 2.04450299568 90 140
1378 7994 7991 16.5926000001 90 140
1379 7992 7993 16.6151999999 125 140
1380 7991 7990 12.6920000007 90 140
1381 7990 7988 2.1325000003 90 140
1382 7988 7989 4.27439999953 90 140
1383 7987 7986 81.5126999998 63 140
1384 7980 7985 136.484760088 63 140
1385 7996 7993 22.0959999999 90 140
1386 7872 7881 131.140600001 200 140
1387 7881 7880 117.499910851 200 140
1388 7880 7879 18.7002000008 200 140
1389 7766 7767 3.9645000007 125 140
1390 7763 7766 14.4020999996 125 140
1391 7761 7765 16.5846000006 125 140
1392 7765 7758 19.9374000002 125 140
1393 7758 7764 5.00339999981 90 140
1394 7744 7763 88.5546999993 125 140
1395 7762 7760 0.461500000209 85 137
1396 7760 7761 3.0803999994 125 140
1397 7759 7753 129.7598 160 142
1398 7758 7754 33.9595999997 90 140
1399 7757 7751 1.41089999955 90 140
1400 7756 7757 37.3003000002 90 140
1401 7754 7755 1.83990000002 90 137
1402 7752 7753 1.41089999955 125 140
1403 7751 7752 7.57050000038 125 140
1404 7750 7747 273.767200001 63 140
1405 7738 7749 642.6585 150 140
1406 7767 7760 27.6639 125 140
1407 7748 7737 48.0897191035 150 140
1408 7768 7769 17.1308000004 90 140
1409 7771 7772 4.50000641777 110 137
1410 7790 7791 11.9630000005 150 140
1411 7789 7781 3.25040000025 160 142
1412 7786 7781 0.599500000477 160 142
1413 7783 7788 22.6122000003 90 140
1414 7786 7787 102.1053 160 142
1415 7768 7783 124.7192 125 140
1416 7785 7768 17.1308999993 90 140
1417 7784 7769 3.74340000004 90 140
1418 7782 7783 16.0988999996 125 140
1419 7781 7778 32.050315677 160 142
1420 7780 7778 27.2486102205 160 142
1421 7778 7779 255.420799999 125 140
1422 7777 7759 278.354750685 160 142
1423 7728 7776 467.074899999 160 142
1424 7775 7773 2.75810000021 160 142
1425 7774 7773 23.9634387591 160 142
1426 7773 7759 37.3769605899 160 142
1427 7770 7771 6.80439999979 63 140
1428 7747 7733 15.2091884043 63 140
1429 7746 7718 2.20550065534 63 140
1430 7745 7746 3.95999999996 63 140
1431 7721 7722 0.0163012271938 125 140
1432 7719 7720 2.96733445672 125 140
1433 7717 7718 52.4602524272 63 140
1434 7716 7717 0.0252794381918 63 140
1435 7715 7714 231.664334194 63 140
1436 7714 7699 93.0849124424 63 140
1437 7699 7713 92.9792935858 90 140
1438 7713 7712 10.9768653309 90 140
1439 7712 7711 14.320910143 90 140
1440 7711 7710 17.8317059338 90 140
1441 7710 7709 11.6363369722 90 140
1442 7709 7708 12.8755305627 90 140
1443 7708 7707 18.7535622782 90 140
1444 7707 7704 16.8869589168 90 140
1445 7705 7706 21.6924005763 90 140
1446 7704 7705 120.123003148 90 140
1447 7703 7702 33.8739785505 63 140
1448 7722 7723 16.5993615219 125 140
1449 7723 7724 7.57060000021 125 140
1450 7724 7725 1.41080000065 125 140
1451 7726 7723 1.43349999934 90 140
1452 7733 7745 25.4471000563 63 140
1453 7730 7744 44.5499 125 140
1454 7743 7727 21.7915028785 160 142
1455 7742 7743 3.95999999996 160 142
1456 7725 7742 102.63750061 160 142
1457 7741 7732 31.1332999999 63 140
1458 7739 7740 130.371599999 150 140
1459 7737 7738 330.064200001 150 140
1460 7792 7790 99.2034 150 140
1461 7736 7734 15.4499000004 160 142
1462 7734 7732 99.2848000005 75 140
1463 7732 7733 134.2014 75 140
1464 7731 7730 0.437701141994 160 142
1465 7730 7727 18.841 160 142
1466 7706 7729 30.1072426894 160 142
1467 7728 7729 285.779300232 160 142
1468 7706 7727 32.1584453381 160 142
1469 7721 7719 128.5981 125 140
1470 7735 7734 2.2220999999 75 140
1471 7793 7794 28.4970999993 150 140
1472 7795 7770 6.44160000049 63 140
1473 7782 7787 8.98139999993 125 140
1474 7855 7856 3.96005220434 160 142
1475 7854 7855 9.03288977278 160 142
1476 7853 7854 22.0857999995 200 140
1477 7852 7853 1.34990000073 200 140
1478 7847 7851 59.4499470153 200 140
1479 7851 7850 47.9516898947 200 140
1480 7850 7803 94.499557196 300 140
1481 7849 7850 56.8695 300 140
1482 7848 7849 1.7901999997 300 140
1483 7828 7846 6.94497468481 200 140
1484 7846 7847 44.8938500557 200 140
1485 7780 7804 280.95 200 140
1486 7806 7845 24.4638 300 140
1487 7839 7844 0.492204063581 160 142
1488 7844 7843 229.469599999 160 142
1489 7841 7843 0.531500000507 160 142
1490 7841 7842 0.753999999724 160 142
1491 7856 7832 118.255700187 160 142
1492 7857 7858 16.6148999995 90 140
1493 7859 7858 3.74340000004 90 140
1494 7860 7857 17.0585000003 90 140
1495 7879 7878 28.7109999992 200 140
1496 7878 7874 5.39400000032 200 140
1497 7877 7874 1.20799999963 200 140
1498 7875 7876 123.4228 150 140
1499 7867 7875 9.19891174561 150 140
1500 7873 7874 31.6200841411 200 140
1501 7872 7870 14.2963379539 200 140
1502 7870 7871 35.4660999998 200 140
1503 7839 7840 0.793300000019 160 142
1504 7868 7869 167.786101442 75 140
1505 7813 7867 176.598947848 150 142
1506 7833 7866 11.0948000001 75 140
1507 7845 7865 126.7393 160 142
1508 7862 7864 16.6149000004 125 140
1509 7864 7865 8.98139999993 125 140
1510 7863 7857 0.434499999508 125 140
1511 7862 7863 122.893300001 125 140
1512 7845 7861 260.0431 250 140
1513 7868 7827 60.4342005164 200 140
1514 7701 7700 20.5791653116 63 140
1515 7838 7837 14.7641554403 150 140
1516 7836 7835 15.1435055387 150 140
1517 7814 7812 4.47162103923 150 140
1518 7812 7813 4.548464032 150 140
1519 7811 7810 8.14539674955 200 140
1520 7810 7808 37.7151581354 200 140
1521 7808 7809 7.14809527126 200 140
1522 7807 7806 1.03839999996 300 140
1523 7806 7805 4.94469999988 300 140
1524 7804 7805 1.99400169503 300 140
1525 7803 7804 14.9186126142 300 140
1526 7801 7802 7.71676629779 150 140
1527 7800 7793 284.3515 150 140
1528 7749 7799 2.85100000072 150 140
1529 7774 7728 0.913813679252 160 142
1530 7798 7796 45.5171999997 63 140
1531 7797 7798 3.95949999988 63 140
1532 7770 7797 45.3441000003 63 140
1533 7796 7779 50.0279000002 125 140
1534 7815 7814 4.94488473102 150 140
1535 7816 7815 5.22101430736 150 140
1536 7817 7816 21.4424773508 150 140
1537 7818 7817 15.9197499895 150 140
1538 7834 7835 126.806521886 150 140
1539 7834 7802 36.2397710435 150 140
1540 7801 7833 19.837520473 150 140
1541 7824 7801 9.13801042049 150 140
1542 7832 7829 29.0117512952 160 142
1543 7830 7831 17.2132443978 160 142
1544 7831 7776 14.7299859036 160 142
1545 7829 7830 13.851491537 160 142
1546 7837 7836 17.6489599493 150 140
1547 7828 7825 73.7591684568 200 140
1548 7826 7811 6.05090956972 200 140
1549 7809 7825 4.30855309013 200 140
1550 7824 7823 86.1825999999 150 140
1551 7823 7822 43.4251812521 150 140
1552 7822 7821 7.29670687698 150 140
1553 7821 7820 73.5946252461 150 140
1554 7820 7819 4.96546148493 150 140
1555 7819 7818 4.05083898903 150 140
1556 7827 7826 119.7905 200 140
1557 2269 2270 21.0208118302 300 112
1558 0 1 7.01907138398 60 135
1559 1271 1272 21.0917160282 110 132
1560 1780 1781 21.1096801024 32 135
1561 1781 1782 16.0093824054 32 135
1562 1270 1271 34.8570000572 110 132
1563 1272 1273 19.6773209558 110 132
1564 28 29 95.833586788 60 135
1565 1764 1765 22.4251224304 32 135
1566 1763 1764 19.7785978518 32 135
1567 2084 2085 16.9752013391 110 132
1568 2083 2084 2.21159195363 110 132
1569 29 30 114.644118964 60 135
1570 30 31 0.144043917202 60 135
1571 33 34 235.674230039 60 135
1572 37 38 10.4952662668 200 110
1573 0 28 121.914130315 60 135
1574 673 674 7.3208896313 150 108
1575 674 675 0.676412241184 150 108
1576 39 28 2.20843836209 60 135
1577 1779 1780 19.9843138485 32 135
1578 1778 1779 20.0877157734 32 135
1579 1777 1778 24.5990870764 32 135
1580 1765 1766 26.1019173625 32 135
1581 1423 1424 13.4523399454 60 132
1582 1424 1297 38.2830692207 60 132
1583 1775 1776 21.8070973077 32 135
1584 1774 1775 15.421387908 32 135
1585 1773 1774 20.8755978353 32 135
1586 1772 1773 17.3847230924 32 135
1587 497 498 1.16580358612 75 107
1588 23 24 0.488575940849 32 137
1589 39 41 9.00192269717 60 135
1590 24 25 0.731676787085 32 137
1591 1771 1772 12.4065547192 32 135
1592 1770 1771 30.2611333733 32 135
1593 26 27 76.4680844397 32 137
1594 1769 1770 20.4502035439 32 135
1595 1768 1769 19.4993539635 32 135
1596 1767 1768 18.936117448 32 135
1597 2196 497 7.03671244253 75 132
1598 1766 1767 23.9369935664 32 135
1599 25 26 0.732240950818 32 137
1600 1296 1297 31.3273041929 110 132
1601 1295 1296 20.0607978407 110 132
1602 1294 1295 24.6086979954 110 132
1603 1273 1274 36.1386395559 110 132
1604 1624 1625 4.15197603509 150 108
1605 1623 1624 6.39873870422 150 108
1606 1622 1623 6.73372712521 150 108
1607 1621 1622 6.92025956492 150 108
1608 365 366 247.076667301 75 107
1609 364 365 14.2509814749 75 107
1610 363 364 5.875939414 75 107
1611 1274 1275 16.9814381315 110 132
1612 238 239 6.02187261918 110 132
1613 240 241 14.1393024081 110 132
1614 241 242 4.00565585197 110 132
1615 112 113 17.5173703196 60 132
1616 113 114 42.0111567988 60 132
1617 114 115 87.9284976076 60 132
1618 363 1790 2.04338689671 110 132
1619 1160 1161 10.9142300737 60 132
1620 1145 1146 4.70083620272 110 132
1621 239 240 9.5246184053 110 132
1622 1422 1423 15.5400953017 60 132
1623 1275 1276 28.2361787255 110 132
1624 1277 1278 26.7556153356 110 132
1625 1293 1294 20.3375934173 110 132
1626 1292 1293 21.9751557897 110 132
1627 1291 1292 65.3027629105 110 132
1628 1290 1291 13.7846565488 110 132
1629 1289 1290 52.8677466331 110 132
1630 1288 1289 15.5054675841 110 132
1631 1287 1288 17.0872181754 110 132
1632 691 692 0.582825016996 110 107
1633 1276 1277 38.6296681964 110 132
1634 692 693 15.6867699991 110 107
1635 1285 1286 22.7720405979 110 132
1636 1284 1285 16.1870069499 110 132
1637 1283 1284 28.6274619377 110 132
1638 1282 1283 25.3679774522 110 132
1639 1281 1282 35.723721223 110 132
1640 1280 1281 25.0190079933 110 132
1641 1279 1280 25.8910695227 110 132
1642 1278 1279 38.4710852718 110 132
1643 1286 1287 14.1898397812 110 132
1644 1421 1422 34.1687614648 60 132
1645 32 33 18.9985763554 60 135
1646 1420 1421 1.74141465426 60 132
1647 9 10 2.2154000001 60 135
1648 22 23 0.973381374753 32 137
1649 1371 1372 19.9270720379 60 132
1650 11 12 4.3618303033 60 135
1651 12 13 2.96393469944 60 135
1652 1370 1371 19.8344326107 60 132
1653 1390 1391 18.7064855595 60 132
1654 1391 1392 6.36709352883 60 132
1655 13 14 2.21185544279 60 135
1656 14 15 2.8814384061 60 135
1657 1392 1393 6.26562151758 60 132
1658 1393 1394 13.0259780825 60 132
1659 1394 1395 21.4541127521 60 132
1660 1395 1396 16.1910839663 60 132
1661 1396 1397 22.4311030713 60 132
1662 1397 1398 31.4797271274 60 132
1663 1398 1399 23.0351188624 60 132
1664 1399 1400 24.7900949977 60 132
1665 1400 1401 27.5192824213 60 132
1666 1401 1402 22.9901534798 60 132
1667 1402 1403 27.5088945981 60 132
1668 1372 1373 33.3680411925 60 132
1669 1373 1374 17.3018626161 60 132
1670 8 9 3.53339902252 60 135
1671 7 8 2.51774879753 60 135
1672 1389 1390 18.2509836444 60 132
1673 1388 1389 16.8142227 60 132
1674 1387 1388 9.67034606467 60 132
1675 1386 1387 8.81924543353 60 132
1676 1385 1386 18.0246851284 60 132
1677 1384 1385 19.5659056785 60 132
1678 1383 1384 28.6244504226 60 132
1679 1382 1383 74.403983206 60 132
1680 1 2 2.97421693925 60 135
1681 2 3 3.00453306769 60 135
1682 1403 1404 17.0855080402 60 132
1683 1381 1382 24.6742773956 60 132
1684 1379 1380 23.6271088795 60 132
1685 3 4 1.77501289306 60 135
1686 1378 1379 30.2043413103 60 132
1687 4 5 5.07442736236 60 135
1688 5 6 3.28401313278 60 135
1689 6 7 2.51014924893 60 135
1690 1377 1378 27.804644594 60 132
1691 1376 1377 24.0994037477 60 132
1692 1375 1376 27.256654674 60 132
1693 1374 1375 18.8746189365 60 132
1694 1380 1381 16.0812358983 60 132
1695 1404 1405 22.4237763321 60 132
1696 10 11 1.08807255761 60 135
1697 1408 1409 20.081415189 60 132
1698 1416 1417 6.1334363126 60 132
1699 1407 1408 18.8146477512 60 132
1700 1418 1419 8.28032197373 60 132
1701 1414 1415 16.3340183974 60 132
1702 1413 1414 25.998294175 60 132
1703 1412 1413 28.11933815 60 132
1704 1417 1418 16.436964805 60 132
1705 1411 1412 28.6386784958 60 132
1706 20 21 0.731618616145 32 137
1707 21 22 0.488536794502 32 137
1708 1419 1420 7.43137248511 60 132
1709 19 20 0.99452884343 32 137
1710 1415 1416 8.19154350513 60 132
1711 15 16 3.46526265799 60 135
1712 1409 1410 17.1843582653 60 132
1713 1405 1406 19.5544851636 60 132
1714 1776 1777 22.6510372615 32 135
1715 17 18 91.026355527 60 135
1716 16 17 3.2870409589 60 135
1717 18 19 0.975756116917 32 137
1718 1410 1411 24.3216484845 60 132
1719 1406 1407 18.875149006 60 132
1720 3428 3429 46.8999489168 60 135
1721 3432 3430 144.656861579 60 135
1722 3428 3431 109.953852469 60 135
1723 3429 3427 144.760543551 60 135
1724 3430 3427 110.188997001 85 135
1725 3433 3434 57.0223011333 85 135
1726 3431 3432 59.3751201124 60 135
1727 3434 3435 116.031109051 85 135
1728 3525 3526 19.3862716889 60 135
1729 3437 3430 94.9189714703 85 135
1730 3449 3450 23.439507781 85 135
1731 3447 3448 401.427365775 60 135
1732 3405 3446 400.300080672 60 135
1733 3518 3519 25.882312899 60 135
1734 3519 3520 18.1302196626 60 135
1735 3520 3521 19.2852390442 60 135
1736 3521 3522 22.9361832042 60 135
1737 3444 3445 0.0300467968118 60 135
1738 3435 3436 28.8267974038 85 135
1739 3442 3444 20.9500000061 60 135
1740 3443 3442 60.8941696372 60 135
1741 3441 3442 26.0492029995 110 135
1742 3440 3441 293.418432847 110 135
1743 978 980 111.477275584 60 135
1744 978 3440 104.439460621 60 135
1745 3439 3431 58.9073931832 60 135
1746 3438 3439 49.3702054767 60 135
1747 3523 3524 20.819489739 60 135
1748 976 3443 44.4999826141 60 135
1749 3522 3523 25.2629314613 60 135
1750 3427 3426 51.0301814367 85 135
1751 3450 3451 21.4919317422 85 135
1752 3405 3406 114.797602727 60 135
1753 3405 3404 105.774471295 60 135
1754 3403 3404 14.3062370659 60 135
1755 3402 3403 94.7296154227 60 135
1756 3401 3402 15.5716058674 60 135
1757 3400 970 14.0000461039 60 135
1758 3399 3400 50.000126034 60 135
1759 3391 3399 409.800167232 50 135
1760 3397 3398 8.39908803194 60 135
1761 3406 3407 12.7088708064 60 135
1762 2099 1429 104.89645369 60 135
1763 3395 3396 301.453204202 60 135
1764 3383 3395 15.4120323752 60 135
1765 3394 2099 368.765790905 60 135
1766 3386 3394 24.4381571033 60 135
1767 3393 1462 6.71113386848 60 135
1768 3392 3393 23.4423334011 60 135
1769 3391 3392 31.3719682308 60 135
1770 3390 1462 33.4636035342 60 135
1771 3389 3390 232.285407346 60 135
1772 3396 1429 77.7847896074 60 135
1773 3428 3421 105.519672027 60 135
1774 3408 3409 27.1122523852 60 135
1775 3410 3407 26.7777173533 60 135
1776 3425 3426 11.9993551934 110 135
1777 3425 1461 9.66571068659 60 135
1778 1462 971 4.39994997879 60 135
1779 3422 3424 7.50051538624 60 135
1780 3424 3425 33.7004461186 110 135
1781 3423 3421 167.499301532 60 135
1782 3422 3423 13.3024780887 60 135
1783 3422 3415 109.500073347 60 135
1784 3418 3421 108.223173952 60 135
1785 3409 3410 50.0102418066 60 135
1786 3415 3420 87.3406444499 60 135
1787 3420 3411 460.658975491 60 135
1788 3419 3414 270.945531632 60 135
1789 3418 3419 191.055069494 60 135
1790 3417 3413 51.5657467797 60 135
1791 3416 3417 350.422341482 60 135
1792 3415 3416 58.2165065261 60 135
1793 3414 3411 34.6190999696 60 135
1794 3412 3413 73.1946451812 60 135
1795 3411 3412 11.1068613927 60 135
1796 3420 3418 83.0001027095 60 135
1797 3452 3453 15.8710473822 85 135
1798 3460 3461 8.32954044605 110 135
1799 3454 3455 20.8704120707 85 135
1800 3503 3504 49.7072964935 60 135
1801 3504 3505 17.0020677959 60 135
1802 3487 3488 42.504502309 110 135
1803 3486 2200 16.232156009 60 135
1804 3485 3486 34.1148096171 60 135
1805 3505 3506 9.00000836344 60 135
1806 3470 3485 9.07423544121 60 135
1807 3483 3484 15.6798940881 60 135
1808 3482 3483 16.3173444223 60 135
1809 3481 3482 15.6954644405 60 135
1810 3506 3500 8.20000920759 60 135
1811 3530 3531 22.3769382181 60 135
1812 3479 3480 41.7175267477 60 135
1813 3478 3479 300.462255706 60 135
1814 3404 3478 47.3464490094 60 135
1815 3531 3532 20.4843003296 60 135
1816 3532 3533 21.9533243496 60 135
1817 3388 3389 106.868716434 60 135
1818 3477 3401 362.058507473 110 135
1819 3529 3530 21.8462791336 60 135
1820 3489 3490 4.06139298839 110 135
1821 3524 3525 22.0242617358 60 135
1822 3502 3503 42.7989119351 60 135
1823 3501 3443 198.945795336 60 135
1824 3500 979 204.424214352 60 135
1825 2093 3408 415.323838287 60 135
1826 2093 3497 37.0000291128 110 135
1827 3497 3499 12.0 60 135
1828 3498 3496 17.5007673185 110 135
1829 3497 3498 48.5934235005 110 135
1830 3481 3527 22.1141781218 60 135
1831 3527 3528 19.8457192617 60 135
1832 3406 3496 400.491064721 60 135
1833 3494 3495 13.5999930548 60 135
1834 3446 3494 40.9160150569 110 135
1835 3480 3493 11.6263949739 60 135
1836 3491 3492 9.99697314123 110 135
1837 3490 3491 11.1811951055 110 135
1838 3528 3529 23.5299260092 60 135
1839 3453 3451 9.32371883928 85 135
1840 3476 3477 40.9418329855 110 135
1841 2200 3474 409.17782759 60 135
1842 3468 3469 14.799977481 60 135
1843 3469 3470 40.295128212 110 135
1844 3447 3468 58.1000038975 60 135
1845 3466 3467 22.5070449851 85 135
1846 3465 3466 23.4078959546 85 135
1847 3514 3515 20.3511623746 60 135
1848 3464 3465 18.7958913065 85 135
1849 3463 3464 20.4224062485 85 135
1850 63 3463 23.9843124774 85 135
1851 3462 3447 97.5984014691 60 135
1852 3515 3516 20.4884760292 60 135
1853 3516 3517 24.3293352145 60 135
1854 3517 3518 21.7144122881 60 135
1855 3458 3459 72.3513395712 60 135
1856 3457 3458 14.8123751005 60 135
1857 3456 3452 15.1200029762 85 135
1858 3455 3456 22.1457646739 85 135
1859 63 3471 8.33231810415 85 135
1860 1135 3475 402.07137514 110 135
1861 3471 2091 20.0132396678 85 135
1862 3512 3513 21.6654381444 60 135
1863 3310 3470 408.854515104 110 135
1864 3533 3534 22.911197633 60 135
1865 3534 3535 23.6594206612 60 135
1866 3535 3536 23.2369731458 60 135
1867 2094 3505 61.9626011654 60 135
1868 3507 3508 11.0774192509 60 135
1869 3448 3309 66.7700517517 110 135
1870 3473 3474 3.75691938256 110 135
1871 3473 1135 4.84933399571 110 135
1872 3448 3319 50.333461456 110 135
1873 3319 3472 38.9004987881 110 135
1874 3509 3501 9.000035756 60 135
1875 3502 3509 11.2000314399 60 135
1876 3508 3502 8.20007319024 60 135
1877 64 3510 11.2783447198 60 135
1878 3510 3511 18.3706816693 60 135
1879 3511 3512 13.4498407799 60 135
1880 3513 3514 30.6899497722 60 135
1881 3372 3388 22.2987058652 60 135
1882 3323 3324 110.432805906 110 135
1883 3371 3387 391.555287582 60 135
1884 6500 6501 50.679430244 110 135
1885 6501 6502 80.1755682651 110 135
1886 6502 3322 269.818077528 110 135
1887 5812 6503 19.3317744541 110 135
1888 6503 6490 23.5602714524 110 135
1889 3310 3474 58.4005609127 110 135
1890 3311 3473 12.2542546493 110 135
1891 3321 3318 115.928030494 60 135
1892 6504 3363 54.9428877597 60 135
1893 3433 3438 3.50326188843 85 135
1894 5805 5806 28.5152984597 60 135
1895 5804 5805 23.2305061507 60 135
1896 5803 5804 23.8251544922 60 135
1897 5802 5803 21.0099529917 60 135
1898 5801 5802 25.6300290446 60 135
1899 5800 5801 25.4962915861 60 135
1900 5799 5800 26.0884558426 60 135
1901 3322 6499 57.0000722038 110 135
1902 5798 5799 22.1682450924 60 135
1903 6499 6498 11.7467330984 110 135
1904 6496 6497 0.00978621529064 110 135
1905 5814 5815 27.3830432386 60 135
1906 5813 5814 17.002107927 60 135
1907 5811 5812 7.35249685539 60 135
1908 5810 5811 22.6278329254 60 135
1909 5809 5810 28.1719244323 60 135
1910 1670 1671 1.53325568626 85 135
1911 5808 5809 22.3686808972 60 135
1912 5807 5808 20.6617458342 60 135
1913 5806 5807 21.8133435389 60 135
1914 6490 6491 10.501522389 110 135
1915 3336 6492 97.9135129181 110 135
1916 6492 6493 26.0628456796 110 135
1917 6493 6494 383.640851345 110 135
1918 6494 3324 20.1594244101 110 135
1919 1138 6495 33.5929918019 60 135
1920 6495 317 308.00743029 60 135
1921 3324 317 116.293228423 110 135
1922 6497 6498 10.6472030998 110 135
1923 2091 2092 1.73483755178 85 135
1924 5797 5798 23.7339976763 60 135
1925 5795 5796 28.8519687572 60 135
1926 5691 5692 20.7205719165 60 135
1927 5690 5691 22.395547973 60 135
1928 5689 5690 19.3022818022 60 135
1929 5688 5689 26.1510432881 60 135
1930 3476 3480 110.508769627 60 135
1931 5687 5688 21.3211655653 60 135
1932 5686 5687 24.7803367418 60 135
1933 5685 5686 19.032192828 60 135
1934 5684 5685 29.6580559903 60 135
1935 5683 5684 26.9438804428 60 135
1936 5682 5683 26.2150243447 60 135
1937 5681 5682 26.1720096715 60 135
1938 5679 5680 21.8494373939 60 135
1939 5678 5679 22.339969938 60 135
1940 5657 5678 14.2102543663 60 135
1941 5677 5657 15.4582965004 60 135
1942 5676 5677 26.0219602644 60 135
1943 5692 5693 30.5894201482 60 135
1944 5796 5797 24.9947058237 60 135
1945 5693 5694 23.4897161042 60 135
1946 5695 5696 24.3826810158 60 135
1947 5758 5795 14.51395585 60 135
1948 5765 5758 21.072321259 60 135
1949 5764 5765 23.4672981862 60 135
1950 5763 5764 22.6078871195 60 135
1951 5762 5763 26.6278511254 60 135
1952 5761 5762 15.6596200129 60 135
1953 5760 5696 8.4824549493 60 135
1954 5759 5760 20.7332468474 60 135
1955 5758 5759 12.9079937729 60 135
1956 5584 8297 1.44502802771 200 137
1957 8297 1567 14.4129478596 200 137
1958 6563 6564 33.3665024965 60 135
1959 6564 6565 110.02236123 60 135
1960 6565 6566 89.7765064584 60 135
1961 975 1139 504.01971918 60 135
1962 3369 6504 10.5000391265 60 135
1963 3308 1069 5.66749927195 60 135
1964 5694 5695 26.8484254209 60 135
1965 3386 3387 66.5051096815 60 135
1966 3304 3305 1.1603141814 100 97
1967 3307 3308 1.56217553385 110 135
1968 3362 3368 99.4040661487 60 135
1969 3366 3367 29.7130430666 60 135
1970 3365 3366 94.5439164916 60 135
1971 3364 3365 154.650922576 60 135
1972 3363 3364 24.799138961 60 135
1973 3363 3358 110.837788125 60 135
1974 3362 1123 83.8000302132 60 135
1975 1124 3361 22.4248361674 60 135
1976 3361 1466 16.1894720166 60 135
1977 3360 3340 118.780849237 60 135
1978 3359 3360 73.8132977429 60 135
1979 3358 3359 48.8643712826 60 135
1980 3358 3357 43.9870230679 60 135
1981 1465 3357 13.0000502661 60 135
1982 3356 3338 83.8117260934 60 135
1983 1466 3356 25.6587080928 60 135
1984 3355 3353 12.8261195483 60 135
1985 3369 2097 53.3476116845 60 135
1986 1465 3355 46.8225734411 60 135
1987 3370 3368 12.4895849173 60 135
1988 3369 3370 18.999959518 60 135
1989 3386 3384 43.4032795313 110 135
1990 3385 3362 349.297703994 60 135
1991 3384 3385 29.0698701263 60 135
1992 3383 3384 60.6343537702 110 135
1993 3383 3382 50.0413790142 110 135
1994 3382 3361 374.156780928 60 135
1995 3382 3379 57.000006312 110 135
1996 3376 3381 3.80005032871 110 135
1997 3381 3378 5.00005614442 60 135
1998 3378 3380 2.59993679947 110 135
1999 3379 3380 5.83650897882 110 135
2000 3377 3378 356.795028646 60 135
2001 3314 3377 51.2862481844 60 135
2002 3316 3376 27.914055531 110 135
2003 3374 3375 17.3000480781 32 137
2004 3373 3371 90.4230620197 60 135
2005 3372 3373 15.3771311588 60 135
2006 3371 3370 10.7096687279 60 135
2007 3306 1150 6.68529206222 150 137
2008 3353 3354 50.9999778923 60 135
2009 3352 3350 15.0999654359 60 135
2010 3330 3328 0.999892494303 60 135
2011 3329 3327 103.500147619 60 135
2012 3328 3326 56.0293296216 60 135
2013 3318 3327 15.3619566469 60 135
2014 3325 3326 14.2076729587 60 135
2015 3323 3325 54.073240073 110 135
2016 3536 3537 20.6553137474 60 135
2017 3321 3322 104.968709183 110 135
2018 3320 3321 348.752831166 110 135
2019 3319 3320 50.2580452853 110 135
2020 3309 3318 399.608510206 60 135
2021 3316 3317 2.90008530909 60 135
2022 2198 3316 8.50005093259 110 135
2023 2095 3315 2.79993827982 150 137
2024 3313 3314 45.3625152252 60 135
2025 3311 3312 4.22843063576 110 135
2026 3309 3310 45.0000406772 110 135
2027 3331 3332 4.59612167095 32 137
2028 3353 3341 199.838961969 60 135
2029 3330 3331 29.0964567062 32 137
2030 3334 3317 15.1361042544 60 135
2031 3350 3351 12.0000372609 60 135
2032 3348 3349 8.11258574342 60 135
2033 3347 3348 8.9229388094 60 135
2034 3346 3347 10.7837399546 60 135
2035 3345 3346 6.3127816091 60 135
2036 3344 3345 13.8511043368 60 135
2037 3343 3344 8.59237862585 60 135
2038 3342 3343 7.27635123969 60 135
2039 3341 3342 10.7894275158 60 135
2040 3340 3341 115.075683488 60 135
2041 3339 3334 364.415717873 60 135
2042 3338 3339 10.9848950927 60 135
2043 3337 3323 447.657489817 110 135
2044 3336 3337 10.7439013487 110 135
2045 3313 2198 411.350301305 60 135
2046 3335 3312 386.748615651 60 135
2047 3329 3335 12.8709729883 60 135
2048 3315 3333 12.0000296218 150 137
2049 3537 3538 23.0217140329 60 135
2050 3592 3593 18.1531939889 110 135
2051 3539 3540 20.1970302765 60 135
2052 5879 5880 24.7426735011 60 135
2053 5878 5879 23.0458786983 60 135
2054 5877 5878 22.8338066256 60 135
2055 5876 5877 28.9652559629 60 135
2056 5875 5876 26.0638990374 60 135
2057 5874 5875 24.5273351585 60 135
2058 5873 5874 24.4866747842 60 135
2059 5872 5873 27.3891833576 60 135
2060 5871 5872 24.0018372836 60 135
2061 5870 5871 38.4719540064 60 135
2062 5869 5870 22.8325935661 60 135
2063 5868 5869 32.157286033 60 135
2064 5867 5868 20.2221572785 60 135
2065 5866 5867 14.5834104725 60 135
2066 5865 1069 10.5131365915 60 135
2067 5864 5865 18.0835062973 60 135
2068 5863 5864 25.8206473975 60 135
2069 5862 5863 17.7834174439 60 135
2070 5861 5862 28.7384262789 60 135
2071 5880 5881 18.6529577824 60 135
2072 5860 5861 24.0380788961 60 135
2073 5881 5882 9.63052194763 60 135
2074 5883 5884 33.4037569445 60 135
2075 5919 5920 14.082238032 110 135
2076 5918 5919 23.0920589816 110 135
2077 5917 5918 23.8433249357 110 135
2078 5916 5917 22.5748116496 110 135
2079 3596 5916 18.3865616416 110 135
2080 5896 5897 17.6230206841 60 135
2081 5895 5896 21.9396195272 60 135
2082 5894 5895 27.6075738339 60 135
2083 5893 5894 22.6209345736 60 135
2084 5888 5893 27.9007577139 60 135
2085 5892 5883 21.8804477102 60 135
2086 5891 5892 21.9967103458 60 135
2087 5890 5891 22.4437968482 60 135
2088 5889 5890 19.5335981582 60 135
2089 5888 5889 17.6761155236 60 135
2090 5887 5866 21.5379661526 60 135
2091 5886 5887 18.6133801339 60 135
2092 5885 5886 21.2309614716 60 135
2093 5884 5885 15.2654097872 60 135
2094 5866 5850 13.5972543191 60 135
2095 5859 5860 29.4288625843 60 135
2096 5858 5859 27.0510823441 60 135
2097 5857 5858 25.7277910631 60 135
2098 984 985 9.10684632611 110 135
2099 983 984 2.48374112993 110 135
2100 979 982 50.3586524009 60 135
2101 981 982 275.721347673 60 135
2102 980 981 38.1429256157 60 135
2103 976 979 64.500220056 60 135
2104 977 978 40.7722920558 60 135
2105 976 977 277.11569683 60 135
2106 974 975 12.4411429453 60 135
2107 970 971 393.627648028 60 135
2108 5834 5835 22.3074777065 60 135
2109 966 967 20.5943871232 60 135
2110 965 966 25.9390525887 60 135
2111 964 965 29.8816158799 60 135
2112 963 964 31.2014618799 60 135
2113 962 963 27.8422642964 60 135
2114 961 962 17.3751904389 60 135
2115 960 961 26.1988288244 60 135
2116 959 960 27.6716372168 60 135
2117 985 986 21.0989014166 110 135
2118 5835 5836 29.3141954926 60 135
2119 5836 5837 21.9843767936 60 135
2120 5837 5838 22.619130952 60 135
2121 5856 5857 20.2779845651 60 135
2122 5855 5856 39.1558536748 60 135
2123 5854 5855 27.813903088 60 135
2124 5853 5854 23.5409438423 60 135
2125 5852 5853 28.3876340864 60 135
2126 5851 5852 18.7598212408 60 135
2127 5850 5851 15.0475323228 60 135
2128 5849 5829 31.6218110002 60 135
2129 5848 5849 33.8316183662 60 135
2130 3330 5931 539.10908619 60 135
2131 5847 5848 23.4241572793 60 135
2132 5829 5761 19.4142542739 60 135
2133 5845 5846 22.3813646353 60 135
2134 5844 5845 24.7094797378 60 135
2135 5843 5844 20.0389821126 60 135
2136 5842 5843 23.3063758047 60 135
2137 5841 5842 21.6205109345 60 135
2138 5840 5841 19.5314288274 60 135
2139 5839 5840 23.1449703449 60 135
2140 5838 5839 23.0302167596 60 135
2141 3460 5847 20.4976072956 60 135
2142 2100 3398 3.34139985348 60 135
2143 997 998 16.8283632295 110 135
2144 996 997 17.0634060497 110 135
2145 1473 1474 26.0505686117 150 137
2146 1474 1475 33.7304702751 150 137
2147 1475 1476 23.3483054847 150 137
2148 1476 1477 26.2466476721 150 137
2149 1477 1478 20.7293876657 150 137
2150 1478 1479 23.3426422027 150 137
2151 1479 1480 28.5269890801 150 137
2152 1480 1481 21.6604375303 150 137
2153 1481 1482 23.3606917068 150 137
2154 1482 1483 24.157361714 150 137
2155 1483 1484 15.0185305868 150 137
2156 1484 1485 5.349127219 150 137
2157 1485 1486 2.33330088053 150 137
2158 988 989 21.6639101272 110 135
2159 987 988 23.4202041197 110 135
2160 1325 1324 20.6658849093 60 135
2161 1325 892 49.0000091416 60 135
2162 1323 1324 300.027603104 60 135
2163 5990 1085 22.8486358997 110 135
2164 1472 1473 20.0659674325 150 137
2165 1471 1472 20.0844553819 150 137
2166 1470 1471 21.0895459649 150 137
2167 1469 1470 20.5178263229 150 137
2168 992 993 28.4928360467 110 135
2169 3650 7048 1.98047368112 85 135
2170 8019 8020 27.322404067 85 135
2171 8018 8019 28.8904913423 85 135
2172 8017 8018 24.3316180517 85 135
2173 3650 8017 14.8361913235 85 135
2174 993 994 14.1481153872 110 135
2175 1085 8009 5.09563191816 110 135
2176 8008 5990 0.506913296075 110 135
2177 1550 5931 2.16112380284 60 135
2178 8007 1536 37.87416298 150 137
2179 990 991 21.5469081773 110 135
2180 989 990 21.3476069855 110 135
2181 1429 1430 27.1401956497 60 135
2182 1342 1343 4.49787915473 60 135
2183 1461 1462 10.0274895688 110 135
2184 3305 2090 1.60454635342 150 137
2185 1465 1466 18.6999167122 60 135
2186 1467 1468 15.8126234694 150 137
2187 1468 1469 22.5312602843 150 137
2188 991 992 19.098811298 110 135
2189 958 959 27.4089025469 60 135
2190 974 1550 1.79950093103 60 135
2191 1506 1507 19.3786078767 150 137
2192 1537 1538 68.5819808015 150 137
2193 1538 1539 143.634361901 150 137
2194 1539 257 275.205105574 150 137
2195 1142 1549 7.14014728473 150 137
2196 257 1550 61.9692075051 150 137
2197 1550 1551 27.659859465 150 137
2198 1551 1552 273.183539721 150 137
2199 1552 1036 201.83157473 150 137
2200 1036 1553 63.6560057644 150 137
2201 994 995 21.4142178233 110 135
2202 995 996 23.6529934679 110 135
2203 1157 6292 10.0040866951 60 135
2204 3367 6293 125.119666316 60 135
2205 1156 3352 450.800339857 60 135
2206 3367 3340 127.667836926 60 135
2207 2097 6294 81.2675695362 60 135
2208 6294 6295 126.405291847 60 135
2209 6295 6296 151.383100354 60 135
2210 6296 6293 14.7477647199 60 135
2211 1536 1537 34.3718768612 150 137
2212 890 1535 4.69653433957 60 135
2213 1533 1534 7.12820931245 110 135
2214 1532 1533 12.5056891049 110 135
2215 1507 1508 7.05278026342 150 137
2216 1048 1514 25.7079919286 150 137
2217 1514 1515 25.3044587414 150 137
2218 1515 1516 27.7907130881 150 137
2219 1516 1517 34.7432077332 150 137
2220 1517 1518 20.0700277468 150 137
2221 1518 1519 26.8932942373 150 137
2222 1519 1520 25.085223425 150 137
2223 1520 1521 29.2217753009 150 137
2224 508 1506 19.7098982747 150 137
2225 1521 1522 22.0275727577 150 137
2226 1523 1524 23.5803120167 150 137
2227 986 987 22.4313229658 110 135
2228 1524 1525 35.8349619501 150 137
2229 1525 1526 24.8747998175 150 137
2230 1526 1527 26.8271792211 150 137
2231 1528 1529 17.9958615808 110 135
2232 1529 1530 22.1498181707 110 135
2233 1530 1531 20.3380770966 110 135
2234 1531 1532 17.4649331235 110 135
2235 1522 1523 22.6899074103 150 137
2236 3538 3539 22.6070292829 60 135
2237 957 958 27.8798724848 60 135
2238 955 956 33.1249217363 60 135
2239 3601 3585 4.11542974692 32 137
2240 3600 3601 20.7474568083 32 137
2241 3599 3600 38.3334233277 32 137
2242 3598 3599 18.0546118482 32 137
2243 3597 3598 22.102402584 32 137
2244 3595 3596 9.22926692601 110 135
2245 3585 3595 3.22578672567 110 135
2246 3594 1534 11.6946485622 110 135
2247 3593 3594 21.8534695875 110 135
2248 5675 5676 24.8547536504 60 135
2249 3591 3592 18.1837824726 110 135
2250 3590 3591 26.8480280465 110 135
2251 3589 3590 15.2057416788 110 135
2252 3588 3589 24.1825999639 110 135
2253 3587 3588 17.6132796489 110 135
2254 3586 3587 13.7781970517 110 135
2255 3585 3586 4.58170994325 110 135
2256 3583 3584 0.495238326424 110 135
2257 3582 3583 18.1805624777 110 135
2258 3562 3602 15.5076410192 60 135
2259 3581 3582 19.9237160442 110 135
2260 3602 3603 22.5499545904 60 135
2261 3604 3605 23.8558625911 60 135
2262 3623 3624 20.3722427829 32 137
2263 3622 3623 21.60030641 32 137
2264 3621 3622 23.1813021414 32 137
2265 3620 3621 18.9032951626 32 137
2266 3619 3620 24.7429237159 32 137
2267 3618 3619 13.9548561077 32 137
2268 3617 3618 8.43528239001 32 137
2269 3615 3616 19.2996133642 110 135
2270 3614 3615 17.2382351769 110 135
2271 3613 3614 22.950969696 110 135
2272 3612 3613 22.9128004623 110 135
2273 3562 3612 26.6737690622 110 135
2274 3611 3597 8.38438858801 60 135
2275 3610 3611 23.7416786261 60 135
2276 3609 3610 20.9351440407 60 135
2277 3608 3609 23.9411958144 60 135
2278 3607 3608 20.9709013869 60 135
2279 3606 3607 21.2527101567 60 135
2280 3605 3606 24.6452720422 60 135
2281 3603 3604 21.299730186 60 135
2282 3580 3581 24.3078285747 110 135
2283 3579 3580 21.1533010425 110 135
2284 3578 3579 17.3444621709 110 135
2285 3555 3556 23.5571717838 60 135
2286 3553 3554 83.8000462986 60 135
2287 3554 1121 4.19847055141 60 135
2288 3551 3552 7.80001482126 60 135
2289 3554 3487 241.70011075 60 135
2290 3551 3553 124.300037541 60 135
2291 3495 3552 125.101818546 60 135
2292 3550 3551 117.400041007 60 135
2293 3548 3549 209.701116842 60 135
2294 3504 3548 146.699179275 60 135
2295 3547 3544 20.5928293581 60 135
2296 3546 3547 15.593471102 60 135
2297 3545 3546 28.4402836838 60 135
2298 3526 3545 19.0623709174 60 135
2299 3544 1152 7.98089531304 60 135
2300 3543 3544 11.5957875109 60 135
2301 3542 3543 21.7631213985 60 135
2302 3541 3542 21.478599023 60 135
2303 3540 3541 20.1814896629 60 135
2304 3553 3555 7.60008581607 60 135
2305 3557 3556 72.1001116352 60 135
2306 3549 3557 103.661843527 60 135
2307 3558 3559 14.3131934457 60 135
2308 3577 3578 22.3009416164 110 135
2309 3576 3577 21.9995420412 110 135
2310 3575 3576 14.1503888639 110 135
2311 3574 3575 16.8314494318 110 135
2312 3573 3574 12.1857241478 110 135
2313 1010 3573 11.1132001692 110 135
2314 3572 3570 3.9523423442 110 135
2315 3571 3572 3.87745083741 110 135
2316 1001 3571 7.96401713936 110 135
2317 3624 3625 20.2098800842 32 137
2318 3569 3570 6.89241938613 110 135
2319 3567 3568 6.50979362268 110 135
2320 3566 3567 7.39187939548 110 135
2321 1000 3566 6.2226406774 110 135
2322 3565 1528 4.47124524003 110 135
2323 3564 3565 21.6413601471 110 135
2324 3563 3564 22.8233860765 110 135
2325 3562 3563 17.4926612326 110 135
2326 3561 3560 93.1001854445 60 135
2327 3560 3559 98.3001003913 60 135
2328 3568 3569 9.09583575036 110 135
2329 3625 3626 23.1060318527 32 137
2330 3626 3627 16.4252804238 32 137
2331 3627 3612 21.9374487582 32 137
2332 896 897 116.900009089 60 135
2333 894 895 50.2001401358 60 135
2334 892 893 310.500202137 32 137
2335 890 891 18.8963739021 60 135
2336 889 324 103.698358224 110 135
2337 5820 5821 24.687040059 60 135
2338 5819 5820 23.6741296015 60 135
2339 5818 5819 23.687827186 60 135
2340 5817 5818 27.5982669348 60 135
2341 5816 5817 26.2824356206 60 135
2342 5815 5816 34.878094293 60 135
2343 998 999 27.2198069428 110 135
2344 2099 2100 49.6504288531 60 135
2345 2097 2098 12.0926094197 32 137
2346 2096 1137 366.429254508 150 137
2347 2095 2096 52.8091147012 150 137
2348 2093 2094 7.43540666951 110 135
2349 3677 1325 30.4000925014 60 135
2350 2933 3676 227.600201956 60 135
2351 898 896 19.3000091158 60 135
2352 5821 5822 29.1976325485 60 135
2353 900 901 46.7941184105 60 135
2354 901 902 48.9818205623 60 135
2355 954 955 27.3090744308 60 135
2356 953 954 27.2947254469 60 135
2357 952 953 24.4696395331 60 135
2358 5833 5834 23.9210033304 60 135
2359 5832 5833 25.4740467544 60 135
2360 5831 5832 23.7451408427 60 135
2361 5830 5831 24.2543221677 60 135
2362 3460 5830 19.8718102339 60 135
2363 5828 5829 23.9373178449 60 135
2364 3675 1323 108.836211298 60 135
2365 5827 5828 16.9387441351 60 135
2366 5825 5826 31.2095049653 60 135
2367 5824 5825 21.5435832727 60 135
2368 5823 5824 22.3123050423 60 135
2369 5822 5823 23.2889953765 60 135
2370 905 906 127.59412314 60 135
2371 904 905 36.7876305942 60 135
2372 903 904 104.099408445 60 135
2373 901 903 40.4258453048 60 135
2374 902 898 52.4395300376 60 135
2375 5826 5827 17.528236445 60 135
2376 956 957 18.8884048621 60 135
2377 3673 3674 2.28604155708 110 135
2378 3671 3672 17.3067744246 110 135
2379 896 3647 311.100283254 60 135
2380 3646 3640 4.24275529868 60 135
2381 3645 3646 1.17585007537 60 135
2382 3644 3645 10.3755835547 60 135
2383 3643 3644 253.955782551 60 135
2384 3642 3643 230.103590473 60 135
2385 3561 3642 47.436706973 60 135
2386 3641 3508 62.1595620038 60 135
2387 3639 3640 35.204031679 60 135
2388 3637 3638 21.1273971382 60 135
2389 3636 3637 19.6722027538 60 135
2390 3635 3636 19.5023347825 60 135
2391 3634 3635 21.1868976792 60 135
2392 3633 3634 25.7853340561 60 135
2393 3632 3633 21.1015405412 60 135
2394 3631 3632 19.4252773168 60 135
2395 3630 3631 24.1079977031 60 135
2396 3629 3630 21.9643112802 60 135
2397 3628 3629 27.304198446 60 135
2398 3648 3649 78.3923766338 85 135
2399 3649 3650 19.18599828 85 135
2400 899 3648 158.300143673 60 135
2401 3597 3651 21.2416679669 32 137
2402 3670 3671 21.9430926952 110 135
2403 3669 3670 19.3271270752 110 135
2404 3668 3669 15.2433447777 110 135
2405 3667 3668 20.3980067895 110 135
2406 3666 3667 21.3594843103 110 135
2407 3665 3666 18.854647199 110 135
2408 3664 3665 28.2097484575 110 135
2409 3616 3664 27.3511012024 110 135
2410 3662 3663 0.750032665957 110 135
2411 3672 3673 20.0559143397 110 135
2412 3661 906 58.6326300753 85 135
2413 3659 906 50.5234894129 85 135
2414 3658 3659 20.6584151618 85 135
2415 3658 3656 9.1135096421 32 137
2416 3657 3655 0.199399548748 32 137
2417 3656 3657 8.00970028039 32 137
2418 3655 3654 17.3797549173 32 137
2419 3653 3654 12.0598540628 32 137
2420 3652 3653 21.6661129875 32 137
2421 3651 3652 23.6312306068 32 137
2422 3660 3661 9.79417050152 85 135
2423 5674 5675 0.0284604985999 60 135
2424 899 900 71.8901077267 60 135
2425 5673 5639 22.1696036556 60 135
2426 3493 3487 17.8669083555 110 135
2427 5235 5236 22.1570626023 200 137
2428 7015 3481 9.1133030233 60 135
2429 7014 3475 0.170599999775 110 135
2430 7013 7014 22.7930865596 110 135
2431 5237 5238 29.8157223629 200 137
2432 5238 3901 130.659164087 200 137
2433 3901 5234 1.81060487132 200 137
2434 5239 99 82.225288654 200 137
2435 99 3900 36.0521644739 200 137
2436 1002 1003 11.894499569 110 135
2437 1001 1002 9.30821239612 110 135
2438 3900 5237 1.61311433309 200 137
2439 5240 5241 13.6938621998 200 137
2440 2719 5242 0.716779603512 200 137
2441 5242 5240 2.13790019631 200 137
2442 5243 5244 28.7761385957 200 137
2443 5244 5245 51.8099642927 200 137
2444 5245 5246 68.3439767937 200 137
2445 3308 5882 10.1349526887 60 135
2446 5241 5243 0.842781110928 200 137
2447 1035 1036 1.76044008637 60 135
2448 1036 1037 2.20176962471 60 135
2449 1046 1047 8.29018601791 60 135
2450 1047 1048 2.92441305535 60 135
2451 967 1049 19.5017973533 60 135
2452 1049 1050 23.9270107824 60 135
2453 3493 3550 68.2142420849 60 135
2454 3550 3446 37.0000008096 110 135
2455 5234 5235 138.840069533 200 137
2456 3549 3558 52.1999628519 60 135
2457 3306 6496 5.89449137044 110 135
2458 9171 1549 0.852085089527 150 137
2459 1549 1048 7.23386923403 150 137
2460 952 6563 18.7366323827 60 135
2461 6490 5681 42.9095880425 60 135
2462 3472 5846 22.3877406338 110 135
2463 7092 5846 17.7076800019 110 135
2464 9170 3462 0.0263795377685 60 135
2465 3461 9170 13.0998048534 60 135
2466 3461 3457 10.701484318 60 135
2467 8008 8007 5.20192150712 150 137
2468 8937 8008 7.67409852938 150 137
2469 3674 7052 5.07481645021 32 137
2470 1050 1051 20.6534400285 60 135
2471 3675 3647 117.950813744 60 135
2472 7051 3662 3.03052091175 110 135
2473 3616 7051 8.15815573501 110 135
2474 7049 7050 1.27991015718 110 135
2475 7049 3660 14.3977566937 110 135
2476 7047 7048 19.1589069887 85 135
2477 7046 7047 16.7144889537 85 135
2478 3658 7046 20.0191086969 85 135
2479 895 7034 115.599982352 60 135
2480 7034 3677 60.3000999019 60 135
2481 897 1324 108.052825236 60 135
2482 895 7036 130.029452922 32 137
2483 7034 7035 212.833635642 32 137
2484 3499 3557 281.692208527 60 135
2485 897 3675 295.085980962 60 135
2486 5656 5674 43.4616516437 60 135
2487 1051 1052 23.0338860156 60 135
2488 1053 1054 21.0821602306 60 135
2489 7616 6500 6.42762270215 110 135
2490 7050 7104 1.86729197755 110 135
2491 1098 1099 19.32942796 110 135
2492 1099 1100 23.6689146141 110 135
2493 1100 1101 27.3166250395 110 135
2494 1101 1102 23.3231133006 110 135
2495 1103 1104 3.65600227839 60 135
2496 5346 5347 6.78182052954 110 135
2497 5347 4146 29.395763119 110 135
2498 1121 1122 5.70036420571 60 135
2499 1123 1124 4.50002227291 60 135
2500 1132 1133 37.4627309223 60 135
2501 1133 1134 233.991917271 60 135
2502 1134 889 23.4019981646 60 135
2503 1135 1136 0.436301191966 110 135
2504 1136 1137 1.33863545875 110 135
2505 999 1000 31.4982403477 110 135
2506 7619 7620 0.895958146603 75 97
2507 1165 1670 10.3238807146 85 135
2508 1138 1132 125.015817591 60 135
2509 891 2126 4.50355415244 60 135
2510 4751 6791 7.31666925586 60 135
2511 6791 6792 6.51729350282 60 135
2512 6789 6790 8.69767169973 60 135
2513 6788 6789 12.6264997919 60 135
2514 6787 6788 28.9183848272 60 135
2515 6786 6787 28.4372057872 60 135
2516 7615 7616 34.8982654768 110 135
2517 7614 3397 4.54012870428 60 135
2518 7613 7614 4.68908842405 60 135
2519 1097 1098 25.0914621565 110 135
2520 1054 1055 19.6539043703 60 135
2521 1055 1056 20.5596314411 60 135
2522 1056 1057 26.750310728 60 135
2523 1057 1058 33.5430608314 60 135
2524 1058 1059 22.8199878404 60 135
2525 1059 1060 26.271045696 60 135
2526 1060 1061 20.0243051563 60 135
2527 1061 1062 23.2529902165 60 135
2528 1062 1063 29.2094088444 60 135
2529 1063 1064 21.4575995393 60 135
2530 1064 1065 21.6309663448 60 135
2531 1065 1066 28.9330235019 60 135
2532 1066 1067 12.466218433 60 135
2533 1052 1053 20.7519101053 60 135
2534 1067 1068 9.53090976773 60 135
2535 1048 952 11.5676872516 60 135
2536 1085 1086 12.881407002 110 135
2537 1086 1087 24.8716860075 110 135
2538 1087 1088 24.7954014324 110 135
2539 1088 1089 25.1916979296 110 135
2540 1089 1090 27.3355203029 110 135
2541 1090 1091 28.2850311973 110 135
2542 1091 1092 22.7070511078 110 135
2543 1092 1093 25.9668164093 110 135
2544 1093 1094 27.6233764938 110 135
2545 1094 1095 30.8822890701 110 135
2546 1095 1096 20.7152081662 110 135
2547 1096 1097 28.90736275 110 135
2548 1068 1069 9.53022082594 60 135
2549 3436 1163 11.788860208 85 135
2550 1163 3437 13.3277359673 85 135
2551 7052 7053 15.1128849989 32 137
2552 7334 7335 20.4359338421 60 135
2553 7335 7336 20.721650151 60 135
2554 7336 7337 21.6061285062 60 135
2555 7337 7338 21.3404487526 60 135
2556 7338 7339 22.7116224878 60 135
2557 7339 7340 20.7953460417 60 135
2558 7340 7341 21.7907255498 60 135
2559 7341 7342 21.3533225756 60 135
2560 7342 5888 21.8254128026 60 135
2561 3467 7343 21.2539928482 60 135
2562 7343 7344 22.6245447474 60 135
2563 7344 7345 20.4754650493 60 135
2564 7345 7346 19.7162564909 60 135
2565 7346 7347 20.5402626075 60 135
2566 7347 7348 20.3521875483 60 135
2567 7348 7349 22.2365041317 60 135
2568 7349 7350 21.4712167566 60 135
2569 7350 7351 22.0513160827 60 135
2570 7351 7352 21.2653963522 60 135
2571 7352 7353 22.1132947568 60 135
2572 7353 7354 20.4935994886 60 135
2573 7354 7355 21.4035666417 60 135
2574 7355 7356 21.163478566 60 135
2575 7356 7357 25.8085089263 60 135
2576 7357 7358 16.949794217 60 135
2577 7358 5897 24.3460026496 60 135
2578 3526 7359 27.0104586043 60 135
2579 7333 7334 21.4957336469 60 135
2580 7332 7333 23.388998525 60 135
2581 7331 7332 21.6612587811 60 135
2582 7330 7331 21.660763999 60 135
2583 2934 1535 57.165384727 60 135
2584 9313 9314 37.1901572063 60 137
2585 5850 9313 43.5524612943 60 137
2586 1122 7239 4.50202758297 60 135
2587 1104 7238 4.50094326628 60 135
2588 5883 7309 13.7905408161 60 135
2589 7309 7310 14.3736525979 60 135
2590 7310 7311 30.1602300551 60 135
2591 7311 7312 20.9664659158 60 135
2592 7312 7313 22.1633315634 60 135
2593 7313 7314 22.2234014053 60 135
2594 7314 7315 17.8590807436 60 135
2595 7315 7316 24.9821438033 60 135
2596 7359 7360 23.959208856 60 135
2597 7316 7317 18.8807733417 60 135
2598 7318 7319 24.2251543862 60 135
2599 7319 7320 21.2884722319 60 135
2600 7320 7321 21.7461105717 60 135
2601 7321 7322 21.4849056321 60 135
2602 7322 7323 20.6281772343 60 135
2603 7323 7324 23.9052767817 60 135
2604 7324 7325 20.635799112 60 135
2605 7325 7326 21.3009310831 60 135
2606 7326 3449 10.6501742704 60 135
2607 3454 7327 21.1169021398 60 135
2608 7327 7328 24.2524658746 60 135
2609 7328 7329 21.2463567234 60 135
2610 7329 7330 18.6865346167 60 135
2611 7317 7318 22.2497038405 60 135
2612 7360 7361 19.2870614913 60 135
2613 7361 7362 19.9012424243 60 135
2614 2200 1103 3.55867876757 60 135
2615 7087 7088 24.9128429931 85 135
2616 3449 7087 23.475517736 85 135
2617 2199 2095 5.9547537523 110 135
2618 3391 3387 42.6748565092 60 135
2619 2098 3375 49.9026169543 32 137
2620 7078 3349 141.541006365 60 135
2621 3354 7078 9.91150289815 60 135
2622 7074 975 42.9639180206 60 135
2623 3351 7074 30.8933425219 60 135
2624 1142 7114 8.15311026951 150 137
2625 1151 9171 10.1644341831 150 137
2626 6491 1467 28.1555507184 150 137
2627 9182 9183 1.06363762682 60 135
2628 7088 7089 22.1416102627 85 135
2629 9181 9182 12.0759051419 60 135
2630 5680 9180 13.5608041426 60 135
2631 5813 7615 24.6305443879 110 135
2632 6292 1342 8.30043724425 60 135
2633 3676 7057 105.242840503 85 135
2634 7057 7058 60.4000304177 60 135
2635 7057 1323 113.40074826 60 135
2636 7056 3617 5.14877266925 32 137
2637 7055 7056 12.7346821706 32 137
2638 7054 7055 14.8147414425 32 137
2639 7053 7054 22.1237807349 32 137
2640 3628 3639 9.20551082167 60 135
2641 3628 3641 15.5535235181 60 135
2642 3445 3638 7.91271091378 60 135
2643 9180 9181 15.4568979102 60 135
2644 2933 2934 284.815282412 60 135
2645 7089 2086 17.0934142417 85 135
2646 7090 7091 28.5569610599 110 135
2647 2198 2199 8.9019812104 110 135
2648 7362 5897 19.2558438134 60 135
2649 1009 1010 7.13520651453 110 135
2650 1008 1009 9.8373416121 110 135
2651 1007 1008 7.95537258727 110 135
2652 258 2156 4.06674321335 150 137
2653 7119 7120 9.00006576886 150 137
2654 7121 2156 42.1521057697 150 137
2655 7120 7121 45.4524957108 150 137
2656 7118 7119 106.046546736 150 137
2657 7117 7118 131.144103326 150 137
2658 7116 7117 141.382204966 150 137
2659 3333 7116 86.1098962007 150 137
2660 5812 7090 41.7318684468 110 135
2661 7115 1553 197.823024665 150 137
2662 7114 7115 68.8185793418 150 137
2663 1006 1007 7.03231071501 110 135
2664 1005 1006 9.16327736139 110 135
2665 1004 1005 12.634673641 110 135
2666 1003 1004 8.2837868751 110 135
2667 7104 3647 24.1501719929 85 135
2668 7096 7015 5.1114687715 60 135
2669 7095 7096 21.9114221358 60 135
2670 7094 7095 21.3548610389 60 135
2671 7093 7094 20.1818108703 60 135
2672 2092 7093 13.6547051644 60 135
2673 6500 7092 26.7626146585 110 135
2674 7091 5813 39.4785295619 110 135
2675 63 64 8.65495576007 85 135
2676 1430 2946 30.0746890846 60 135
2677 5246 5236 40.3312794247 200 137
2678 5640 3306 17.8433779101 60 135
2679 3560 5628 69.406371732 60 135
2680 5626 3454 10.8931466989 85 135
2681 5625 5626 20.2902836102 85 135
2682 5624 5625 23.3875304385 85 135
2683 5623 5624 19.7461615762 85 135
2684 5622 5623 21.4412839403 85 135
2685 3467 5622 22.0318661267 85 135
2686 889 1142 55.1512672154 110 135
2687 5636 5637 21.3114936659 60 135
2688 8926 7619 2.06668454328 75 97
2689 5662 5663 18.8438166484 60 135
2690 5637 5638 24.1198430055 60 135
2691 5638 5639 7.64372181984 60 135
2692 2086 2087 1.66022109944 85 135
2693 2087 2088 3.25678460022 85 135
2694 2088 2089 12.7291651341 85 135
2695 2089 2090 13.0171451938 85 135
2696 5639 5640 19.3063188099 60 135
2697 8421 6786 4.1883697311 60 135
2698 3488 8927 12.274093245 110 135
2699 1046 5641 25.3259504509 60 135
2700 8927 3489 2.98197283677 110 135
2701 7016 8928 8.09185874849 110 135
2702 8928 7013 6.34068332279 110 135
2703 3492 983 0.526172975538 110 135
2704 5628 3507 449.097814296 60 135
2705 5920 8918 0.143265487945 100 97
2706 257 258 3.55681233223 150 137
2707 8909 8910 0.26488110517 100 97
2708 1046 5635 20.7221209197 60 135
2709 1155 5631 7.1366673597 60 135
2710 892 2933 60.3079319345 60 135
2711 898 894 30.9999601807 60 135
2712 3496 3494 73.850121089 110 135
2713 3484 8926 0.00641950152856 75 97
2714 8925 3304 0.371903213503 100 97
2715 8910 8925 0.222335332544 100 97
2716 8924 8908 0.259832638132 100 97
2717 8906 8924 0.373503681925 100 97
2718 1486 3305 1.27656805514 150 137
2719 8923 6491 19.6795500376 150 137
2720 1527 8923 22.3579749914 150 137
2721 5663 5664 26.9167448182 60 135
2722 3663 7049 0.741706552577 110 135
2723 5664 5665 22.808645481 60 135
2724 5665 5666 24.1547464486 60 135
2725 8918 8914 0.515503637679 110 135
2726 8917 8913 0.284288586257 100 97
2727 5666 5667 26.0342176041 60 135
2728 8913 8914 0.731600983548 100 97
2729 5667 5668 22.3619212372 60 135
2730 5629 3307 1.26555240943 110 135
2731 2090 5629 6.37171622884 110 135
2732 5668 5669 20.764562145 60 135
2733 8908 8909 0.958903540399 100 97
2734 3584 8917 3.53832064665 110 135
2735 5635 5636 36.3211201281 60 135
2736 5655 5656 9.34869163237 60 135
2737 5582 5583 21.8651843168 200 137
2738 323 324 1.91091513501 110 135
2739 1035 1139 9.46782773074 60 135
2740 5641 5642 26.0631707359 60 135
2741 5642 5643 26.9322496235 60 135
2742 5650 5651 20.1001026683 60 135
2743 322 323 1.59993041019 110 135
2744 321 322 0.833270592395 110 135
2745 5646 5647 23.9589927039 60 135
2746 5647 5648 27.4259028219 60 135
2747 5657 5658 25.3789440718 60 135
2748 320 321 1.07791366106 110 135
2749 5643 5644 33.9009530576 60 135
2750 5648 5649 22.362870043 60 135
2751 5649 5650 25.659451717 60 135
2752 319 320 0.996864734466 110 135
2753 318 319 0.829323122075 110 135
2754 317 318 12.2001850513 110 135
2755 1486 8906 1.15577939024 100 97
2756 5671 5672 22.8475212745 60 135
2757 5672 5673 22.3598237893 60 135
2758 5651 5652 37.6127219022 60 135
2759 5583 5584 43.2041051177 200 137
2760 5652 5653 24.6394999398 60 135
2761 5239 5581 1.93335413493 200 137
2762 5654 5655 25.4002806488 60 135
2763 5653 5654 24.5385829275 60 135
2764 5661 5662 23.5353565135 60 135
2765 5660 5661 24.1636924225 60 135
2766 5659 5660 27.3840300825 60 135
2767 1150 1151 147.850330515 150 137
2768 1152 1153 3.86455689531 60 135
2769 1153 1154 21.4201666203 60 135
2770 1154 1155 7.8651792727 60 135
2771 1156 1157 16.7948856239 60 135
2772 1132 1037 7.3700366578 60 135
2773 5644 5645 25.0854838506 60 135
2774 8420 8421 21.7309608623 60 135
2775 5669 5670 21.8750821356 60 135
2776 5670 5671 26.5740838843 60 135
2777 1163 1164 7.78750951326 85 135
2778 6792 8420 15.9258534408 60 135
2779 1164 1165 3.48573768705 85 135
2780 1508 8937 26.3442246793 150 137
2781 5645 5646 25.0341511654 60 135
2782 5658 5659 24.541407709 60 135
2783 5581 5582 7.3394555797 200 137
2784 6435 1443 29.3583541742 60 132
2785 203 204 32.4617653377 85 132
2786 261 259 6.15277559621 60 132
2787 140 141 5.15006916666 60 132
2788 141 100 25.4484583424 60 132
2789 3768 3753 17.8121776884 85 132
2790 7634 7641 7.32227208333 85 132
2791 7657 7652 3.71328477717 85 132
2792 883 884 13.120833525 85 132
2793 268 267 33.910016058 60 132
2794 882 883 11.980579963 85 132
2795 200 268 35.2268196832 60 132
2796 267 205 66.9010308287 60 132
2797 2699 198 19.0311425818 60 132
2798 198 199 13.9135504097 60 132
2799 199 200 57.0362790446 60 132
2800 178 266 69.1794744699 60 132
2801 265 2699 6.52600030698 60 132
2802 204 194 34.6407175343 85 132
2803 205 206 60.4458520641 85 132
2804 206 207 7.37711982101 85 132
2805 264 265 15.7149628703 60 132
2806 263 264 4.46337720663 60 132
2807 262 263 48.1456875185 60 132
2808 3764 6435 35.8177499863 60 132
2809 260 3758 27.7551705162 60 132
2810 260 261 66.3352812692 60 132
2811 885 265 1.02327171357 60 132
2812 195 3748 68.8658239822 60 132
2813 3765 262 47.1372514453 60 132
2814 6610 8029 7.38170942264 60 132
2815 8029 8030 28.8387201525 60 132
2816 3766 178 67.7359486137 60 132
2817 101 102 12.177712636 85 132
2818 3761 3767 14.1689711765 60 132
2819 3767 260 52.3330211457 60 132
2820 102 103 12.9574443858 85 132
2821 97 98 1.42027062868 85 132
2822 3748 140 69.5592535454 60 132
2823 7640 7658 16.7580846703 85 132
2824 7656 7657 7.39264701151 85 132
2825 7655 7656 20.1588272038 85 132
2826 7654 7655 27.1077910629 85 132
2827 7633 7654 21.2389451193 85 132
2828 7652 7653 34.7813740599 85 132
2829 92 93 8.63189256465 85 132
2830 93 94 46.503365456 85 132
2831 3756 3751 15.0403834725 85 132
2832 7641 7642 16.6373188612 85 132
2833 94 95 46.411174394 85 132
2834 3758 3768 50.0802406674 85 132
2835 140 3763 67.0113345815 60 132
2836 266 3765 23.9505694069 60 132
2837 3749 172 32.3618335792 85 132
2838 96 97 18.2070103816 85 132
2839 95 96 33.9595568791 85 132
2840 98 99 0.259516050101 85 132
2841 172 3746 26.5850765789 85 132
2842 100 101 4.96148340819 85 132
2843 3746 3747 5.38420552424 85 132
2844 3747 100 38.3984586478 85 132
2845 3748 172 27.7938733961 85 132
2846 7658 7657 0.288543515069 85 132
2847 174 3749 39.3599902527 85 132
2848 3763 3764 70.8413145107 60 132
2849 194 3750 19.8806208154 85 132
2850 103 92 9.55590599193 85 132
2851 882 3762 1.43385201478 85 132
2852 3751 3752 27.9527950442 85 132
2853 3752 174 23.155363873 85 132
2854 3753 3754 21.0688327632 85 132
2855 3760 3761 0.636484422892 85 132
2856 3754 3755 23.7320085848 85 132
2857 259 203 69.2453792302 60 132
2858 3755 3756 30.9888123252 85 132
2859 3750 174 6.81815339432 85 132
2860 884 3759 7.70486996248 85 132
2861 3757 3758 61.5842796858 85 132
2862 5910 1668 0.766645295479 60 132
2863 5965 4723 17.0958544678 60 132
2864 5962 5965 20.7478604446 60 132
2865 5963 5964 14.3212559849 60 132
2866 5192 259 100.335759173 60 132
2867 5137 201 72.534160233 60 132
2868 5634 2138 3.9441079768 110 132
2869 5960 5961 24.1480977721 60 132
2870 4723 5963 16.6274662534 60 132
2871 5084 5192 63.0271917061 60 132
2872 5961 5962 11.3464319055 60 132
2873 5930 2168 17.3725213651 110 132
2874 165 5191 58.2981006346 200 135
2875 5200 5201 60.0000172102 32 135
2876 275 5200 60.0000218006 32 135
2877 218 5182 61.1526207668 85 132
2878 5182 5183 60.1078604482 85 132
2879 5183 5184 16.5600185864 85 132
2880 5184 5185 1.78537284818 85 132
2881 5967 5959 13.623848979 60 132
2882 4713 5967 24.4747352388 60 132
2883 5966 2871 16.147869983 60 132
2884 4719 5966 18.5803097935 60 132
2885 135 5186 5.76722840273 85 132
2886 5199 135 21.5561019326 32 135
2887 5908 5909 0.0271073786915 60 132
2888 5909 5910 87.9953310554 60 132
2889 3766 5187 1.32639258514 85 132
2890 5187 5188 49.9999516137 85 132
2891 5188 5189 49.6548545864 85 132
2892 5189 5190 36.2479901859 85 132
2893 5190 296 15.991937615 85 132
2894 5098 5084 72.6557623813 60 132
2895 5186 220 41.9151227734 85 132
2896 5949 5950 15.5392597744 60 132
2897 5959 4707 9.49096496715 60 132
2898 5925 5926 31.6141432241 110 132
2899 5926 5927 41.8118794728 110 132
2900 5927 5235 32.5161401924 110 132
2901 5942 5943 4.73471394723 60 132
2902 5941 5942 52.2738185842 60 132
2903 5940 5941 49.8955170457 60 132
2904 5235 5928 34.3997730464 110 132
2905 5928 5929 39.0807428226 110 132
2906 5939 5940 49.9861354101 60 132
2907 5938 5939 49.9872376263 60 132
2908 1159 5938 50.226676036 60 132
2909 208 5137 64.8825592892 60 132
2910 292 5105 70.6421883313 32 135
2911 5147 5193 4.35942025676 85 132
2912 5193 219 41.5208671628 85 132
2913 221 5194 8.06543695722 85 132
2914 5194 5159 42.7981162339 85 132
2915 5165 5195 7.05720557276 85 132
2916 5195 5196 2.04765327343 85 132
2917 5196 5153 39.1613335711 85 132
2918 5929 5930 37.9900303732 110 132
2919 5924 5925 35.3754468499 110 132
2920 4707 5960 25.2644799864 60 132
2921 2225 5924 35.9574533916 110 132
2922 5165 5197 40.0000531991 32 135
2923 5958 1487 47.0393152483 60 132
2924 5957 5958 21.2729214108 60 132
2925 5956 5957 33.1467637718 60 132
2926 5955 5956 66.6462984088 60 132
2927 5954 5955 60.1923031522 60 132
2928 1460 1447 1.26549950588 60 132
2929 5913 5914 0.808490457692 60 132
2930 5953 5954 17.6881878749 60 132
2931 5952 5953 32.7365969871 60 132
2932 5951 5952 22.5173342506 60 132
2933 5950 5951 27.2592874836 60 132
2934 5948 5949 25.310141507 60 132
2935 5914 1451 0.403240003486 60 132
2936 5947 5948 32.7694250463 60 132
2937 5946 5947 8.32678257793 60 132
2938 5945 5946 35.1780476661 60 132
2939 4846 5945 7.95626595109 60 132
2940 4486 1043 0.980590943876 60 132
2941 4772 5915 8.40004673892 60 132
2942 5198 5199 40.0001441793 32 135
2943 5197 5198 39.9999596179 32 135
2944 5944 1174 33.1918124581 60 132
2945 5181 212 31.1849545273 85 132
2946 1249 1245 14.8446630265 110 132
2947 1011 5968 20.6803594018 60 132
2948 1332 8154 7.63717126978 110 132
2949 4871 8153 0.277973020479 60 132
2950 5156 5157 34.1693210941 60 132
2951 5155 5156 12.0740968376 60 132
2952 5154 5155 21.5836060799 60 132
2953 5152 5153 10.9883950702 60 132
2954 5151 5152 59.2442203833 60 132
2955 5150 5151 15.1748333125 60 132
2956 8153 8150 0.304384624491 60 132
2957 8151 8152 0.637952043883 60 132
2958 8150 8151 1.01547673567 60 132
2959 7626 5913 0.322448445588 60 132
2960 8148 4829 6.76404169145 60 132
2961 4836 8148 6.62323440559 60 132
2962 5008 6983 10.853571808 60 132
2963 6964 1105 7.31369561412 60 132
2964 5619 4794 12.5266455999 60 132
2965 5423 913 8.13560845941 85 132
2966 5003 5424 9.2714431458 60 132
2967 8154 8155 19.7313733176 110 132
2968 2769 5364 8.12416272681 60 132
2969 1034 8156 11.8449746731 60 132
2970 8156 2797 0.366786040523 60 132
2971 5970 8030 2.57566476863 60 132
2972 1234 1235 15.3563291435 60 132
2973 1335 5021 11.3327396959 60 132
2974 5020 6783 11.7818390756 60 132
2975 2793 7100 6.92476714418 85 132
2976 5153 221 0.835592011234 85 132
2977 5006 5431 9.02529290409 60 132
2978 5161 5154 32.7824498226 32 135
2979 5154 5142 1.34412776583 32 135
2980 5159 5147 1.60426505529 85 132
2981 312 5148 52.4611331787 60 132
2982 5158 5148 7.99596826512 60 132
2983 5157 5158 53.797426244 60 132
2984 2786 4776 3.99474166855 60 132
2985 5368 2789 5.13068309241 60 132
2986 8157 5369 7.85111870954 60 132
2987 2799 8157 0.165680415349 60 132
2988 5160 5161 16.5000298083 32 135
2989 4814 8305 5.4411468663 32 135
2990 1125 2179 8.994098065 60 132
2991 5501 4888 3.44738118002 60 132
2992 201 5140 58.521385429 32 135
2993 5139 267 77.5826322372 32 135
2994 2858 8113 14.884214894 60 132
2995 5138 5139 54.4183888441 32 135
2996 5137 5138 30.405553547 32 135
2997 8098 8099 5.35319739361 32 135
2998 7020 8098 20.0278967444 32 135
2999 8097 8067 34.5846457986 32 135
3000 8096 8097 24.8171649067 32 135
3001 8095 8096 20.7769330264 32 135
3002 6131 6132 14.7846203877 60 132
3003 6133 1739 20.0212387228 85 132
3004 1739 6134 5.89881325372 85 132
3005 6135 1230 38.4930736107 85 132
3006 8094 8095 18.7471888565 32 135
3007 8093 8094 20.0498375056 32 135
3008 8092 8093 20.8794386175 32 135
3009 8091 8092 19.4256923689 32 135
3010 8090 8091 20.7437445635 32 135
3011 5140 5141 82.3724207535 32 135
3012 5141 200 22.2010013048 32 135
3013 314 219 1.38104398924 85 132
3014 5142 5143 36.7133848404 60 132
3015 1556 5389 6.96813891961 60 132
3016 1554 5372 8.2228930427 60 132
3017 1557 5443 7.61522271514 60 132
3018 1560 5460 6.6402259753 60 132
3019 5481 5010 8.96457751347 60 132
3020 1496 5482 8.08180982206 60 132
3021 1359 1360 4.31979335759 60 132
3022 1360 1361 25.5152216803 60 132
3023 1361 1362 11.6979274724 60 132
3024 4887 254 8.08076357831 60 132
3025 1116 1363 40.8265098296 32 135
3026 1365 1366 26.402511354 60 132
3027 1366 1367 8.51043971574 60 132
3028 5149 5150 44.6856528535 60 132
3029 5148 5149 5.46247902847 60 132
3030 5146 5147 35.6537363243 60 132
3031 5145 5146 35.5398153702 60 132
3032 5144 5145 42.7234590455 60 132
3033 312 5144 21.9999016919 60 132
3034 5143 88 10.7247583366 60 132
3035 1364 1365 82.3029874314 60 132
3036 1129 4713 14.3259923916 60 132
3037 8304 4717 4.30479279402 60 132
3038 5964 4719 17.3832821987 60 132
3039 5167 5168 40.6776562847 32 135
3040 5160 5167 36.3760942716 32 135
3041 5968 5969 14.4222516969 60 132
3042 5969 5970 6.4714892413 60 132
3043 4729 5971 6.78556622598 60 132
3044 5971 5972 27.8820462841 60 132
3045 5166 5164 39.9571220189 85 132
3046 275 5166 9.17726830447 85 132
3047 5201 134 20.1702212488 32 135
3048 5972 1011 4.59057164194 60 132
3049 4732 5973 6.42662726445 60 132
3050 5973 5974 22.3145488191 60 132
3051 5974 5975 22.5046142159 60 132
3052 5975 5959 13.7111039675 60 132
3053 2018 2019 5.35278714803 32 135
3054 1248 1249 14.9616939631 110 132
3055 1247 1248 10.6102057814 110 132
3056 5976 5977 39.9971323981 85 132
3057 5977 5978 50.0000401602 85 132
3058 5168 5169 44.989998562 32 135
3059 5169 5170 19.6553336644 32 135
3060 5170 5171 46.4253095377 32 135
3061 5171 5164 76.128201924 32 135
3062 227 5181 16.9816845042 85 132
3063 209 314 39.2610134037 85 132
3064 208 205 162.462434376 85 132
3065 192 5178 8.82419790525 85 132
3066 2043 2044 22.2230267961 300 87
3067 2044 2045 19.8518187832 300 87
3068 2045 2046 22.1007932211 300 87
3069 192 203 162.506674194 85 132
3070 277 112 52.5566619544 60 132
3071 5978 5979 50.0001121621 85 132
3072 2176 283 37.4770525876 60 132
3073 5177 218 43.8614840833 85 132
3074 5123 5177 4.73628924201 85 132
3075 5176 2176 47.248052436 60 132
3076 5175 5176 52.2985986622 60 132
3077 2174 5175 51.3903129076 60 132
3078 5174 289 25.3340699009 85 132
3079 5173 284 8.61213050556 60 132
3080 5172 5173 18.0506882954 60 132
3081 2174 5172 12.2883020861 60 132
3082 220 5123 2.34856848728 85 132
3083 4697 8304 4.88167891218 60 132
3084 5979 4792 43.733766598 85 132
3085 5164 5165 1.18807967718 85 132
3086 3959 5779 1.90638558539 60 132
3087 8299 8300 22.6903683527 60 132
3088 1169 4738 5.76600381499 60 132
3089 4302 4494 10.0307215492 110 132
3090 2872 6639 4.29339699248 60 132
3091 1172 4297 19.3787720338 110 132
3092 8162 4498 10.2206925668 60 132
3093 2017 2018 17.5507636241 32 135
3094 2016 2017 19.9121523973 32 135
3095 4300 8162 5.024600368 60 132
3096 8161 238 13.3797910167 110 132
3097 8300 1021 3.7760429022 60 132
3098 6601 8161 6.57489777627 110 132
3099 1332 5028 12.9429015682 60 132
3100 1023 8288 0.00259615042542 60 132
3101 8288 8301 19.4314026773 60 132
3102 8301 8302 16.9874350032 60 132
3103 8302 8303 18.9307158084 60 132
3104 8303 4731 20.0766868279 60 132
3105 5779 2021 2.60987743816 60 132
3106 5784 5794 26.2038027374 32 135
3107 1337 1140 8.32241627414 60 132
3108 1336 1337 19.0571169677 60 132
3109 6000 3802 79.7739921108 32 135
3110 1246 1234 29.9430929479 110 132
3111 5163 5162 16.3728395861 60 132
3112 1245 1246 10.2352483234 110 132
3113 1243 1244 32.8869625428 60 132
3114 1242 1243 7.50804417962 60 132
3115 1241 1242 20.6802194073 60 132
3116 1240 1241 25.6659513683 60 132
3117 1239 1240 46.3465080605 60 132
3118 231 2207 6.34805436396 200 135
3119 284 5163 26.4789355449 60 132
3120 5136 293 28.1132744139 200 135
3121 1238 1239 40.8110599954 60 132
3122 1237 1238 29.5807527068 60 132
3123 1236 1237 28.3981354661 60 132
3124 1235 1236 18.0288858071 60 132
3125 1332 1333 5.22551595544 110 132
3126 1016 8299 13.7903923089 60 132
3127 1333 1334 17.6786108617 110 132
3128 1334 1335 20.6079250044 110 132
3129 5162 5160 2.34997464655 32 135
3130 5202 134 49.4031643136 85 132
3131 5493 5494 9.10239614175 60 132
3132 5203 5204 60.0001424075 32 135
3133 5394 5395 19.8266425525 60 132
3134 5393 5394 23.5046508436 60 132
3135 5392 5393 22.0462474134 60 132
3136 5391 5392 12.5532749339 60 132
3137 5390 5391 11.7252196609 60 132
3138 5389 5390 11.3183693871 60 132
3139 5387 5388 45.7509864137 60 132
3140 5395 5396 34.594048164 60 132
3141 5386 5387 31.3284006433 60 132
3142 5384 5385 19.5992844284 60 132
3143 5383 5384 15.4160596882 60 132
3144 5382 5383 21.8734386288 60 132
3145 5381 5382 27.1877485117 60 132
3146 5380 5381 8.04627874731 60 132
3147 5379 5380 17.850775604 60 132
3148 5378 5379 12.2273036507 60 132
3149 5385 5386 16.7153340981 60 132
3150 5396 5397 10.1467578449 60 132
3151 5397 5398 10.866885519 60 132
3152 5398 5399 12.0794827613 60 132
3153 5415 5416 28.6515133628 85 132
3154 1140 1141 3.77350763338 60 132
3155 5413 5414 17.8207991096 85 132
3156 5412 5413 17.7292888459 85 132
3157 5411 5412 14.5281017657 85 132
3158 5410 5411 11.0543555261 85 132
3159 5409 5410 33.4209029233 85 132
3160 2230 5409 15.0969739075 85 132
3161 5407 5408 14.3920570452 60 132
3162 5406 5407 18.1683749415 60 132
3163 5405 5406 27.5615274977 60 132
3164 5404 5405 28.3055145467 60 132
3165 5403 5404 12.4107562451 60 132
3166 5402 5403 17.3591622784 60 132
3167 5401 5402 37.6529862835 60 132
3168 5400 5401 5.35070827161 60 132
3169 5399 5400 21.5186764575 60 132
3170 5377 5378 14.2438284185 60 132
3171 5416 5417 23.0410068412 85 132
3172 5376 5377 21.6088607424 60 132
3173 5374 5375 23.3351382198 60 132
3174 1106 1107 14.848929903 60 132
3175 1105 1106 9.12098609377 60 132
3176 449 5507 2.10742341725 300 87
3177 5507 5508 14.4304806952 300 87
3178 1143 1144 41.1169152846 60 132
3179 1147 1148 6.3404075032 110 132
3180 1148 1149 8.56745322649 110 132
3181 1112 1113 23.5371557333 85 132
3182 5317 5316 3.02539232876 110 132
3183 1925 5335 1.4126945878 300 87
3184 1612 5334 24.2000286396 60 132
3185 1611 5333 6.655304515 60 132
3186 5332 402 20.5304254463 350 89
3187 5331 5332 20.3723938695 350 89
3188 5330 5331 20.1715741823 350 89
3189 706 5330 19.8633714159 350 89
3190 5336 5318 2.94067751583 110 132
3191 2207 5348 1.71003139731 200 135
3192 5348 5346 3.73241083765 200 135
3193 1116 1117 10.4694098828 32 135
3194 5373 5374 13.2254456146 60 132
3195 5372 5373 37.1124799842 60 132
3196 5370 5371 47.2233602082 60 132
3197 5369 5370 97.6699804385 60 132
3198 5367 5368 144.679007657 60 132
3199 2794 4768 10.4323875027 60 132
3200 5365 5366 49.3592348392 60 132
3201 5364 5365 95.8804869059 60 132
3202 4442 5363 69.7000490746 32 135
3203 1130 1131 0.00529244727471 60 132
3204 1129 1130 3.75165219764 60 132
3205 1127 1128 10.1339225379 60 132
3206 1126 1127 16.909803813 60 132
3207 915 1126 2.2357417113 60 132
3208 256 1125 12.948380633 110 132
3209 1119 1120 1.07357162803 110 132
3210 1117 1118 26.110762981 32 135
3211 5375 5376 25.2780521603 60 132
3212 5329 707 20.5238123406 350 89
3213 5417 5418 25.6877592188 85 132
3214 5419 5420 29.0585834555 85 132
3215 1556 5499 13.801644105 150 135
3216 5499 5500 6.92554344428 150 135
3217 5500 5501 18.8781684761 150 135
3218 5474 5475 11.2512229118 60 132
3219 5473 4970 6.40471299292 60 132
3220 5472 5473 39.15083806 60 132
3221 5471 5472 35.3938283149 60 132
3222 5498 5006 17.3297965939 110 132
3223 5470 5471 40.0632440641 60 132
3224 5468 5469 27.7593104297 60 132
3225 5467 5468 19.5582222693 60 132
3226 5466 5467 26.8337763813 60 132
3227 5465 5466 26.1714717997 60 132
3228 5464 5465 30.4731497958 60 132
3229 5463 5464 27.3911282145 60 132
3230 5462 5463 11.9514558532 60 132
3231 5469 5470 35.1774266652 60 132
3232 5497 5498 1.43507525948 110 132
3233 5475 5476 39.2391578461 60 132
3234 5476 5477 54.2532843808 60 132
3235 5492 5493 28.8637228596 60 132
3236 5491 5492 23.0989777816 60 132
3237 5490 5491 20.139025494 60 132
3238 5489 5490 28.5273463805 60 132
3239 5488 5489 12.3892475836 60 132
3240 5495 5496 17.3311538451 60 132
3241 5487 5488 12.5221290277 60 132
3242 5486 5487 16.5946894495 60 132
3243 5485 5486 45.698375165 60 132
3244 5484 5485 24.4744168872 60 132
3245 5483 5484 27.9875275013 60 132
3246 5482 5483 52.401779482 60 132
3247 5480 5481 42.3399711753 60 132
3248 5479 5480 63.3561640412 60 132
3249 5478 5479 50.819491546 60 132
3250 1125 5497 21.9877359679 110 132
3251 5477 5478 80.1968723121 60 132
3252 5461 5462 14.1422632101 60 132
3253 5418 5419 27.77416853 85 132
3254 5460 5461 15.5786546437 60 132
3255 5458 5459 38.1006153693 60 132
3256 5436 5437 24.1683192133 60 132
3257 5435 5436 20.8129534984 60 132
3258 5434 5435 12.2963881079 60 132
3259 5433 5434 16.0640270526 60 132
3260 5432 5433 18.4575220669 60 132
3261 5431 5432 7.87708256236 60 132
3262 5430 4921 13.0688187569 60 132
3263 5437 5438 9.21000277095 60 132
3264 5429 5430 20.2213010758 60 132
3265 5427 5428 13.8731258419 60 132
3266 5426 5427 11.4911597691 60 132
3267 5425 5426 21.8963778843 60 132
3268 5424 5425 36.6700488769 60 132
3269 5422 5423 40.3919830347 85 132
3270 5421 5422 38.5495751315 85 132
3271 5420 5421 18.3436345929 85 132
3272 5428 5429 32.0484471287 60 132
3273 5438 5439 19.1199903004 60 132
3274 5439 4911 21.7716145534 60 132
3275 5440 5441 2.42335016048 85 132
3276 5457 5458 21.3424066763 60 132
3277 5456 5457 21.2853830313 60 132
3278 5455 5456 32.0351996617 60 132
3279 5454 5455 7.40680367215 60 132
3280 5453 5454 26.8338806026 60 132
3281 5452 5453 17.640535836 60 132
3282 5451 5452 12.3629245613 60 132
3283 5450 5451 27.4068015795 60 132
3284 5449 5450 24.2611946141 60 132
3285 5448 5449 18.2499539726 60 132
3286 5447 5448 8.72616718175 60 132
3287 5446 5447 17.3633344797 60 132
3288 5445 5446 23.8492798994 60 132
3289 5444 5445 14.0677167887 60 132
3290 5443 5444 13.5579187966 60 132
3291 5442 2110 9.43619589644 85 132
3292 5441 5442 15.2439051754 85 132
3293 5459 4972 32.5044544636 60 132
3294 289 5203 20.999970688 32 135
3295 5328 5329 20.2180560147 350 89
3296 5326 5327 17.6938329647 350 89
3297 5609 5610 18.9280495743 32 135
3298 5610 5611 25.4840652679 32 135
3299 5611 5612 19.9711824718 32 135
3300 5612 5613 20.8671106632 32 135
3301 5613 5614 16.7798639103 32 135
3302 5614 5615 12.5118103587 32 135
3303 5616 5617 34.6820685695 60 132
3304 4812 5609 23.0622477082 32 135
3305 4992 5618 19.6451557913 60 132
3306 5619 5620 14.8753240299 60 132
3307 5620 5621 22.4035348102 60 132
3308 5621 4966 11.5677649533 60 132
3309 5044 5627 7.40931143401 32 135
3310 2021 2022 22.6562184666 32 135
3311 2019 2020 9.23691540794 32 135
3312 2212 4737 2.21314007658 60 132
3313 5618 4957 19.5828571533 60 132
3314 4431 4475 10.2069778738 110 132
3315 5218 282 6.00000423819 32 135
3316 211 5218 67.6541143874 32 135
3317 1018 1019 0.00152315496867 60 132
3318 1017 1018 20.431000438 60 132
3319 1016 1017 29.5441265711 60 132
3320 1014 1015 33.3722416393 60 132
3321 8374 2764 4.04960559188 200 83
3322 5606 4121 39.1276881616 32 135
3323 4197 5607 14.3334960432 60 132
3324 5607 4189 29.8672577609 60 132
3325 3996 5608 20.5000201047 110 132
3326 5221 218 20.8570031414 32 135
3327 5220 5221 60.0000935981 32 135
3328 5159 5220 59.9999441532 32 135
3329 881 210 41.0113716991 85 132
3330 5111 4976 43.4994793375 32 135
3331 4976 5219 80.0000495203 32 135
3332 5111 4979 141.498513476 32 135
3333 5202 132 139.818958282 32 135
3334 5632 5633 1.93752883826 60 132
3335 1019 1020 20.0801870755 60 132
3336 5634 2142 46.0475010572 110 132
3337 5215 5216 23.5999404876 32 135
3338 5786 5787 27.5740339854 32 135
3339 5785 5786 21.005053939 32 135
3340 2012 5785 5.02031911803 32 135
3341 5783 5784 4.35185175368 32 135
3342 5782 5783 6.63151756803 32 135
3343 5781 5782 12.0796817532 32 135
3344 5780 5781 15.2142105278 32 135
3345 5787 5788 22.5974025571 32 135
3346 5779 5780 3.11687551895 32 135
3347 5209 5210 77.0378234224 60 132
3348 5208 5209 47.8910732004 60 132
3349 202 5208 27.3978862772 60 132
3350 5106 5206 8.30884418487 60 132
3351 5206 5207 31.3747636861 32 135
3352 5205 5202 27.5642226609 85 132
3353 5204 5202 62.7382951131 32 135
3354 8079 8090 19.8247686514 32 135
3355 5210 198 14.7627922834 60 132
3356 88 5211 38.1120201369 60 132
3357 5211 110 12.882814615 60 132
3358 5494 5495 24.295665592 60 132
3359 5216 5217 38.8999272016 32 135
3360 5216 916 18.0536827109 32 135
3361 5215 5207 71.8036179884 32 135
3362 916 5106 71.0696403683 32 135
3363 5793 5794 1.66047281164 32 135
3364 5792 5793 2.21833947118 32 135
3365 5791 5792 23.9925449259 32 135
3366 5790 5791 20.6555911679 32 135
3367 5789 5790 21.2630526273 32 135
3368 292 4974 33.5729200257 32 135
3369 1176 2167 6.90619479706 60 132
3370 5788 5789 22.3969911414 32 135
3371 1013 1014 27.0794107021 60 132
3372 1569 2041 67.0017132321 300 87
3373 2041 2042 21.5929530397 300 87
3374 2042 2043 22.5501143681 300 87
3375 5218 5215 32.4128217846 32 135
3376 5327 5328 21.0129800364 350 89
3377 1021 1022 19.4733087328 60 132
3378 1024 1025 4.3687705597 60 132
3379 1168 1169 0.822448175068 60 132
3380 4928 8450 4.64488804969 60 132
3381 8450 5440 5.61004821787 85 132
3382 1170 1082 8.50218771886 110 132
3383 1082 1171 2.29222533751 110 132
3384 1172 1173 2.20420003891 110 132
3385 1174 252 2.2307889636 60 132
3386 1166 1167 1.77370028157 85 132
3387 252 1175 2.11911812986 60 132
3388 1082 1083 17.5321560167 60 132
3389 1176 1177 6.41085337613 110 132
3390 1177 1178 50.000093088 110 132
3391 8438 4036 15.8265738866 60 132
3392 6921 8438 19.1775487749 60 132
3393 8437 3808 18.0514219116 110 132
3394 2931 8437 10.9008025795 110 132
3395 1083 1084 25.1462744758 60 132
3396 1162 1044 12.0456317513 85 132
3397 1158 1159 4.02197575791 60 132
3398 5308 5309 341.61256756 60 132
3399 5325 5326 17.7753403629 350 89
3400 5324 5325 25.2950989126 350 89
3401 5322 5323 21.4712879209 300 87
3402 5321 5322 20.2412324238 300 87
3403 2142 2140 33.783808054 110 132
3404 5320 2140 51.6192959676 110 132
3405 5313 5319 57.9955749433 110 132
3406 5319 5320 20.6203983708 110 132
3407 5318 5316 93.8049973925 110 132
3408 1613 5317 283.290848737 60 132
3409 5316 5315 15.4000867075 110 132
3410 5315 5313 82.559153783 110 132
3411 5313 5314 584.081456849 60 132
3412 2137 5312 841.410039691 60 132
3413 5311 864 102.381667048 60 132
3414 5310 5311 39.3264132849 60 132
3415 5308 5310 164.404205987 60 132
3416 2905 2928 19.288983652 60 132
3417 1022 1023 83.8114039306 60 132
3418 1178 1179 50.0000002181 110 132
3419 1180 1181 31.5321430827 110 132
3420 6790 8419 13.5917745717 60 132
3421 1168 4743 6.22541275685 60 132
3422 1185 1186 27.6421289262 60 132
3423 1187 1188 77.7394572445 60 132
3424 2024 2020 16.1401736357 32 135
3425 2023 2024 13.2433046859 32 135
3426 2022 2023 6.05214755248 32 135
3427 8419 2865 7.20760403997 60 132
3428 8400 8401 0.400102811485 110 132
3429 6783 8399 11.4174044775 110 132
3430 5585 5321 23.3827066441 300 87
3431 1029 1030 25.8634824031 60 132
3432 2770 1493 1.90797510487 200 83
3433 1028 1029 3.89328848825 60 132
3434 1026 1028 3.90275048876 60 132
3435 1026 1027 4.240568044 60 132
3436 8399 8159 12.4934845816 110 132
3437 6792 8422 5.98344054152 60 132
3438 8423 2869 13.3813256987 60 132
3439 8424 8425 8.57392855387 85 132
3440 1182 1183 62.8600988007 32 135
3441 1184 1185 6.32215923681 60 132
3442 8433 4836 1.9356265136 60 132
3443 8432 8433 1.9356265136 60 132
3444 8431 8432 1.78661894374 60 132
3445 8430 8431 1.79155637637 60 132
3446 8429 8430 2.62284902368 60 132
3447 1044 1045 0.711738919557 85 132
3448 1042 1043 2.00267627222 60 132
3449 1041 1042 1.95723658254 60 132
3450 8428 1447 2.8376576603 60 132
3451 8427 8428 2.42203241121 60 132
3452 1033 1034 142.606847757 60 132
3453 1031 1032 2.57637308087 60 132
3454 1030 1031 2.57637307997 60 132
3455 6594 8426 0.273266609018 110 132
3456 8425 6793 59.9293988527 85 132
3457 1179 1180 24.1000742593 110 132
3458 1113 6138 25.2634950875 85 132
3459 5414 5415 16.8053613809 85 132
3460 1738 6143 116.730567924 85 132
3461 6842 6843 15.2604870274 60 132
3462 6844 6845 6.28930579469 60 132
3463 3753 7627 15.1045130559 85 132
3464 1027 7625 0.488639949114 60 132
3465 7625 7626 0.707290604679 60 132
3466 7624 1451 1.01358928507 60 132
3467 2208 7624 0.779947100682 60 132
3468 2928 6852 9.80794082968 110 132
3469 6852 6853 22.1851420782 110 132
3470 6853 2894 20.9381263722 110 132
3471 6857 4117 16.2030472445 110 132
3472 4117 6858 9.58113114427 60 132
3473 6841 6842 17.5276935729 60 132
3474 6858 6859 19.2894977901 60 132
3475 6860 6861 18.0124012835 60 132
3476 6861 6862 19.2254135199 60 132
3477 6862 6863 19.0012835614 60 132
3478 6863 6864 18.4496179911 60 132
3479 6864 6865 18.3051043428 60 132
3480 6865 6866 19.2844004569 60 132
3481 6866 6867 18.4966432093 60 132
3482 6867 6868 20.5438086047 60 132
3483 6868 6869 17.216860806 60 132
3484 6869 6870 21.2205122695 60 132
3485 6870 6871 20.7843710994 60 132
3486 6871 6872 18.5144416335 60 132
3487 6859 6860 20.2566686555 60 132
3488 6872 6873 19.8181956044 60 132
3489 6840 6841 16.1550544551 60 132
3490 6838 6839 36.9781993445 60 132
3491 6813 6814 30.5765323685 32 135
3492 6814 6815 25.8868877388 32 135
3493 6815 4069 18.7865191695 32 135
3494 4842 6816 11.9015798156 60 132
3495 6816 6817 18.7173939383 60 132
3496 6817 6818 12.4702823905 60 132
3497 6818 6819 21.95498064 60 132
3498 6819 6820 14.6636721868 60 132
3499 6820 6821 28.2799894208 60 132
3500 6821 6822 22.3017431819 60 132
3501 6822 6823 11.0824950358 60 132
3502 6823 6824 17.3511476725 60 132
3503 6839 6840 21.7164273668 60 132
3504 6824 6825 11.889814836 60 132
3505 6826 6827 15.0163749975 60 132
3506 6827 6828 13.1910841224 60 132
3507 6828 6829 21.255499398 60 132
3508 6829 6830 31.3520162444 60 132
3509 6830 6831 51.2357362548 60 132
3510 6831 6832 31.4979783747 60 132
3511 6832 6833 20.154947617 60 132
3512 6833 6834 11.2510362633 60 132
3513 6834 6835 30.0985220524 60 132
3514 6835 6836 39.8206475288 60 132
3515 6836 6837 21.1055777822 60 132
3516 6837 6838 32.8865268038 60 132
3517 6825 6826 29.8885869339 60 132
3518 6873 6874 19.6914341783 60 132
3519 6874 6875 20.2684331162 60 132
3520 6875 6876 19.1677783012 60 132
3521 6906 6907 6.26692606137 110 132
3522 6907 6908 22.2061887088 110 132
3523 6908 6909 21.0808506717 110 132
3524 6909 3817 10.4877359328 110 132
3525 6910 6911 20.2050710491 110 132
3526 6911 6912 20.2407800071 110 132
3527 6912 6906 13.4285449415 110 132
3528 6913 6910 20.3348534538 110 132
3529 6914 6915 19.6419056103 110 132
3530 6915 6916 10.5254811291 110 132
3531 6917 6918 22.806345521 110 132
3532 2923 6919 21.6011250867 110 132
3533 6905 6880 17.7704532299 110 132
3534 6919 6917 24.0162308655 110 132
3535 6921 6922 21.5259954704 60 132
3536 6922 6923 16.1384747736 60 132
3537 6845 6920 34.3531267274 60 132
3538 6845 6924 21.7248476668 60 132
3539 6924 6925 18.6558362282 60 132
3540 6925 6926 19.929382956 60 132
3541 6926 6927 18.0304898713 60 132
3542 6927 6928 19.8617218028 60 132
3543 6928 6929 18.9783001618 60 132
3544 6929 6930 17.9953768501 60 132
3545 6930 6931 20.0355089285 60 132
3546 6931 6932 19.4351883445 60 132
3547 6920 6921 6.54268882925 60 132
3548 3960 6905 17.2238630393 110 132
3549 6904 4066 5.49211798909 60 132
3550 6903 6904 19.97458738 60 132
3551 6876 6877 20.3104787979 60 132
3552 6877 6878 20.304448404 60 132
3553 6878 6879 20.2070808635 60 132
3554 6879 4068 23.1355032142 60 132
3555 6880 6881 19.8608895064 60 132
3556 6881 6882 19.9239916689 60 132
3557 6882 6883 20.2320061777 60 132
3558 6883 6884 17.2077646718 60 132
3559 6884 6885 19.4990513103 60 132
3560 6885 6886 18.5765730157 60 132
3561 6886 6887 19.7689181547 60 132
3562 6887 6888 20.5130532098 60 132
3563 6888 6889 20.4006559943 60 132
3564 6889 6890 20.1315609184 60 132
3565 6890 6891 18.7233600621 60 132
3566 6891 6892 16.7336351398 60 132
3567 6892 6893 18.7966693059 60 132
3568 6893 6894 20.9109223377 60 132
3569 6894 6895 20.1774429498 60 132
3570 6895 6896 20.9091004586 60 132
3571 6896 6897 20.2320111711 60 132
3572 6897 6898 19.9352697494 60 132
3573 6898 6899 18.2274349539 60 132
3574 6899 6900 20.0202903325 60 132
3575 6900 6901 19.7877653612 60 132
3576 6901 6902 20.2451339835 60 132
3577 6902 6903 19.035120304 60 132
3578 6812 6813 52.9526771513 32 135
3579 4099 6812 81.6667173975 32 135
3580 1505 6811 6.48952341177 60 132
3581 7627 7628 21.57493653 85 132
3582 6716 6717 15.2012072038 60 132
3583 6717 6718 21.9808600824 60 132
3584 6718 6711 5.44874618327 60 132
3585 4494 6719 1.95507799337 60 132
3586 6719 6720 25.3994199674 60 132
3587 6720 6721 30.4044155372 60 132
3588 6721 6722 38.1793005696 60 132
3589 6722 6716 13.0626610769 60 132
3590 4477 6723 11.3869883265 110 132
3591 6723 4578 10.7983540194 110 132
3592 4187 6724 47.2736589846 110 132
3593 6724 4184 14.7328824399 110 132
3594 6715 4489 2.263444828 60 132
3595 4533 4525 40.1508570033 110 132
3596 4229 1513 44.0562732009 110 132
3597 4220 4229 43.1317991206 110 132
3598 4207 4220 43.7341876338 110 132
3599 6731 6732 12.1195485233 60 132
3600 6732 6733 7.52690107915 60 132
3601 6733 6734 12.9337877935 60 132
3602 6734 4020 4.95515589445 60 132
3603 6735 6736 14.8677568451 60 132
3604 6736 6731 17.421080862 60 132
3605 6737 6738 14.4783805618 60 132
3606 6738 6739 15.5924039215 60 132
3607 6739 6740 7.7902191451 60 132
3608 6725 4533 48.2415316141 110 132
3609 6714 6715 30.8885289897 60 132
3610 6713 6714 29.5290870164 60 132
3611 6712 6713 21.0889222233 60 132
3612 6688 6689 58.6190257449 60 132
3613 6689 4647 56.422071712 60 132
3614 4594 6690 8.40429363831 60 132
3615 6690 6691 15.5724509346 60 132
3616 6691 6692 23.7654748189 60 132
3617 6692 6693 27.4671988899 60 132
3618 6693 6694 29.1691914504 60 132
3619 6694 6695 31.1710170729 60 132
3620 6695 6696 27.9951536686 60 132
3621 6696 6697 33.594025293 60 132
3622 6697 6698 13.3687154106 60 132
3623 6698 6699 45.7119323547 60 132
3624 6699 6700 14.8801202699 60 132
3625 6700 6701 28.3478537774 60 132
3626 6701 6702 27.3062510448 60 132
3627 6702 4649 8.94020505379 60 132
3628 4476 6703 14.087240522 110 132
3629 6703 1119 6.28784875183 110 132
3630 4476 6704 39.8899415896 110 132
3631 6705 6706 19.2821660306 60 132
3632 6706 6707 36.3684751384 60 132
3633 6707 6708 39.0478140911 60 132
3634 6708 4483 14.5984547052 60 132
3635 4461 6709 13.9203702027 60 132
3636 6709 6710 20.5217989557 60 132
3637 6710 6705 8.37584933273 60 132
3638 6711 6712 25.3019841875 60 132
3639 6740 6741 14.531552254 60 132
3640 6932 6933 19.1314593539 60 132
3641 6741 6742 33.8401227357 60 132
3642 6743 6744 12.6546661344 60 132
3643 7642 7649 3.62080016744 200 135
3644 7648 7642 22.552728922 200 135
3645 7647 7648 25.0594102921 200 135
3646 7646 7647 26.2495842636 200 135
3647 7645 7646 19.3459654437 200 135
3648 7644 7645 19.3911718077 200 135
3649 7643 7644 29.2675278357 200 135
3650 6783 6784 9.85270693802 110 132
3651 6784 6785 7.86634870849 110 132
3652 6785 2864 3.38250581946 110 132
3653 6793 6525 30.4501210911 85 132
3654 7639 7640 19.8538910293 60 132
3655 7649 7650 25.0889362725 200 135
3656 7638 7639 29.987697787 60 132
3657 7636 7637 23.0247000628 60 132
3658 7635 7636 22.5941209232 60 132
3659 1951 1952 0.000608276291491 60 132
3660 1950 1951 8.98484635177 60 132
3661 1131 1950 15.6940198804 60 132
3662 3756 7635 19.3633967396 60 132
3663 7633 7634 0.932679323246 85 132
3664 7632 7633 20.0280483438 85 132
3665 7631 7632 21.7830249703 85 132
3666 7630 7631 26.9932219827 85 132
3667 7629 7630 25.7895572665 85 132
3668 7628 7629 21.7001430861 85 132
3669 7637 7638 22.8117041498 60 132
3670 7650 7651 18.7787166173 200 135
3671 1925 7660 7.05354393171 300 87
3672 7405 7364 1.66238984597 350 89
3673 6744 6745 35.6635996348 60 132
3674 6745 6746 19.6835008596 60 132
3675 6746 6747 21.7829029863 60 132
3676 6747 6748 10.1258453159 60 132
3677 6748 6731 15.0074481864 60 132
3678 4657 6737 10.8594511025 60 132
3679 4669 6749 10.2262200921 60 132
3680 6749 6750 15.3956752861 60 132
3681 6750 6735 2.04155911296 60 132
3682 4658 4656 32.1492944033 110 132
3683 6735 6751 36.637242281 60 132
3684 6751 6752 64.4314262536 60 132
3685 6752 6753 55.0096425242 60 132
3686 6753 4656 53.312313328 60 132
3687 4732 6754 19.7545722558 60 132
3688 6754 4728 29.8932910534 60 132
3689 5970 6755 15.3183640125 60 132
3690 6755 6756 23.6711621386 60 132
3691 6756 6757 25.5301662544 60 132
3692 6757 4734 24.8794302591 60 132
3693 6758 6759 10.0549809752 200 135
3694 6759 6760 12.7653008583 200 135
3695 6760 6761 16.3477619259 200 135
3696 6761 6762 20.4468955592 200 135
3697 6762 6763 23.2193922834 200 135
3698 6763 6764 10.4924720633 200 135
3699 6764 147 30.0414115016 200 135
3700 6742 6743 10.8464134794 60 132
3701 6687 6688 37.7142274418 60 132
3702 6933 6934 19.5301476954 60 132
3703 6935 6936 20.0950816371 60 132
3704 7126 253 24.8430580903 200 135
3705 5501 7127 20.0594502659 150 135
3706 7127 7128 4.23068516955 150 135
3707 7128 254 21.565254763 150 135
3708 7129 7130 2.46274919713 60 132
3709 7130 7131 17.97012712 60 132
3710 7131 7132 262.008210408 60 132
3711 7129 2139 299.731429304 60 132
3712 7133 7134 7.05716154026 110 132
3713 7134 7135 8.50709921121 110 132
3714 7135 5335 9.09891883764 110 132
3715 2162 7409 5.12682931297 60 132
3716 7125 7126 47.7403970489 200 135
3717 7409 2302 65.0462474583 300 87
3718 7403 7404 22.9561073356 350 89
3719 7402 7403 16.8983164246 350 89
3720 7401 7402 21.0395600003 350 89
3721 7400 7401 18.9917781161 350 89
3722 7399 7400 53.2128614996 350 89
3723 7398 7399 20.4004066633 350 89
3724 7397 7398 20.8415924535 350 89
3725 7396 7397 20.9077620273 350 89
3726 7395 7396 20.2052416962 350 89
3727 7394 7395 21.0332089795 350 89
3728 7393 7394 20.7977495182 350 89
3729 7392 7393 17.0084099783 350 89
3730 7404 7405 2.89281333671 350 89
3731 7391 7392 16.8955457443 350 89
3732 7124 7125 60.9290975739 200 135
3733 7122 7123 55.0142057335 200 135
3734 7080 2127 7.60114158804 85 132
3735 3915 6528 39.0110400533 85 132
3736 6520 3915 10.457611056 85 132
3737 3922 6520 31.5633119717 85 132
3738 3921 7086 5.15078026106 85 132
3739 7086 3928 35.5054028351 85 132
3740 1024 7097 82.7765309246 60 132
3741 7097 7098 56.6674453042 60 132
3742 7098 7099 55.8011656756 60 132
3743 7100 7101 50.3031271438 85 132
3744 7101 7102 47.8035592618 85 132
3745 7102 7103 48.0787350907 85 132
3746 7123 7124 99.3588906701 200 135
3747 7103 4792 8.00084665093 85 132
3748 7105 7106 14.0683163525 160 135
3749 7106 7107 22.9489752281 160 135
3750 7107 7108 21.0134798638 160 135
3751 7108 7109 22.2389264582 160 135
3752 7109 7110 22.199679502 160 135
3753 7110 7111 24.3673425922 160 135
3754 7111 7112 25.0696677684 160 135
3755 7112 7113 25.1277704391 160 135
3756 4856 4854 7.60112307652 60 132
3757 4272 4277 15.7747590853 110 132
3758 4595 920 17.0989286877 200 135
3759 920 7122 28.6137169873 200 135
3760 5633 7105 25.8006484601 160 135
3761 7390 7374 21.5697241991 300 87
3762 7389 7390 20.8715876251 300 87
3763 7388 7389 20.8312475138 300 87
3764 7305 7306 18.321569038 60 132
3765 7304 7305 21.0621788996 60 132
3766 7303 7304 21.0508326676 60 132
3767 7302 7303 19.3680190266 60 132
3768 7301 7302 30.4979558983 60 132
3769 7300 7301 29.7919408064 60 132
3770 7299 7300 14.6608900822 60 132
3771 4734 7299 7.98587778528 60 132
3772 4435 4429 7.73097607657 110 132
3773 6000 6351 1.74775431049 60 132
3774 5323 1926 21.7850925631 300 87
3775 2268 1497 4.36469548358 200 83
3776 7306 7307 32.9397943222 60 132
3777 5314 1696 201.700040658 60 132
3778 1698 7260 4.50045188145 60 132
3779 2141 7243 16.7810052633 110 132
3780 7259 7258 24.8342799071 60 132
3781 5634 7259 2.45713950935 60 132
3782 7258 7254 96.3403384002 60 132
3783 1672 7257 317.784145181 60 132
3784 7257 7252 205.348228576 60 132
3785 7256 5309 2.454878109 60 132
3786 71 7256 217.208039603 60 132
3787 7254 7255 2.46328243673 60 132
3788 7252 7253 6.95944894736 60 132
3789 5336 70 20.0923149342 110 132
3790 7307 7308 21.9994704708 60 132
3791 7308 1020 11.8263732816 60 132
3792 7387 7388 21.2296420129 300 87
3793 7386 7387 21.6572126092 300 87
3794 7385 7386 21.4463597148 300 87
3795 7384 7385 21.2908822736 300 87
3796 7373 7384 21.367602603 300 87
3797 7374 7383 6.56713217401 150 81
3798 7382 5585 19.6747369226 300 87
3799 7381 7382 27.8307578052 300 87
3800 7380 7381 26.4947774672 300 87
3801 7379 7380 20.852276614 300 87
3802 7378 7379 21.7208113333 300 87
3803 7377 7378 20.3452084038 300 87
3804 7376 7377 19.7870270886 300 87
3805 7375 7376 19.7685538417 300 87
3806 7374 7375 7.27880484717 300 87
3807 7372 7373 21.9841779691 300 87
3808 7371 7372 20.7169326891 300 87
3809 410 7371 21.1216605634 300 87
3810 7370 5324 19.5129717111 350 89
3811 7369 7370 20.4854113209 350 89
3812 7368 7369 20.7738419414 350 89
3813 7367 7368 20.8239768058 350 89
3814 7366 7367 14.0939206753 350 89
3815 7365 7366 33.3921861072 350 89
3816 7364 7365 15.8070427336 350 89
3817 1925 1926 19.9617496731 300 87
3818 4274 7085 24.9162460922 110 132
3819 7079 7080 98.6458055015 85 132
3820 6793 7079 71.5721012011 85 132
3821 7073 1441 1.86586231533 110 132
3822 6965 5105 41.4014691188 32 135
3823 5038 6966 10.9787979829 32 135
3824 6966 6965 26.2926593445 32 135
3825 6967 6968 34.0327850151 32 135
3826 6968 5038 0.175288020048 32 135
3827 6967 6969 37.8840830828 32 135
3828 395 6967 19.11403883 60 132
3829 5044 6970 40.0000296333 32 135
3830 6970 395 30.8946622034 32 135
3831 5043 6971 39.9999468214 32 135
3832 6971 394 29.5444611666 32 135
3833 6972 6973 21.5556557227 60 132
3834 4925 6964 9.8252120584 60 132
3835 6973 6974 72.5240471461 60 132
3836 6975 6976 41.318396694 60 132
3837 6976 396 27.2228003573 60 132
3838 4929 6977 41.8908756768 60 132
3839 6977 6978 39.999958565 60 132
3840 6978 6979 40.0000290882 60 132
3841 6979 6980 40.0000425533 60 132
3842 6980 6981 13.8891073237 60 132
3843 6981 6982 9.52234126306 60 132
3844 6983 6984 11.3897237632 60 132
3845 6984 6985 26.2236919525 60 132
3846 6985 6986 19.3045287889 60 132
3847 6986 6987 32.1773959613 60 132
3848 6974 6975 46.9752702047 60 132
3849 6963 2229 3.49163209933 60 132
3850 6962 6963 38.4000729644 60 132
3851 6961 6962 35.9182465329 60 132
3852 6936 6937 19.4849608674 60 132
3853 6937 6938 15.2823570499 60 132
3854 4316 6939 19.1331922323 32 135
3855 6939 6940 20.7194723148 32 135
3856 6940 6941 19.2274627034 32 135
3857 6941 6942 19.2950638502 32 135
3858 6942 6943 19.7367336966 32 135
3859 6943 6944 19.247213954 32 135
3860 6944 6945 20.5297874568 32 135
3861 6945 6946 19.7740330984 32 135
3862 6946 6947 19.4928222692 32 135
3863 6947 6948 19.7651615222 32 135
3864 6948 6949 21.746250274 32 135
3865 6950 6811 22.2185787059 60 132
3866 1464 1442 3.62894785041 110 132
3867 3865 1548 1.83644629983 60 132
3868 5058 2158 1.05777461207 32 135
3869 291 5058 5.68745495705 32 135
3870 7617 1490 36.374085098 60 132
3871 4740 7617 15.8568060909 60 132
3872 1453 1454 27.9513105856 60 132
3873 4921 6956 3.77114564675 60 132
3874 6956 6957 9.90298155138 60 132
3875 6957 6958 33.4673353986 60 132
3876 6958 6959 27.8572913748 60 132
3877 6959 6960 24.5083923117 60 132
3878 6960 6961 30.5433846889 60 132
3879 6987 6988 34.4796886077 60 132
3880 6934 6935 20.1363490726 60 132
3881 6988 6989 23.372790098 60 132
3882 6990 6991 9.6802802775 60 132
3883 7019 7020 19.9858902232 32 135
3884 7021 7022 19.544268853 32 135
3885 6526 7023 66.0000253614 32 135
3886 7024 7025 21.5859736178 32 135
3887 7026 7027 28.2642061482 32 135
3888 1186 7028 47.800002374 32 135
3889 7028 7029 54.173274804 32 135
3890 6577 7030 34.0001166406 32 135
3891 7030 7031 67.4697060273 32 135
3892 1119 7032 6.06385244242 32 135
3893 7032 7033 73.4913996068 32 135
3894 7033 7037 0.409121754574 32 135
3895 7017 7018 72.0207174374 32 135
3896 7037 7038 0.726300000213 32 135
3897 7039 7040 0.855883976298 32 135
3898 7040 7041 7.59684086265 32 135
3899 7041 7042 8.72517844175 32 135
3900 7042 7043 0.374228513304 32 135
3901 7043 7044 0.551572886888 32 135
3902 7044 7045 0.90791352007 32 135
3903 7045 7026 0.543224520746 32 135
3904 5632 4793 1.76079300316 60 132
3905 6143 6131 42.5933644832 85 132
3906 3769 7071 18.2223290819 110 132
3907 7071 7072 117.922303503 110 132
3908 7072 7073 107.919807753 110 132
3909 7038 7039 1.0492169694 32 135
3910 3997 7017 69.8165811655 32 135
3911 428 508 16.9358377711 350 89
3912 1162 7012 15.3792259895 85 132
3913 6991 6992 13.0959068298 60 132
3914 6992 6993 13.5810925811 60 132
3915 6993 6994 8.65006222339 60 132
3916 6994 6995 15.0651513534 60 132
3917 6995 6996 6.26571098369 60 132
3918 6996 6997 23.5688252723 60 132
3919 6997 6998 38.1035875807 60 132
3920 6998 6999 28.7194309405 60 132
3921 6999 7000 18.1935885083 60 132
3922 7000 4973 17.2382927635 60 132
3923 7001 7002 40.0277048305 60 132
3924 4979 7003 39.9999887369 32 135
3925 7003 7004 17.0000410585 32 135
3926 7004 4974 18.4004762208 32 135
3927 7005 7006 34.5987566928 85 132
3928 7006 7007 40.0000132145 85 132
3929 7007 4929 38.1084218323 85 132
3930 5002 7008 50.0000747558 85 132
3931 7008 7009 21.0841844357 85 132
3932 5000 7009 20.984784293 85 132
3933 5627 5000 78.5676863862 32 135
3934 4975 6965 69.5921245142 32 135
3935 5036 4975 42.8243711891 32 135
3936 7010 7009 44.1420633142 32 135
3937 7011 7010 12.3000091489 32 135
3938 5043 7011 29.3000379894 32 135
3939 5627 5036 40.6611194692 32 135
3940 6989 6990 15.7215350885 60 132
3941 6686 6687 51.1948292079 60 132
3942 6685 6686 56.3038575967 60 132
3943 6684 6685 38.1464984797 60 132
3944 6312 3793 32.1226661161 60 132
3945 3805 3794 0.668205334944 60 132
3946 3793 3785 2.88370154592 60 132
3947 3774 3776 45.2044062292 60 132
3948 3784 3776 2.28315970988 60 132
3949 3785 6313 20.9266501603 60 132
3950 6313 3784 15.320535211 60 132
3951 3770 6314 7.09053876171 60 132
3952 6314 6315 6.11808386409 60 132
3953 6315 6316 17.2269812885 60 132
3954 6316 3774 6.9530962914 60 132
3955 3770 6317 15.9674258215 60 132
3956 3794 6312 3.91781639449 60 132
3957 6317 6318 20.7724149101 60 132
3958 6320 6321 4.18102333153 60 132
3959 6321 6322 19.8730062552 60 132
3960 6322 6323 26.8688894123 60 132
3961 6323 6324 25.706975257 60 132
3962 6324 3781 5.18773550978 60 132
3963 6325 6326 7.29387653677 60 132
3964 6326 6327 60.0115744501 60 132
3965 6327 6328 20.6840771904 60 132
3966 6328 6329 23.4863910256 60 132
3967 6329 6330 2.80089618873 60 132
3968 6330 6331 11.4136407736 60 132
3969 6331 6332 27.1891418497 60 132
3970 6319 6320 32.7790499388 60 132
3971 6332 6333 18.6249284568 60 132
3972 6311 6307 6.14531496984 60 132
3973 3876 6310 5.39637391188 60 132
3974 1546 1547 1.1170002007 150 135
3975 1548 1244 45.1642783483 150 135
3976 1554 1555 17.7447885299 150 135
3977 1555 1556 23.1928351012 150 135
3978 1557 1558 11.7325813443 150 135
3979 1558 1559 12.724574688 150 135
3980 1559 1554 16.2946774753 150 135
3981 1560 1561 21.1031866083 150 135
3982 1561 1557 20.2482866925 150 135
3983 1501 1565 41.8683816329 300 87
3984 1566 1501 13.2955831596 300 87
3985 1567 1568 27.16772 300 87
3986 6310 6311 26.5925200374 60 132
3987 1568 1569 22.483740636 300 87
3988 3875 3865 38.9395542569 32 135
3989 3789 6302 12.3959270765 60 132
3990 6302 1359 26.4470517715 60 132
3991 3778 6303 25.098701642 60 132
3992 6303 3789 13.295322834 60 132
3993 3773 6304 33.3011003843 60 132
3994 6304 6305 23.7263380387 60 132
3995 6305 6306 24.2188832993 60 132
3996 6306 3778 1.43526431408 60 132
3997 6307 6308 10.9383768824 60 132
3998 6308 6309 24.878433463 60 132
3999 6309 3773 1.93027853128 60 132
4000 1567 1572 15.539787676 300 87
4001 6333 6334 20.3732776362 60 132
4002 6334 6335 12.7222681334 60 132
4003 6335 6336 27.0432021634 60 132
4004 6361 6362 30.2829722848 32 135
4005 6362 6363 29.3849946941 32 135
4006 6363 6355 6.94217918553 32 135
4007 4351 6364 29.4092752367 60 132
4008 6364 6355 31.9551364147 60 132
4009 6365 6366 13.789933417 32 135
4010 6366 3841 27.3577870889 32 135
4011 6367 6365 16.2777387203 32 135
4012 6368 6367 34.7880327625 32 135
4013 6369 6370 25.4076815551 60 132
4014 6370 3843 18.4319201946 60 132
4015 6368 6371 18.6828243793 32 135
4016 6357 6361 14.5370605039 32 135
4017 6371 6372 25.0361396579 32 135
4018 6373 6374 23.9350611883 32 135
4019 6374 6368 20.1957983114 32 135
4020 6375 6376 26.8910580444 60 132
4021 6376 6377 16.9033739621 60 132
4022 6377 6369 3.99960930748 60 132
4023 6373 6378 28.5918530629 32 135
4024 6378 6369 28.6432819464 32 135
4025 1363 6379 13.6371096203 32 135
4026 6379 6373 34.4228650809 32 135
4027 3840 6380 12.0158713785 60 132
4028 6380 6381 26.1435920962 60 132
4029 6381 6375 2.95035583793 60 132
4030 6372 3843 13.9895626881 32 135
4031 6360 6357 11.8657867243 60 132
4032 3836 6360 13.818916519 60 132
4033 6359 6000 6.40867324972 60 132
4034 6336 6337 8.78565501057 60 132
4035 6337 6338 40.2765054342 60 132
4036 6338 6339 11.185551154 60 132
4037 6339 4352 61.0183629171 60 132
4038 3878 6340 21.7496328668 60 132
4039 6340 6341 13.6504038036 60 132
4040 6341 6325 8.83654994495 60 132
4041 3779 6342 21.4338655438 32 135
4042 6342 6343 20.3981339038 32 135
4043 6343 6344 16.1418772679 32 135
4044 6344 6345 44.0156225702 32 135
4045 6345 6307 25.0024813678 32 135
4046 6325 6346 12.2148368338 32 135
4047 6346 6347 21.9150527805 32 135
4048 6347 6348 15.4478011373 32 135
4049 6348 6349 25.5558172586 32 135
4050 6349 3779 5.45133155187 32 135
4051 1362 6350 38.7904327578 60 132
4052 6351 3805 39.3221153052 60 132
4053 6351 6352 14.4696070306 32 135
4054 6352 6353 16.7030951814 32 135
4055 6353 6354 24.5379236946 32 135
4056 6354 1362 26.3134581923 32 135
4057 6355 6356 12.5081363757 60 132
4058 6356 3802 32.0808093872 60 132
4059 6357 6358 24.7209556811 60 132
4060 6358 6359 13.5416480285 60 132
4061 1513 1426 42.2451758476 110 132
4062 1428 1512 45.4034718426 60 132
4063 1510 1511 0.0278172607879 110 132
4064 1509 1510 22.7937298813 110 132
4065 8062 8063 23.1495566033 32 135
4066 8061 8062 17.6705690347 32 135
4067 8060 8061 21.3312287353 32 135
4068 8038 8060 21.3773552235 32 135
4069 8059 8039 0.012961867268 32 135
4070 8058 8059 21.4849781265 32 135
4071 8057 8058 20.7400534785 32 135
4072 8056 8057 19.8690129609 32 135
4073 8055 8056 18.7639472544 32 135
4074 8037 8055 15.7316128199 32 135
4075 8054 7022 21.289883912 32 135
4076 8053 8054 20.4406754542 32 135
4077 8063 8064 19.5763629152 32 135
4078 8052 8053 20.6921909181 32 135
4079 8050 8051 23.9346179827 32 135
4080 8049 8050 20.5378279774 32 135
4081 8048 8049 49.2882795397 32 135
4082 8047 8048 16.4569883637 32 135
4083 8046 8047 19.6735935964 32 135
4084 8046 4278 9.32643486083 32 135
4085 4454 4271 19.1911049837 110 132
4086 4281 4284 19.6507243603 110 132
4087 7020 7021 19.1976587376 32 135
4088 8045 7019 18.9964734882 32 135
4089 7025 8045 16.0411853053 32 135
4090 8044 7024 22.168417941 32 135
4091 8051 8052 17.0395476468 32 135
4092 8064 8065 18.5246286064 32 135
4093 8065 7022 23.6490443778 32 135
4094 8064 8066 28.3065564138 32 135
4095 1113 6143 38.636034993 85 132
4096 6138 1230 84.8731653114 85 132
4097 6133 1112 38.7475534708 85 132
4098 8089 8074 13.0796398827 32 135
4099 8088 8089 25.0642617651 32 135
4100 8087 8088 7.15594348808 32 135
4101 8085 8087 20.6008687896 32 135
4102 8085 8086 0.00104402976941 32 135
4103 8084 8085 20.400966744 32 135
4104 8083 8084 21.5387032851 32 135
4105 8082 8083 22.4698668657 32 135
4106 8081 8082 10.9613491071 32 135
4107 8080 8081 22.287243942 32 135
4108 8079 8080 20.1327818984 32 135
4109 8078 8079 8.29850854265 32 135
4110 8077 8078 20.97303664 32 135
4111 8076 8077 21.8024818135 32 135
4112 8075 8076 19.8251074055 32 135
4113 8074 8075 13.89370141 32 135
4114 8073 8074 24.4170025741 32 135
4115 8072 8073 20.4798912232 32 135
4116 8071 8072 21.1926760357 32 135
4117 8070 8071 23.1379894317 32 135
4118 8069 8070 1.95351419209 32 135
4119 8068 8069 34.3889349656 32 135
4120 8067 8068 2.36924376162 32 135
4121 8066 8067 17.7230503583 32 135
4122 8043 8044 47.7852676556 32 135
4123 1363 6382 23.6294482652 32 135
4124 8042 8043 16.8396037067 32 135
4125 8040 8041 19.7357758903 32 135
4126 1452 1453 6.66398408974 110 132
4127 1454 1455 6.80674667798 110 132
4128 1456 1457 1.33170755043 60 132
4129 1457 1458 1.3317075513 60 132
4130 1458 1459 2.79313108284 60 132
4131 1459 1460 2.79313108402 60 132
4132 1446 1463 39.4941764228 110 132
4133 1463 1464 33.9825378306 110 132
4134 1487 1488 1.29567945522 110 132
4135 1488 1489 5.73938300275 110 132
4136 908 1490 39.7519059094 60 132
4137 2015 2016 23.872069307 32 135
4138 1450 1451 0.995615191468 60 132
4139 2010 2015 25.4712720771 32 135
4140 2011 2012 18.2869741151 32 135
4141 2010 2011 22.0658138272 32 135
4142 1491 1492 65.2818327982 32 135
4143 1493 1494 1.40465120295 150 135
4144 1494 1495 20.6247003854 150 135
4145 1495 1496 9.7449433556 150 135
4146 1499 1500 1.48285862398 150 135
4147 1500 1501 14.3528855539 150 135
4148 1498 1499 4.1999739729 150 135
4149 1498 1502 4.73445711583 150 135
4150 1503 1504 4.50833854972 32 135
4151 1504 1505 29.9586115159 32 135
4152 2013 2014 8.76989790718 32 135
4153 1449 1450 0.592556233204 60 132
4154 1448 1449 2.59543951014 60 132
4155 1447 1448 2.59543951043 60 132
4156 4285 8040 14.6798646117 32 135
4157 8038 8039 19.8690402398 32 135
4158 8037 4271 0.581075572144 110 132
4159 8031 1490 55.0445873249 60 132
4160 4702 8031 24.097191226 60 132
4161 8028 6610 34.9240497368 60 132
4162 8027 8028 20.7391796363 60 132
4163 8026 8027 14.9510251818 60 132
4164 8025 8026 21.9397256368 60 132
4165 8024 8025 21.4505133041 60 132
4166 8023 8024 19.4793846154 60 132
4167 8022 2193 12.652644309 60 132
4168 8021 8022 15.9506459114 60 132
4169 6635 8021 3.38476734815 60 132
4170 6533 8010 2.81276980914 60 132
4171 8012 8013 51.4808387431 60 132
4172 8011 8012 22.9771905175 60 132
4173 8010 8011 18.8465113404 60 132
4174 1426 1427 41.8214907508 110 132
4175 243 1428 45.7085288043 60 132
4176 1234 1440 8.96669057734 110 132
4177 1440 1441 35.3364003159 110 132
4178 1442 162 7.86037716988 110 132
4179 1443 1444 6.16691281138 110 132
4180 1444 1445 20.1001491799 110 132
4181 1445 97 5.63993905096 110 132
4182 97 1446 84.5591387919 110 132
4183 8041 8042 19.9307898745 32 135
4184 6382 6375 32.8371886861 32 135
4185 1116 6383 21.7793435313 32 135
4186 6383 6384 19.5764086768 32 135
4187 6598 6599 9.39259302321 110 132
4188 6599 6600 16.9174476162 110 132
4189 6600 6601 21.0050845333 110 132
4190 3999 6602 22.3112467387 60 132
4191 6602 6603 8.05697120557 60 132
4192 6603 6604 27.53531122 60 132
4193 6604 6605 26.8719502599 60 132
4194 6605 6606 0.00817067924412 60 132
4195 6606 6607 17.7878599328 60 132
4196 6607 6608 30.725149473 60 132
4197 6608 6609 13.5359632007 60 132
4198 6609 4740 2.63651615783 60 132
4199 6597 6598 14.2292202954 110 132
4200 6610 6611 19.1601197546 60 132
4201 6612 6613 18.1879495546 60 132
4202 6613 6614 17.513396044 60 132
4203 6614 6615 16.8274366739 60 132
4204 6615 6616 22.8560840257 60 132
4205 6616 6617 18.6514034323 60 132
4206 6617 6618 17.4142433662 60 132
4207 6618 6619 26.9066345734 60 132
4208 6619 6620 9.1061509131 60 132
4209 6620 6621 39.4610808918 60 132
4210 6621 6622 17.3717586908 60 132
4211 6622 6623 19.9351986442 60 132
4212 6623 6624 17.515320637 60 132
4213 6611 6612 16.7410245799 60 132
4214 6596 6597 9.77446043976 110 132
4215 3995 6596 10.5644183558 110 132
4216 6595 6593 1.2607837757 110 132
4217 6570 6571 13.2375645147 60 132
4218 6571 6572 19.2626819016 60 132
4219 4269 6573 9.95170188578 60 132
4220 6573 6574 29.2247053896 60 132
4221 6574 6570 18.3949390741 60 132
4222 4583 6575 0.769688171027 110 132
4223 6575 1120 13.8212327355 110 132
4224 6570 6576 47.6282552154 32 135
4225 6577 6578 18.9947641316 60 132
4226 6578 6572 21.983020849 60 132
4227 4577 6579 7.20710417875 60 132
4228 6579 6580 16.6710191949 60 132
4229 6580 6581 13.87280913 60 132
4230 6581 6577 4.89651197559 60 132
4231 1186 6582 1.96159584268 60 132
4232 6582 4577 2.22794134781 60 132
4233 2082 6583 11.8625122712 32 135
4234 6583 6584 13.6668284007 32 135
4235 6584 6585 20.3198735466 32 135
4236 6585 6586 19.9919477954 32 135
4237 6586 6587 25.9251199681 32 135
4238 6587 6588 27.1803597547 32 135
4239 6588 6589 16.8056172668 32 135
4240 6589 6590 24.1417410841 32 135
4241 6590 6591 21.6870775647 32 135
4242 6591 5606 16.4376020958 32 135
4243 6593 6594 1.35815220457 110 132
4244 6624 6625 14.9036117095 60 132
4245 5608 4269 10.7484737269 110 132
4246 6625 6626 15.5934412494 60 132
4247 6627 6628 19.4632548664 60 132
4248 6660 4642 21.867788295 60 132
4249 4592 6661 7.74609505832 60 132
4250 6661 6662 8.96380121297 60 132
4251 6662 6663 17.7450133808 60 132
4252 6663 6664 17.1096249573 60 132
4253 6664 6665 15.018233574 60 132
4254 6665 6666 32.4627514027 60 132
4255 6666 6667 5.14611660393 60 132
4256 6667 6668 10.69708215 60 132
4257 6668 6669 7.17346446325 60 132
4258 6669 6670 8.77402851682 60 132
4259 6670 6671 10.0439772598 60 132
4260 6659 6660 31.1399912498 60 132
4261 6671 6672 9.54929214686 60 132
4262 6673 6674 19.8516170048 60 132
4263 6674 6675 12.6982788598 60 132
4264 6675 6676 20.8224499359 60 132
4265 6676 6677 30.8912274713 60 132
4266 6677 6678 20.6478337008 60 132
4267 6678 6679 20.546503304 60 132
4268 6679 6680 18.7749518763 60 132
4269 6680 6681 11.3746360692 60 132
4270 6681 4645 24.8479535691 60 132
4271 4593 6682 7.04437379267 60 132
4272 6682 6683 10.9062772466 60 132
4273 6683 6684 18.7951283288 60 132
4274 6672 6673 6.05858530427 60 132
4275 6658 6659 33.7438276762 60 132
4276 6657 6658 25.7634554637 60 132
4277 6656 6657 30.8399235611 60 132
4278 6628 6629 25.491121788 60 132
4279 6629 6630 30.7924645976 60 132
4280 6630 6631 19.6289543787 60 132
4281 6631 6632 18.1506420001 60 132
4282 6632 6633 14.5254458108 60 132
4283 6633 6634 18.3185874177 60 132
4284 6634 6635 15.8813882582 60 132
4285 6639 6640 63.5287473677 60 132
4286 6640 1187 37.675601298 60 132
4287 4299 1187 43.3967826467 60 132
4288 4590 6641 29.9718185103 60 132
4289 6641 6642 53.5812641678 60 132
4290 6642 6643 70.5688911197 60 132
4291 6643 6644 64.2165589909 60 132
4292 6644 6645 64.5804524224 60 132
4293 6645 6646 25.254085964 60 132
4294 6646 6647 17.205440886 60 132
4295 6647 4639 8.0718891846 60 132
4296 4591 6648 17.3228719949 60 132
4297 6648 6649 7.06011077801 60 132
4298 6649 6650 21.8519659797 60 132
4299 6650 6651 20.5201342396 60 132
4300 6651 6652 32.5374259044 60 132
4301 6652 6653 29.4539385705 60 132
4302 6653 6654 18.914447532 60 132
4303 6654 6655 14.6089384028 60 132
4304 6655 6656 29.6315120805 60 132
4305 6626 6627 19.1746162411 60 132
4306 6131 6135 63.0797154407 85 132
4307 6569 4270 65.1155333878 32 135
4308 6568 4164 42.4189746255 60 132
4309 6410 6411 32.6572566944 32 135
4310 6411 6412 24.6298156466 32 135
4311 6412 6391 57.3575677421 32 135
4312 6404 6413 5.63593890656 60 132
4313 6413 4346 39.4935697885 60 132
4314 3833 6414 15.9824025336 32 135
4315 6414 6415 21.4364673214 32 135
4316 6415 6416 27.1623917212 32 135
4317 6416 6417 17.0933347724 32 135
4318 6417 6418 17.4627053291 32 135
4319 6418 6419 10.9802744853 32 135
4320 6419 6420 18.9225556461 32 135
4321 6409 6410 19.3706933949 32 135
4322 6420 6421 28.5358213872 32 135
4323 5135 5136 8.52598886348 60 132
4324 6422 6423 25.3775930936 32 135
4325 6423 6424 6.47302096474 32 135
4326 6424 6404 18.6248751022 32 135
4327 6425 3836 5.71739433151 110 132
4328 3845 6425 45.2899795491 110 132
4329 6425 6426 24.4137910943 32 135
4330 6426 6427 60.6017323841 32 135
4331 6427 6428 36.6562374815 32 135
4332 6428 6429 46.8352963728 32 135
4333 6429 4346 43.1019983614 32 135
4334 4351 6430 33.0428384884 110 132
4335 6421 6422 21.3387038368 32 135
4336 6408 6409 22.2686082687 32 135
4337 6407 6408 34.5918462424 32 135
4338 6406 6407 11.8701876991 32 135
4339 6384 3840 15.0659536347 32 135
4340 1547 1118 55.2848651024 32 135
4341 1546 1548 5.16143513519 60 132
4342 2907 6385 1.25443464483 60 132
4343 6385 6386 36.0795626824 60 132
4344 6386 6387 0.734810805901 60 132
4345 6388 6389 6.15773159042 110 132
4346 6389 6390 24.6152438256 110 132
4347 6350 6388 42.1018166056 110 132
4348 6387 6391 43.2183525083 60 132
4349 6388 6392 15.3535558234 60 132
4350 6392 6393 25.676652517 60 132
4351 6393 6394 37.2811271321 60 132
4352 6394 6395 18.446811118 60 132
4353 6395 6396 16.3719653117 60 132
4354 6396 6397 36.0992479577 60 132
4355 6397 6398 33.4291671435 60 132
4356 6398 6399 15.7861700761 60 132
4357 6399 6400 19.5702616907 60 132
4358 6400 6401 25.3118174715 60 132
4359 6401 6387 17.3710216354 60 132
4360 3835 6350 0.829329283898 110 132
4361 6391 6402 3.38378837715 60 132
4362 6402 6403 22.684478298 60 132
4363 6403 6404 12.0149230576 60 132
4364 3835 6405 9.98244811883 32 135
4365 6405 6406 33.8079020597 32 135
4366 6430 3845 8.74211065131 110 132
4367 5608 6569 1.85031417045 32 135
4368 1610 1611 277.279074623 60 132
4369 1617 1618 15.2925223465 150 81
4370 4035 6538 9.00290735307 32 135
4371 6538 6539 17.2371856995 32 135
4372 6539 6540 22.0611408549 32 135
4373 6540 6541 33.5024119368 32 135
4374 6541 6542 31.3802411397 32 135
4375 6542 6543 23.5711326366 32 135
4376 6543 4018 17.4174114382 32 135
4377 4248 6544 4.5222178805 60 132
4378 6544 6545 12.6785837688 60 132
4379 6545 6546 103.738334381 60 132
4380 6546 6547 201.94885123 60 132
4381 6547 4257 6.67567419817 60 132
4382 1175 6537 33.2137050322 110 132
4383 1491 4634 35.7906324978 60 132
4384 6556 6557 12.0508557833 60 132
4385 6557 1491 7.46058959165 60 132
4386 6558 6559 31.0714270223 60 132
4387 6559 6555 10.2294471644 60 132
4388 6555 4159 64.9105289892 32 135
4389 4188 6560 8.55548986961 60 132
4390 6560 6561 28.4316607502 60 132
4391 6561 6558 9.31708697031 60 132
4392 6558 4164 65.1853784389 32 135
4393 4191 6562 27.1565969092 60 132
4394 6562 4188 14.1455751581 60 132
4395 4168 6568 0.783621598398 60 132
4396 6555 6556 21.7884776382 60 132
4397 6536 1143 5.8379431865899996 60 132
4398 6535 2071 2.53559773851 180 135
4399 1143 6535 1.13003526012 180 135
4400 162 1644 1.36224937894 300 87
4401 1644 1645 0.233173004333 300 87
4402 1668 1669 10.3175935254 60 132
4403 1672 72 3.18138040794 60 132
4404 1696 1697 2.45179514891 60 132
4405 1697 1698 3.54601341494 60 132
4406 1618 1739 18.9049860333 85 132
4407 6517 6518 51.8803792633 32 135
4408 6518 6519 88.5203585677 32 135
4409 6519 6520 17.0111415966 32 135
4410 6521 6522 100.773892156 32 135
4411 6522 316 46.3406134313 32 135
4412 6523 6524 133.087767217 32 135
4413 6523 315 5.11722207947 85 132
4414 6525 6523 37.01982087 85 132
4415 6526 6527 71.9308791142 32 135
4416 6527 6528 16.8380624118 32 135
4417 316 3922 4.74769179779 85 132
4418 6528 3908 4.97378338162 85 132
4419 3902 6529 8.23662427213 85 132
4420 6529 3908 30.7403443414 85 132
4421 6525 6530 4.49550924374 60 132
4422 6530 6531 46.2910270038 60 132
4423 6531 6532 40.5097876937 60 132
4424 6532 6533 57.2635619642 60 132
4425 3928 3936 41.454155368 85 132
4426 4483 4486 44.3182601955 110 132
4427 1612 1613 482.051910344 60 132
4428 5134 5135 40.18412573 60 132
4429 5027 118 10.1113680987 60 132
4430 5132 5133 43.7334443328 60 132
4431 3828 3829 2.64578759483 60 132
4432 3820 3830 21.0366132736 32 135
4433 3830 3831 20.668225395 32 135
4434 3831 3832 11.050098461 32 135
4435 3833 3834 2.97228155698 110 132
4436 3834 3835 39.0011700385 110 132
4437 3836 3837 9.19234530051 110 132
4438 3837 3833 31.8702707818 110 132
4439 1547 3838 7.53975053735 60 132
4440 3838 3839 7.70570890961 60 132
4441 3839 3840 20.6947026654 60 132
4442 3841 3842 23.8376076447 60 132
4443 3842 2907 49.935687757 60 132
4444 3843 3844 28.796810429 60 132
4445 3827 3828 19.9317164346 60 132
4446 3844 3841 6.5219735207 60 132
4447 3846 3847 55.795888721 32 135
4448 3847 3848 23.8902606514 32 135
4449 3848 3849 33.9902700739 32 135
4450 3849 3850 16.7394664892 32 135
4451 3850 3851 17.703805808 32 135
4452 3851 3852 32.8070599798 32 135
4453 1245 3853 23.2643401223 60 132
4454 3853 3854 18.5285629191 60 132
4455 3854 3855 26.8394040291 60 132
4456 3855 3856 16.8508919393 60 132
4457 3856 3857 21.2452082894 60 132
4458 3857 3858 23.2763936306 60 132
4459 3858 3859 26.8373277123 60 132
4460 3859 3860 16.0056516722 60 132
4461 3845 3846 13.3245014893 32 135
4462 3808 3827 14.2573721277 60 132
4463 3825 3826 15.1430462589 32 135
4464 3824 3825 23.553570642 32 135
4465 3794 3795 18.6747534752 32 135
4466 3795 3796 22.6644659085 32 135
4467 3796 3797 22.4650066873 32 135
4468 3797 1359 17.9532626845 32 135
4469 3790 3798 16.702282714 60 132
4470 3798 3781 22.2052658854 60 132
4471 3799 3800 6.13921759876 60 132
4472 3800 3801 14.1294261689 60 132
4473 3801 3790 16.6688560572 60 132
4474 3802 3803 15.6132233458 60 132
4475 3803 3804 9.65403872974 60 132
4476 3804 3799 17.0984953846 60 132
4477 3805 3806 26.2046293111 32 135
4478 3806 3807 49.4296310005 32 135
4479 3807 3799 4.94797712165 32 135
4480 3808 3809 21.2393111933 110 132
4481 3809 3810 19.6776439653 110 132
4482 3823 3824 19.4001354632 32 135
4483 3822 3823 22.235213806 32 135
4484 3818 3822 18.7889795891 32 135
4485 3821 3818 19.6136930227 60 132
4486 3820 3821 24.4734756416 60 132
4487 3819 2925 19.8462189093 60 132
4488 3860 3861 22.0135872525 60 132
4489 3818 3819 21.6402414499 60 132
4490 3815 3816 19.7742517683 110 132
4491 3814 3815 21.5336350164 110 132
4492 3813 3814 8.03732593935 110 132
4493 3812 3813 14.3811072129 110 132
4494 3811 3812 22.515913883 110 132
4495 3810 3811 21.5009232359 110 132
4496 3816 3817 11.8310935161 110 132
4497 3792 3793 32.3023568898 32 135
4498 3861 3862 27.3144848434 60 132
4499 3863 3864 22.3794885523 60 132
4500 3897 3898 26.1667225654 60 132
4501 3898 3899 8.80420864364 60 132
4502 1181 3900 2.11732118447 60 132
4503 3900 1367 63.0315505613 60 132
4504 1176 3901 1.61895346978 60 132
4505 3901 3899 60.874507774 60 132
4506 3902 3903 54.5757520504 60 132
4507 3903 3904 40.7490891175 60 132
4508 3904 3905 48.1074861601 60 132
4509 3905 3906 39.8486991656 60 132
4510 3906 3907 63.6128624929 60 132
4511 3908 3909 4.91009617934 60 132
4512 3909 3910 43.3073736641 60 132
4513 3910 3911 45.2113588279 60 132
4514 3896 3897 59.8292402875 60 132
4515 3911 3912 56.9113562596 60 132
4516 3913 3914 52.3042354225 60 132
4517 3915 3916 10.6784999416 85 132
4518 3916 3917 35.2128758523 85 132
4519 3917 3918 152.035325665 85 132
4520 3918 3919 44.1006185889 85 132
4521 3919 3920 10.0726678135 85 132
4522 3920 3921 31.4447613078 85 132
4523 3922 3923 53.0756096885 85 135
4524 3923 3924 140.642512438 85 135
4525 3924 3925 56.0732700473 85 135
4526 3925 3926 11.1372675318 85 135
4527 3926 3927 8.88854097192 85 135
4528 3927 3928 20.7380059417 85 135
4529 315 3929 13.4821694544 60 132
4530 3912 3913 40.520628949 60 132
4531 3895 3896 21.1046601049 60 132
4532 1367 3895 46.3122259509 60 132
4533 1181 1443 3.91022453699 110 132
4534 3864 3865 11.5423161762 60 132
4535 1247 3866 30.1378808264 60 132
4536 3866 3867 25.4293353479 60 132
4537 3867 3868 14.4926081651 60 132
4538 3868 3869 40.1291502599 60 132
4539 3869 3870 22.3559475384 60 132
4540 3870 3871 23.2742355003 60 132
4541 3871 3872 16.1648548292 60 132
4542 3872 3873 25.4056408233 60 132
4543 3873 3874 28.4528173422 60 132
4544 3874 3875 51.4069708211 60 132
4545 3876 3877 36.813944915 110 132
4546 3877 1247 2.57004174675 110 132
4547 3878 3879 15.3958277939 110 132
4548 3879 3880 26.9895153618 110 132
4549 3880 3881 9.55203715742 110 132
4550 3881 3882 33.8047631406 110 132
4551 3894 3878 19.1378107405 60 132
4552 3893 3894 15.5037477077 60 132
4553 3892 3893 18.1894735668 60 132
4554 3891 3892 15.8282652445 60 132
4555 3890 3891 20.0408812116 60 132
4556 142 3890 7.82975792866 60 132
4557 3862 3863 22.8905220082 60 132
4558 3889 3876 31.5811980195 110 132
4559 3887 3888 12.5799689614 110 132
4560 3886 3887 6.83797918308 110 132
4561 3885 3886 6.07185935274 110 132
4562 3884 3885 13.3118728391 110 132
4563 3883 3884 27.5816862462 110 132
4564 3882 3883 8.50890298793 110 132
4565 3888 3889 19.7734884211 110 132
4566 3929 3930 41.0406421648 60 132
4567 3791 3792 29.2408151765 32 135
4568 3788 3789 16.9682578521 32 135
4569 406 446 14.9627554276 350 89
4570 446 447 10.6172241669 350 89
4571 447 448 20.6234827556 350 89
4572 429 449 25.8435475009 300 87
4573 2191 4955 2.50372123279 85 132
4574 5496 7001 11.4029565025 60 132
4575 7002 5474 13.1994613525 60 132
4576 4798 8900 5.58844128507 60 132
4577 8905 2704 11.8085747728 200 83
4578 8904 8905 10.8264843643 200 83
4579 2717 8904 10.7301115829 200 83
4580 1162 6972 10.9014669635 60 132
4581 7012 5002 23.6547707754 85 132
4582 6982 1162 18.0374890062 60 132
4583 445 430 21.0626927999 350 89
4584 5388 5616 5.82183990345 60 132
4585 129 4752 7.91338619058 60 132
4586 8903 2720 7.53857028871 200 83
4587 2147 8903 4.81025281865 200 83
4588 2155 7005 31.6423257449 85 132
4589 2155 5205 16.2181397134 85 132
4590 286 2155 15.1883260036 32 135
4591 8902 127 11.0665058912 60 132
4592 4764 8902 14.3850607192 60 132
4593 7099 123 3.39051686875 60 132
4594 125 122 8.15815194083 60 132
4595 278 285 6.81824216431 32 135
4596 278 5174 19.1239054135 85 132
4597 8895 4784 21.1099420261 60 132
4598 5048 2150 14.776785202 200 83
4599 5408 5617 6.69516228488 60 132
4600 444 445 20.7196085869 350 89
4601 443 444 20.3769440796 350 89
4602 442 443 19.5696774886 350 89
4603 423 411 20.0999679848 300 87
4604 424 425 9.74139071199 350 89
4605 425 426 19.5901330266 350 89
4606 426 427 19.3190842692 350 89
4607 427 428 22.925821534 350 89
4608 429 424 6.34391464319 300 87
4609 430 431 20.5735570574 350 89
4610 431 432 21.3450320683 350 89
4611 432 433 13.8583480264 350 89
4612 433 434 14.3289603594 350 89
4613 434 435 12.1224504535 350 89
4614 435 436 7.38106584531 350 89
4615 436 437 4.509351283 350 89
4616 437 438 14.4609323694 350 89
4617 438 429 13.9771602982 350 89
4618 439 440 21.7403304941 350 89
4619 440 441 18.970822782 350 89
4620 8932 1566 35.7702307521 300 87
4621 2051 8933 1.5478021703 350 89
4622 8933 8934 7.26737417833 350 89
4623 8934 7391 10.1168967637 350 89
4624 8938 8939 0.894155468062 110 132
4625 8939 8940 0.913273233775 80 79
4626 1167 5976 15.3445747095 85 132
4627 8941 8942 0.549101993823 110 132
4628 8942 7133 0.36594125211 80 79
4629 8940 7133 0.767440551864 110 79
4630 8944 8938 0.788495402146 80 79
4631 8944 8943 0.341985379951 80 79
4632 7243 8944 5.55237480705 110 132
4633 441 442 19.5536923616 350 89
4634 8943 8941 0.519669125713 80 79
4635 3790 3791 19.475876206 32 135
4636 8900 5633 2.59247700169 60 132
4637 8885 8886 4.00918560914 110 132
4638 8684 5096 4.85863893753 60 132
4639 885 886 12.4104259801 32 135
4640 886 887 18.1508616679 32 135
4641 907 908 4.44486886175 60 132
4642 909 910 18.7110762823 110 132
4643 910 911 11.6346628281 110 132
4644 911 912 10.3192172591 110 132
4645 913 914 10.8163510023 110 132
4646 914 915 1.78095395748 110 132
4647 916 290 23.6000640574 32 135
4648 919 920 1.59186427844 60 132
4649 920 921 2.36439053565 60 132
4650 922 923 1.91798037818 60 132
4651 923 924 2.04005710714 60 132
4652 188 881 9.84001617683 85 132
4653 8639 4081 8.96579782516 110 132
4654 1244 3769 44.3936087485 150 135
4655 3770 3771 23.8009096544 32 135
4656 3771 3772 34.3414415846 32 135
4657 3772 3773 24.5287730507 32 135
4658 3774 3775 49.9999165094 32 135
4659 3776 3777 26.8926855849 32 135
4660 3777 3778 55.6816277711 32 135
4661 3779 3780 82.8001401282 32 135
4662 3781 3782 27.6604129982 32 135
4663 3782 3783 34.7606126848 32 135
4664 3783 3784 19.6321219028 32 135
4665 3785 3786 14.0269006604 32 135
4666 3786 3787 24.4579917269 32 135
4667 3787 3788 27.02699479 32 135
4668 3769 1502 1.84997954859 150 135
4669 879 880 27.6594548591 60 132
4670 864 865 6.9598820171 60 132
4671 4543 8713 2.67885714427 60 132
4672 8884 8885 1.80685119773 110 132
4673 4356 8884 5.57057516734 110 132
4674 4184 4448 5.37053890548 110 132
4675 4443 8880 4.84809365492 60 132
4676 6575 8877 6.04402825001 60 132
4677 8876 4447 5.92480970225 110 132
4678 6811 8870 3.18360186255 60 132
4679 4369 4372 3.69274992696 32 135
4680 508 509 7.56685403499 350 89
4681 8854 5108 4.23306507688 60 132
4682 8853 5111 3.33183967317 32 135
4683 509 510 16.5453972458 350 89
4684 510 511 29.4822565115 350 89
4685 511 512 17.7996444056 350 89
4686 8850 212 3.63575114796 32 135
4687 5185 8849 0.207186413882 85 132
4688 8848 227 3.95346491575 85 132
4689 8713 8714 15.1962517078 60 132
4690 8714 8715 51.5641900921 60 132
4691 8715 8716 55.9810041047 60 132
4692 8716 8717 67.5419711626 60 132
4693 8717 8718 88.749867612 60 132
4694 8718 8719 43.2849617972 60 132
4695 8894 8895 0.205461651205 60 132
4696 8719 6725 15.5808609344 60 132
4697 4603 8721 6.97918831988 60 132
4698 4572 8723 6.926447208 60 132
4699 707 705 19.1200229342 350 89
4700 705 706 28.7712890571 350 89
4701 513 325 9.62422179452 350 89
4702 512 513 21.8413958573 350 89
4703 4619 8720 7.29821274342 60 132
4704 3930 3931 48.2728572412 60 132
4705 3931 3932 48.2706804708 60 132
4706 3932 3933 51.6508645837 60 132
4707 4122 4123 26.7026089115 60 132
4708 4123 4124 17.7730879156 60 132
4709 4124 4125 11.6573626423 60 132
4710 4125 4126 8.97886359139 60 132
4711 4126 4110 12.0652978254 60 132
4712 137 4127 32.0473425946 60 132
4713 4127 4128 29.7541936159 60 132
4714 4128 4129 25.2674979538 60 132
4715 4129 4130 17.788457267 60 132
4716 4130 4131 17.7769914989 60 132
4717 4131 4132 30.6064818045 60 132
4718 4132 4133 28.8943532048 60 132
4719 4133 4134 52.6148137173 60 132
4720 4134 4135 47.668611423 60 132
4721 4121 4122 27.8284281888 60 132
4722 4135 4136 18.8583853902 60 132
4723 4137 4138 19.1415157528 60 132
4724 4138 4139 52.4224357984 60 132
4725 4139 4121 19.7980721185 60 132
4726 1489 4140 3.2357453115 110 132
4727 4140 4141 29.627822253 110 132
4728 4141 4142 40.1939842612 110 132
4729 4142 4143 28.4521589205 110 132
4730 4143 4144 28.0302277608 110 132
4731 4144 4145 32.4581636348 110 132
4732 4146 4147 19.1306569262 110 132
4733 4147 1489 10.1803710824 110 132
4734 1492 4148 0.448563719013 60 132
4735 4149 4150 8.46399809603 60 132
4736 4150 4151 14.2384945077 60 132
4737 4136 4137 31.7850149895 60 132
4738 4119 4120 48.4152319593 32 135
4739 4114 4119 25.040825813 32 135
4740 4117 4118 2.81526481832 110 132
4741 4086 4087 21.7345154207 32 135
4742 4087 4088 2.21936253297 32 135
4743 4088 4089 37.5140936 32 135
4744 4089 4090 22.8688201785 32 135
4745 4090 4091 28.3696965727 32 135
4746 4091 4092 8.88241614094 32 135
4747 4092 4093 39.1757815806 32 135
4748 4093 4071 17.8812823035 32 135
4749 4081 4094 47.7764208612 32 135
4750 4094 4095 37.9696563907 32 135
4751 4095 4096 23.3768033242 32 135
4752 4096 4097 28.738498093 32 135
4753 4097 4098 120.00019999 32 135
4754 4098 4099 8.33339197068 32 135
4755 4099 4071 2.10280323549 32 135
4756 232 4100 47.0841139827 110 132
4757 4100 4101 90.0000943347 110 132
4758 4116 4036 27.7422705091 110 132
4759 4115 4116 9.82073724296 110 132
4760 4114 2896 43.2504854579 32 135
4761 4113 2896 2.76127314266 110 132
4762 4112 4113 13.1823096558 110 132
4763 4111 4112 11.3005767756 110 132
4764 4151 4152 12.5681214664 60 132
4765 4110 4111 8.61813912582 110 132
4766 4107 4108 17.6797724986 32 135
4767 4106 4107 22.1864545928 32 135
4768 4105 4106 9.32185614495 110 132
4769 4104 4105 6.59905212955 110 132
4770 4103 4104 4.52954258171 110 132
4771 4101 4102 19.248936366 110 132
4772 4108 4109 19.5644402428 32 135
4773 4085 4086 10.6099841832 32 135
4774 4153 4154 5.09391835754 60 132
4775 4155 4149 1.93143851561 60 132
4776 4187 4176 39.3213593131 60 132
4777 4182 4176 61.416369661 32 135
4778 4188 4167 64.4653909871 32 135
4779 4189 4190 18.2897116588 60 132
4780 4190 4191 20.7110865547 60 132
4781 4191 4173 64.2903105342 32 135
4782 4183 4192 23.5552868986 60 132
4783 4192 4193 17.9368781209 60 132
4784 4193 4181 3.08806374442 60 132
4785 4189 4181 64.2541459457 32 135
4786 4194 4195 12.4399097814 60 132
4787 4195 4196 21.2826408843 60 132
4788 4196 4197 11.5298984072 60 132
4789 4197 4183 65.2487763751 32 135
4790 4186 4182 0.572405887205 60 132
4791 4198 4199 9.26846684134 60 132
4792 4200 4201 34.4596318976 60 132
4793 4201 4202 44.8881629775 60 132
4794 4202 4203 39.3641197412 60 132
4795 4203 4204 46.2728639179 60 132
4796 4204 4205 55.4068769474 60 132
4797 4205 4206 58.1638868298 60 132
4798 4206 4207 24.0373698216 60 132
4799 4208 4209 10.8163856118 60 132
4800 4209 4210 15.7796309634 60 132
4801 4210 4211 33.978262165 60 132
4802 4211 4212 48.2453319165 60 132
4803 4212 4213 18.5629246924 60 132
4804 4213 4214 17.1412404553 60 132
4805 4214 4215 27.1916673634 60 132
4806 4199 4200 21.6202667009 60 132
4807 4185 4186 23.5818599068 60 132
4808 4184 4185 17.7549002586 60 132
4809 4182 4183 5.21265393468 60 132
4810 4148 4156 9.56713595036 32 135
4811 4156 4157 27.8661179569 32 135
4812 4157 4149 25.4331540566 32 135
4813 4158 1492 41.6477930907 60 132
4814 4159 4158 0.401989377728 60 132
4815 4160 4153 40.052887584 60 132
4816 4158 4161 25.931711216 32 135
4817 4161 4153 36.590523926 32 135
4818 4162 4163 28.5412567535 60 132
4819 4163 4159 11.7059340143 60 132
4820 4164 4162 0.367236299431 60 132
4821 4165 4160 42.6890239202 60 132
4822 4162 4166 18.5361965602 32 135
4823 4166 4160 43.8054936311 32 135
4824 4167 4168 2.46638534911 60 132
4825 4169 4170 2.35444088438 60 132
4826 4170 4171 37.1844511924 60 132
4827 4179 4174 62.7331031564 32 135
4828 4181 4179 2.17522495861 60 132
4829 4180 4173 15.0950479149 60 132
4830 4179 4180 21.5238874892 60 132
4831 4178 4174 30.6944823086 60 132
4832 4177 4178 20.6601351331 60 132
4833 4154 4155 35.8341996214 60 132
4834 4176 4177 1.07861577894 60 132
4835 4175 4169 35.2932663556 60 132
4836 4174 4175 3.32235734474 60 132
4837 4173 4172 2.46701726166 60 132
4838 4172 4167 38.8783203015 60 132
4839 4168 4165 62.2585927259 32 135
4840 4171 4165 1.95513647815 60 132
4841 4172 4169 62.4517682503 32 135
4842 4084 4085 25.6968164287 32 135
4843 4083 4084 23.2476940412 32 135
4844 4082 4083 26.6124365818 32 135
4845 3971 3972 18.1671737481 110 132
4846 3972 3973 20.2493752993 110 132
4847 3973 3974 18.001122659 110 132
4848 3974 3975 19.6927026336 110 132
4849 3975 3976 20.010275985 110 132
4850 3976 3977 17.4007691781 110 132
4851 3977 3978 21.8523441537 110 132
4852 3978 3979 17.6386083627 110 132
4853 3979 3980 19.181931603 110 132
4854 3980 3981 22.3264386102 110 132
4855 3981 3982 21.1822096343 110 132
4856 3982 3983 17.3010123694 110 132
4857 3983 3984 19.9704806395 110 132
4858 3984 3985 19.2966256637 110 132
4859 3970 3971 20.2218945945 110 132
4860 3986 3987 48.1012069849 60 132
4861 3988 3989 99.9637129535 60 132
4862 3989 3990 50.0075478448 60 132
4863 3990 3991 50.0766688538 60 132
4864 3991 921 15.8900492957 60 132
4865 919 3992 3.43629415054 60 132
4866 3992 3993 1.82142503637 60 132
4867 3993 3994 1.95634209646 60 132
4868 3994 3995 10.6800525415 60 132
4869 3996 3997 30.483449427 110 132
4870 4000 4001 9.63613389305 60 132
4871 4001 4002 18.099320967 60 132
4872 4002 4003 11.4098484562 60 132
4873 4003 4004 20.3683197628 60 132
4874 4004 4005 13.5329480199 60 132
4875 3987 3988 50.000077442 60 132
4876 3969 3970 20.5163151181 110 132
4877 3968 3969 21.1835678298 110 132
4878 3967 3968 18.703836424 110 132
4879 3933 3934 39.8524016331 60 132
4880 3934 3935 31.5645944245 60 132
4881 3935 3936 25.933213251 60 132
4882 3936 3937 39.9447892023 85 132
4883 3937 3938 4.63984242131 85 132
4884 3938 3939 4.63984242042 85 132
4885 3939 3940 16.5355520501 85 132
4886 3941 3942 15.2527130707 85 132
4887 3942 3943 20.2817765742 85 132
4888 3943 3944 21.007779535 85 132
4889 3944 3945 20.7996478098 85 132
4890 3945 3946 17.258872761 85 132
4891 3946 3947 19.3365102331 85 132
4892 3947 3948 22.5439762467 85 132
4893 3948 3949 21.0358461683 85 132
4894 3949 3950 9.04886009362 85 132
4895 3950 3951 8.1966023445 85 132
4896 3966 3967 20.0346376313 110 132
4897 3965 3966 21.4479560334 110 132
4898 3964 3965 15.7685225687 110 132
4899 3963 3964 20.2701002707 110 132
4900 3962 3963 21.9858020095 110 132
4901 3961 3962 16.0335188906 110 132
4902 4005 4006 11.7484715361 60 132
4903 3960 3961 10.7394460286 110 132
4904 3956 3957 7.06775501799 85 132
4905 3955 3956 4.88354799337 85 132
4906 3954 3955 10.3106091476 85 132
4907 3953 3954 2.50186190725 85 132
4908 3952 3953 11.479729308 85 132
4909 3951 3952 16.4689570106 85 132
4910 3958 3959 7.82301252671 60 132
4911 4006 4007 18.5929912852 60 132
4912 4007 4008 22.3418538277 60 132
4913 5133 5134 38.8478390463 60 132
4914 4045 4046 18.7260913432 60 132
4915 4046 4047 16.2819269436 60 132
4916 4047 4048 21.2764805834 60 132
4917 4048 4049 21.0471850846 60 132
4918 4049 4050 20.1071096381 60 132
4919 4050 4051 21.6145049678 60 132
4920 4051 4052 20.3987633452 60 132
4921 4052 4053 19.4988739164 60 132
4922 4053 4054 19.261706726 60 132
4923 4054 4055 20.9291706716 60 132
4924 4055 4056 18.7011838435 60 132
4925 4056 2920 2.20787421759 60 132
4926 2918 4057 21.3375933514 32 135
4927 4057 4058 18.5094662263 32 135
4928 4058 4059 20.1710561448 32 135
4929 4059 4060 19.6786615907 32 135
4930 4060 4061 20.0813145487 32 135
4931 4081 4082 2.17006350372 32 135
4932 4079 4080 6.06456137944 32 135
4933 4078 4079 4.15066024899 32 135
4934 4077 4078 11.7809422021 32 135
4935 4076 4077 17.4656125408 32 135
4936 4075 4076 26.5978776317 32 135
4937 4044 4045 18.9938280768 60 132
4938 4074 4075 48.2151398891 32 135
4939 4072 4073 35.1651827708 32 135
4940 4071 4072 15.0165595431 32 135
4941 4069 4070 1.75434636595 110 132
4942 2108 2109 1.55793196837 85 132
4943 2109 2110 7.04295688036 85 132
4944 4061 4062 8.34016936268 32 135
4945 4073 4074 44.4143872996 32 135
4946 422 423 20.0792315092 300 87
4947 4043 4044 19.4656013008 60 132
4948 4041 4042 20.9304604823 60 132
4949 4009 4010 19.0451195707 60 132
4950 4010 4011 16.2591649556 60 132
4951 4011 4012 11.486008602 60 132
4952 4012 4013 65.7720518896 60 132
4953 4013 1160 6.69917466511 60 132
4954 4014 4015 1.85931072254 32 135
4955 4016 4017 19.8833599112 110 132
4956 4017 4014 13.2439558296 110 132
4957 4018 4019 0.277938266251 60 132
4958 4020 4021 6.97405597505 60 132
4959 4021 4022 5.75924749292 60 132
4960 4022 4023 8.46738045591 60 132
4961 4023 4024 19.3079652078 60 132
4962 4024 4025 19.9470868423 60 132
4963 4025 4026 17.6595850514 60 132
4964 4026 4027 18.9414670098 60 132
4965 4027 4028 17.2094737219 60 132
4966 4040 4041 18.5548300177 60 132
4967 4039 4040 19.7564907816 60 132
4968 4038 4039 20.1768026451 60 132
4969 4037 4038 19.7403441715 60 132
4970 4036 4037 9.92363204683 60 132
4971 2920 2921 8.16323054956 60 132
4972 4042 4043 17.3938012522 60 132
4973 4014 4035 21.8090820992 32 135
4974 4033 4034 17.607249158 60 132
4975 4032 4033 10.182848772 60 132
4976 4031 4032 21.1447535078 60 132
4977 4030 4031 16.135201348 60 132
4978 4029 4030 27.9354891376 60 132
4979 4028 4029 4.3380173369 60 132
4980 4034 4018 19.0772689085 60 132
4981 421 422 26.2259987796 300 87
4982 420 421 21.548931203 300 87
4983 419 420 18.92857702 300 87
4984 9207 9208 22.8207691806 200 135
4985 9206 9207 6.47707906554 200 135
4986 9205 9206 14.0378141106 200 135
4987 9204 9205 18.177065092 200 135
4988 9203 9204 30.1512411978 200 135
4989 8117 9203 17.8125153756 200 135
4990 9199 8117 3.47281514094 200 135
4991 9198 9199 4.17018141047 200 135
4992 8314 9198 2.78239644962 200 135
4993 104 105 14.9143114156 60 132
4994 106 107 8.72038468176 60 132
4995 108 109 31.9693855155 60 132
4996 109 110 9.70311613831 60 132
4997 106 111 8.71084796818 60 132
4998 9208 6758 16.153437808 200 135
4999 105 106 3.63075543122 60 132
5000 117 118 2.65667552603 60 132
5001 107 9185 0.803573033318 110 132
5002 5615 2868 22.1849211626 32 135
5003 4840 4820 17.6380884809 32 135
5004 4820 4822 23.6408334981 32 135
5005 6792 8423 6.1813274956 60 132
5006 9184 4805 23.4503235732 32 135
5007 6938 9176 17.2944644619 60 132
5008 9178 9177 0.245203996238 110 132
5009 9177 6914 0.921300168411 110 132
5010 9176 6914 7.40829163815 110 132
5011 6918 9176 14.859813458 110 132
5012 9175 6916 22.0082014254 60 132
5013 6916 6913 17.6513489571 110 132
5014 116 117 32.177070992 60 132
5015 90 91 37.0756271602 60 132
5016 89 90 38.143702932 60 132
5017 88 89 52.8911373004 60 132
5018 9261 4651 7.90357134417 60 132
5019 9260 9261 3.35502071539 60 132
5020 9249 9250 1.29997792283 110 132
5021 8401 9249 1.59985655646 110 132
5022 4841 8400 3.1015056017 110 132
5023 9248 2790 2.22204072819 110 132
5024 8159 1335 16.6485341399 110 132
5025 9247 4841 0.734329626253 110 132
5026 9246 9247 2.31270426111 110 132
5027 2793 2859 5.70620406623 200 83
5028 1456 4866 3.31872535789 60 132
5029 9242 9154 1.56863858504 110 132
5030 9241 9242 1.26636536947 110 132
5031 9238 2817 0.943103737246 85 132
5032 9236 4741 3.17206181623 60 132
5033 70 71 19.853780109 110 132
5034 72 73 84.156708327 110 132
5035 2703 9211 20.5464551932 350 89
5036 86 87 1.58676905617 60 132
5037 85 86 66.2168974756 60 132
5038 83 84 14.0858294079 60 132
5039 82 83 19.0732530595 60 132
5040 81 82 16.0627595319 60 132
5041 2160 7643 17.282739417 85 132
5042 80 81 14.8399469668 60 132
5043 9217 9218 11.3505760652 350 89
5044 9218 439 21.3409668941 350 89
5045 79 80 28.8288232326 60 132
5046 78 79 17.071782176 60 132
5047 77 78 9.10230800892 60 132
5048 76 77 14.5263203355 60 132
5049 9211 9217 38.3074952302 350 89
5050 8422 9262 11.3627169094 32 135
5051 9174 5908 13.5986295287 60 132
5052 1084 9173 8.94357354998 60 132
5053 153 154 24.8496997565 200 135
5054 154 155 42.96139119 200 135
5055 155 156 46.6682868762 200 135
5056 880 8894 16.3216919309 60 132
5057 5035 119 16.7708072521 60 132
5058 156 157 19.4844040459 200 135
5059 157 158 20.619709067 200 135
5060 9084 5060 12.6977607873 200 135
5061 161 9084 0.0235053182396 200 135
5062 2712 398 2.84014295596 200 83
5063 158 159 22.8927762622 200 135
5064 159 160 17.883078035 200 135
5065 119 120 0.38306767064 60 132
5066 279 276 8.11480190776 60 132
5067 5064 9152 4.73352401533 200 135
5068 7113 397 2.2161107914 160 135
5069 160 161 17.5423000067 200 135
5070 162 163 5.47605199066 200 135
5071 2050 8932 3.9933661902 300 87
5072 9080 7409 3.86792583472 300 87
5073 163 164 6.64039665237 200 135
5074 6536 4585 2.05240216382 60 132
5075 164 165 203.938388087 200 135
5076 100 166 23.1085491279 60 132
5077 166 167 40.8513652952 60 132
5078 167 168 29.464033272 60 132
5079 168 169 22.6080196601 60 132
5080 169 170 21.4075069988 60 132
5081 170 171 15.2611809124 60 132
5082 172 173 161.863532991 85 132
5083 2719 4857 2.03429588855 200 135
5084 152 153 30.198198225 200 135
5085 151 152 23.5429286409 200 135
5086 9154 9155 0.0822346032132 110 132
5087 1511 1082 18.7051932837 110 132
5088 7085 1171 11.2617012036 110 132
5089 2014 9172 6.12217827994 32 135
5090 7651 5136 19.0105970095 200 135
5091 5191 7643 17.4306930979 200 135
5092 9161 4303 2.43998755906 110 132
5093 119 116 9.60064879371 60 132
5094 120 121 0.692234389257 60 132
5095 122 123 1.44164589625 60 132
5096 124 125 27.0808422578 60 132
5097 122 126 1.81092552065 60 132
5098 127 128 5.72192040268 60 132
5099 128 129 36.0500957089 60 132
5100 128 130 0.356482622688 60 132
5101 76 131 14.5892421085 60 132
5102 132 133 32.9958697366 60 132
5103 133 76 21.1107391041 60 132
5104 9155 2864 2.24558376386 110 132
5105 150 151 12.1352406239 200 135
5106 149 150 31.8841406505 200 135
5107 148 149 22.0640053021 200 135
5108 147 148 30.7402283989 200 135
5109 145 146 8.37051956492 60 132
5110 9173 9174 47.6516739603 60 132
5111 144 145 12.039653061 60 132
5112 142 143 2.75822429261 60 132
5113 138 139 23.9360234975 60 132
5114 137 138 14.7053575976 60 132
5115 136 84 4.80966492119 85 132
5116 135 136 42.3504327682 85 132
5117 84 134 2.53767469123 85 132
5118 143 144 15.3647104248 60 132
5119 9262 9184 18.1599645316 32 135
5120 9184 9263 3.09142376302 32 135
5121 9263 2866 1.97222242369 32 135
5122 2289 2290 16.9900903471 300 87
5123 2290 2291 19.2654847073 300 87
5124 2291 2292 19.8705930715 300 87
5125 2292 2293 20.6621039821 300 87
5126 2293 2294 33.757750118 300 87
5127 2294 2295 18.0452271809 300 87
5128 2295 2296 23.0122981463 300 87
5129 2296 2297 17.732491675 300 87
5130 2297 2298 14.6400976094 300 87
5131 2298 2299 18.7728351079 300 87
5132 2299 2300 21.1725754923 300 87
5133 2300 2301 18.6375754862 300 87
5134 2301 1572 29.475298472 300 87
5135 2302 2269 95.1913359774 300 87
5136 2288 2289 19.2992802454 300 87
5137 4349 2899 6.71066481713 32 135
5138 4118 4115 5.42902247247 110 132
5139 4504 4598 18.5860526859 60 132
5140 4338 6910 15.4560039464 32 135
5141 4379 6920 1.57711721795 32 135
5142 9293 9294 0.342608172516 110 132
5143 6857 9293 1.07462687499 110 132
5144 6843 6880 18.2763996731 60 132
5145 4102 8638 13.636116933 110 132
5146 4601 4598 19.9422106254 110 132
5147 4080 4103 9.27661603125 32 135
5148 3832 3813 18.9058355824 32 135
5149 3826 3817 15.073426797 32 135
5150 6923 9280 30.4906497474 60 132
5151 9292 6917 19.1393054212 60 132
5152 4345 6906 30.2489501352 32 135
5153 2287 2288 20.201627113 300 87
5154 2286 2287 22.6538303377 300 87
5155 2285 2286 20.1538755082 300 87
5156 2223 2224 3.29673625597 110 132
5157 2224 2225 33.7851968205 110 132
5158 3914 9056 4.82089266626 63 140
5159 2229 2230 38.6221501637 60 132
5160 9311 3820 18.4273591443 60 132
5161 3829 9311 16.8720812289 60 132
5162 4316 6950 25.1853899396 60 132
5163 9307 9175 22.1464761077 60 132
5164 4328 9307 2.36850691411 60 132
5165 9306 4328 25.682834754 32 135
5166 6949 9306 4.19298759836 32 135
5167 9303 4103 12.7503366619 110 132
5168 4600 9303 15.0887710907 110 132
5169 4317 4314 1.00667373013 60 132
5170 2265 2266 16.6356914345 200 83
5171 2266 2267 66.4481185015 200 83
5172 2267 2268 62.2831876897 200 83
5173 2284 2285 20.5395205404 300 87
5174 2283 2284 18.8164027641 300 87
5175 2282 2283 18.2186345537 300 87
5176 2281 2282 19.9205500428 300 87
5177 2280 2281 20.4580535244 300 87
5178 2279 2280 20.3229834668 300 87
5179 9291 9292 20.5895768293 60 132
5180 2278 2279 24.1934424997 300 87
5181 4145 3960 19.2991557321 110 132
5182 1144 2207 1.24643501617 200 135
5183 2208 2209 1.12512443687 60 132
5184 2209 2210 0.451629273012 60 132
5185 2210 2211 1.06667567709 60 132
5186 2211 2212 3.30344607994 60 132
5187 2277 2278 20.4070744849 300 87
5188 9290 9291 20.9879881121 60 132
5189 9289 9290 20.9085623125 60 132
5190 9288 9289 21.0390060838 60 132
5191 8426 2192 0.195061041949 110 132
5192 112 2169 22.5925625387 60 132
5193 2169 2176 36.3607906104 60 132
5194 2175 2172 22.2089639344 60 132
5195 2173 2174 22.0019979349 60 132
5196 2172 2173 16.4021948292 60 132
5197 2171 2172 18.7308547265 32 135
5198 2170 2171 56.7758007642 32 135
5199 2169 2170 77.4911722341 32 135
5200 2167 2168 4.94953019641 60 132
5201 2166 2164 24.1714020487 60 132
5202 2165 2166 123.556816344 60 132
5203 885 2165 9.87042699138 60 132
5204 2163 2164 10.7219004416 60 132
5205 2162 2163 3.0100962516 60 132
5206 2161 274 32.7500908719 32 135
5207 277 2161 60.0000083684 32 135
5208 3941 8424 18.7179255523 85 132
5209 2147 2148 0.545710930738 85 132
5210 111 2149 1.19945888714 60 132
5211 2149 108 1.16426698759 60 132
5212 2150 2151 0.285541205883 85 132
5213 2151 2152 0.258693525048 85 132
5214 2179 2180 24.1737848472 85 132
5215 2148 2153 1.72702617232 85 132
5216 2154 2155 1.42021644152 85 132
5217 2152 278 15.6115293558 85 132
5218 202 104 29.5363314517 60 132
5219 291 2157 4.52591367593 32 135
5220 2158 2159 4.92906904848 32 135
5221 177 2160 19.6208544223 85 132
5222 2153 2154 12.769876836 85 132
5223 174 175 43.1813039332 85 132
5224 2180 2181 25.7657631692 85 132
5225 2182 2183 23.0426431279 85 132
5226 9287 9288 22.8314261497 60 132
5227 9286 9287 21.4354266107 60 132
5228 9285 9286 20.5843336794 60 132
5229 9284 9285 20.503200969 60 132
5230 9283 9284 19.9883028296 60 132
5231 9282 9283 21.647148658 60 132
5232 9281 9282 19.1083152838 60 132
5233 9280 9281 21.3173818745 60 132
5234 4109 9276 39.5667810993 32 135
5235 9278 9279 26.600524533 32 135
5236 9277 9278 18.4193617314 32 135
5237 9276 9277 19.6770698025 32 135
5238 2898 4036 7.1556138801 110 132
5239 4120 4115 11.6182721882 32 135
5240 9275 6857 3.41436055539 110 132
5241 6880 9275 20.2615197846 110 132
5242 9273 2887 18.9229899609 32 135
5243 2183 2184 36.6046681562 85 132
5244 2184 2185 12.2122680294 85 132
5245 2185 2186 19.4604108497 85 132
5246 2186 2187 28.2057461524 85 132
5247 2187 2188 42.5290613122 85 132
5248 2188 2189 23.3947517918 85 132
5249 2181 2182 33.2662476526 85 132
5250 2189 2190 38.9609271316 85 132
5251 2192 1145 5.59160549396 110 132
5252 2193 1161 23.7129937429 60 132
5253 1027 8429 0.919489532791 60 132
5254 2863 9241 1.413322415 110 132
5255 9172 9272 0.0596214719827 32 135
5256 9272 9273 10.6645012057 32 135
5257 2190 2191 42.6892225622 85 132
5258 4215 4216 40.1469653028 60 132
5259 175 176 49.9999941422 85 132
5260 178 179 33.1640046183 60 132
5261 229 230 60.0000852967 85 132
5262 230 223 44.5019752766 85 132
5263 231 232 43.0159751835 200 135
5264 235 236 37.6244130606 200 135
5265 236 237 43.0036674469 200 135
5266 2887 2888 12.1823726795 32 135
5267 2888 2889 15.1095541958 32 135
5268 2889 2010 9.3279563119 32 135
5269 243 244 32.8655245031 200 135
5270 2127 2128 4.49579327389 85 132
5271 2894 2895 16.6655551006 60 132
5272 2896 2897 39.1362129064 110 132
5273 2897 2898 38.0167638806 110 132
5274 2899 2900 43.9039042747 32 135
5275 228 229 26.8259657994 85 132
5276 2900 2901 21.3172935861 32 135
5277 1610 2125 318.132729206 60 132
5278 244 231 56.4167917428 200 135
5279 2905 2906 24.5159288161 60 132
5280 2906 2907 13.4738941402 60 132
5281 245 246 34.9466453634 200 135
5282 2918 2919 16.0654293755 60 132
5283 2919 2920 18.0598787642 60 132
5284 2921 2922 20.602939013 110 132
5285 2922 2923 21.2396930298 110 132
5286 2894 2924 0.742356383969 110 132
5287 2925 2926 20.4129400381 60 132
5288 2926 2927 21.3998060042 60 132
5289 2928 2929 10.330919714 110 132
5290 2929 2930 20.3284771689 110 132
5291 2901 1505 15.5808945977 32 135
5292 2134 2135 2.45552300933 110 132
5293 2135 70 7.30927014748 110 132
5294 2870 2871 19.3852760881 60 132
5295 2836 2837 13.7891653481 85 132
5296 2837 2838 14.7181541299 85 132
5297 2838 2839 15.8245998374 85 132
5298 2839 2840 1.41259548306 85 132
5299 2840 2841 6.13004730851 85 132
5300 2841 2842 7.99939422677 85 132
5301 2842 2843 8.87020208357 85 132
5302 2843 2844 4.61831581821 85 132
5303 2844 2845 5.32804889273 85 132
5304 2845 2846 10.6147752211 85 132
5305 2846 2847 15.9961248435 85 132
5306 2847 2848 23.8286873537 85 132
5307 2848 2849 23.3322765713 85 132
5308 2849 2850 21.4671455481 85 132
5309 2850 2851 21.7145964277 85 132
5310 2851 2852 31.4992914526 85 132
5311 2852 2853 24.0642987221 85 132
5312 2869 2870 26.1365138309 60 132
5313 2867 2868 19.7168166265 32 135
5314 2866 2867 18.7491191329 32 135
5315 2865 1032 14.8385964974 60 132
5316 2864 2790 4.66530496488 110 132
5317 2862 2863 1.62212360784 110 132
5318 2930 2931 8.78604544094 110 132
5319 2861 2786 13.0234730386 200 83
5320 2859 2860 4.43569284772 200 83
5321 2857 2858 22.6054016082 85 132
5322 2856 2857 35.5899110711 85 132
5323 2855 2856 26.6158062056 85 132
5324 2854 2855 16.9753789352 85 132
5325 2853 2854 86.9154524413 85 132
5326 2860 2861 18.4216176546 200 83
5327 2835 2836 16.1029926411 85 132
5328 2924 2932 16.708633247 110 132
5329 247 248 20.1300576568 200 135
5330 91 313 48.2970291649 32 135
5331 315 316 37.420464859 85 132
5332 325 326 10.123153171 300 87
5333 326 327 6.06771002881 300 87
5334 327 328 7.55449859359 300 87
5335 328 329 7.06312027423 300 87
5336 329 330 20.069847657 300 87
5337 330 331 20.0968119364 300 87
5338 331 332 19.5071220333 300 87
5339 332 333 20.0849684086 300 87
5340 333 334 23.1594287497 300 87
5341 394 395 27.3341293415 60 132
5342 394 396 29.2137111641 60 132
5343 397 398 4.49314110653 160 135
5344 110 313 126.880446888 32 135
5345 402 403 20.2034429004 350 89
5346 404 405 19.5049760063 350 89
5347 405 406 16.1275717334 350 89
5348 407 408 18.1452537321 300 87
5349 408 409 24.2971350576 300 87
5350 409 410 21.1803671357 300 87
5351 411 412 20.7874631697 300 87
5352 412 413 20.5196940762 300 87
5353 413 414 20.1078423751 300 87
5354 414 415 20.0467334256 300 87
5355 415 416 20.3664749278 300 87
5356 416 417 19.8177372325 300 87
5357 417 407 20.9376183218 300 87
5358 334 418 20.0702795695 300 87
5359 418 419 22.2160643006 300 87
5360 403 404 20.2660102132 350 89
5361 313 314 138.45151004 32 135
5362 91 312 0.885637454352 32 135
5363 297 295 10.6855775403 85 132
5364 248 245 24.9313028268 200 135
5365 249 250 4.833091857 200 135
5366 250 247 36.8785840998 200 135
5367 251 252 0.898109820865 200 135
5368 252 249 42.8003977629 200 135
5369 253 251 31.6328026129 200 135
5370 254 255 20.9199308082 150 135
5371 255 256 6.01777118156 150 135
5372 210 223 47.9270866701 85 132
5373 269 270 14.3742459962 32 135
5374 270 271 12.5596736915 32 135
5375 271 272 16.7814936076 32 135
5376 272 273 47.048756224 32 135
5377 131 269 18.6447173483 32 135
5378 274 275 64.8429841364 32 135
5379 276 277 44.5654449458 60 132
5380 278 279 12.9627241374 60 132
5381 296 297 17.7152786691 85 132
5382 294 295 7.58992959764 200 135
5383 293 294 41.2334040913 200 135
5384 290 292 14.698772447 32 135
5385 290 291 23.2548152826 32 135
5386 288 289 6.93821119301 85 132
5387 246 243 5.25125984863 200 135
5388 287 288 12.9176006585 85 132
5389 285 286 124.133534982 32 135
5390 283 284 151.361891789 60 132
5391 281 282 45.8238574893 32 135
5392 217 214 6.75600049809 32 135
5393 226 211 48.5147216091 32 135
5394 276 280 59.9166764221 32 135
5395 275 287 26.860375963 85 132
5396 2834 2835 8.41337417464 85 132
5397 2833 2834 4.92756988771 85 132
5398 2832 2833 7.7773348911 85 132
5399 2707 2708 36.2111586652 200 83
5400 2708 2709 22.1732554264 200 83
5401 2709 2710 21.1233273008 200 83
5402 2710 2711 29.2384106615 200 83
5403 2711 2712 2.45473750262 200 83
5404 1045 2715 22.9233564483 200 83
5405 2715 2716 12.6199138265 200 83
5406 2716 2717 2.80005929478 200 83
5407 398 2718 3.18932137326 200 83
5408 2718 2719 3.00988838612 200 83
5409 2720 2721 17.9417386634 200 83
5410 2721 2722 21.0454217404 200 83
5411 2722 2723 15.765537078 200 83
5412 2723 2724 19.5339559968 200 83
5413 2706 2707 19.6705926625 200 83
5414 2724 2725 24.6376225361 200 83
5415 2726 2727 21.8081104692 200 83
5416 2727 2728 26.3937821644 200 83
5417 2728 2729 15.0492535698 200 83
5418 2729 2730 26.0477384773 200 83
5419 2730 2731 14.993840403 200 83
5420 2731 2732 12.080243356 200 83
5421 2732 2733 6.7382525988 200 83
5422 2733 2734 24.0043425308 200 83
5423 2734 2735 23.8012514158 200 83
5424 2735 2736 20.0409313418 200 83
5425 2736 1045 25.610293815 200 83
5426 2141 2142 2.9672650589 110 132
5427 2139 2140 3.25833281405 60 132
5428 2125 73 3.04751626234 60 132
5429 2725 2726 17.0454242783 200 83
5430 2705 2706 23.1028145685 200 83
5431 2704 2705 5.96999715234 200 83
5432 2702 2703 13.3563290172 350 89
5433 179 180 61.9526140023 60 132
5434 180 181 34.3422084325 60 132
5435 181 182 15.9801839788 60 132
5436 182 183 11.1545080124 60 132
5437 85 184 19.2812745453 60 132
5438 184 185 48.8711333168 60 132
5439 185 186 36.9218592608 60 132
5440 186 187 52.3577712897 60 132
5441 187 140 6.15864742058 60 132
5442 188 189 33.3821057232 60 132
5443 189 85 39.8238418885 60 132
5444 190 191 12.4971600722 60 132
5445 9058 2887 9.59090089608 63 140
5446 9057 9058 24.1214964087 63 140
5447 9056 9057 19.4798825965 63 140
5448 191 188 55.3926926657 60 132
5449 192 193 26.4673504568 60 132
5450 2701 2702 21.070506259 350 89
5451 2700 2701 18.9554210716 350 89
5452 448 2700 19.5494471789 350 89
5453 2698 2164 39.8034474518 200 135
5454 2697 2698 30.1872675975 200 135
5455 2696 2697 30.8592915822 200 135
5456 2138 73 9.59192280191 110 132
5457 2695 2696 39.3206653687 200 135
5458 2693 2694 37.2332632199 200 135
5459 2692 2693 20.3789833407 200 135
5460 295 2692 43.4874384365 200 135
5461 190 196 48.7730519992 60 132
5462 194 195 3.357243155 60 132
5463 193 190 44.6214101451 60 132
5464 2694 2695 34.4806248344 200 135
5465 2136 2137 87.9730769113 60 132
5466 2150 2746 1.07387223123 200 83
5467 2746 2747 17.377062635 200 83
5468 210 211 138.848435569 32 135
5469 212 213 15.3918513414 32 135
5470 213 210 125.114135268 32 135
5471 214 215 118.902209592 32 135
5472 215 216 18.255488737 32 135
5473 217 218 47.0356353019 32 135
5474 219 217 137.634547387 32 135
5475 220 221 138.803491949 32 135
5476 173 222 5.88674945952 85 132
5477 222 165 21.5774991342 85 132
5478 223 224 15.4980584256 85 132
5479 224 225 60.0000089935 85 132
5480 225 226 62.4000940566 85 132
5481 227 228 9.53778221283 85 132
5482 2817 2818 2.45722048265 85 132
5483 2831 2832 1.86272193299 85 132
5484 2830 2831 10.4787425296 85 132
5485 2829 2830 6.00959174978 85 132
5486 2828 2829 14.8449742678 85 132
5487 2827 2828 3.66957395311 85 132
5488 2826 2827 9.35079547401 85 132
5489 2802 2799 16.7100258825 200 83
5490 2825 2826 3.06568361063 85 132
5491 2823 2824 6.88649489892 85 132
5492 2822 2823 26.6214825469 85 132
5493 2821 2822 20.0249654185 85 132
5494 2820 2821 18.1094226575 85 132
5495 2819 2820 1.88029891314 85 132
5496 2818 2819 12.3807316824 85 132
5497 2824 2825 6.40406160216 85 132
5498 176 177 60.3708006542 85 132
5499 2801 2802 6.70703220522 200 83
5500 2800 2797 19.949098275 200 83
5501 2747 2748 15.2265338468 200 83
5502 2748 2749 19.6890831438 200 83
5503 2749 126 14.8157403138 200 83
5504 126 2750 1.7288392897 200 83
5505 2750 2751 5.69844421791 200 83
5506 2751 2752 17.7430745076 200 83
5507 2752 2753 18.7496039326 200 83
5508 2753 2754 0.767857824649 200 83
5509 2754 130 4.69838048451 200 83
5510 130 2147 30.804706117 200 83
5511 2755 2756 1.6996592271 200 83
5512 2757 2758 20.9313996104 200 83
5513 2758 121 7.43718700454 200 83
5514 2134 2136 2.4592924287 60 132
5515 196 197 77.4471023302 60 132
5516 2769 2770 9.6149360887 200 83
5517 197 195 34.931397539 60 132
5518 2799 2800 21.458034882 200 83
5519 2798 2794 22.3333272256 200 83
5520 2797 2798 18.1690370145 200 83
5521 2796 2769 21.9611421605 200 83
5522 2795 2796 20.0556419998 200 83
5523 2794 2795 0.639519350629 200 83
5524 2789 2801 18.788586562 200 83
5525 2792 2793 9.22727982691 200 83
5526 2790 2791 1.00269686413 200 83
5527 2788 2789 19.7660582819 200 83
5528 2787 2788 5.16878370627 200 83
5529 2786 2787 18.4800846858 200 83
5530 208 209 7.63008778215 85 132
5531 201 202 67.95112049 60 132
5532 2791 2792 0.936769981647 200 83
5533 4216 4217 47.1623849052 60 132
5534 4008 4009 21.2532208922 60 132
5535 4218 4219 20.8389239847 60 132
5536 4728 4729 23.6996212835 60 132
5537 1129 4730 55.676262123 60 132
5538 4730 4728 10.4182688103 60 132
5539 4731 4732 27.6814567715 60 132
5540 1015 4733 2.80203247685 60 132
5541 4733 4731 30.966495766 60 132
5542 4734 4735 2.68635905988 60 132
5543 4735 4736 14.9635024305 60 132
5544 4736 1015 23.5234019009 60 132
5545 4737 2108 10.3871318952 60 132
5546 2067 2068 45.2950615455 200 135
5547 2066 2067 15.4309969102 200 135
5548 4741 4742 0.686447587153 60 132
5549 4742 1168 6.35680737541 60 132
5550 4743 4744 16.7266884044 60 132
5551 4744 4745 10.4211031915 60 132
5552 4745 4746 18.5369572314 60 132
5553 4761 4762 7.93905893983 60 132
5554 4760 4761 49.9950881555 60 132
5555 4759 4760 42.2273499724 60 132
5556 4757 4758 6.68005940791 60 132
5557 4756 4757 95.7074445401 60 132
5558 4755 4756 12.7949663514 60 132
5559 4726 4727 9.11255688582 60 132
5560 4754 4755 53.7477906694 60 132
5561 4752 4753 15.3355193878 60 132
5562 4750 4751 9.30386810954 60 132
5563 4749 4750 4.2070179102 60 132
5564 4748 4749 8.7869186329 60 132
5565 4747 4748 8.38742490266 60 132
5566 4746 4747 6.0866660047 60 132
5567 4753 4754 14.3149667416 60 132
5568 4725 4726 24.1829707438 60 132
5569 4724 4725 21.4758968613 60 132
5570 4723 4724 9.14681895508 60 132
5571 4703 4704 20.0889904428 60 132
5572 4701 4702 13.2118643656 60 132
5573 4700 4701 16.5581015818 60 132
5574 4699 4700 13.120365478 60 132
5575 4698 4699 5.27448521484 60 132
5576 1952 4698 25.1442705209 60 132
5577 4704 4705 20.1348919286 60 132
5578 4696 4697 18.9719315042 60 132
5579 4692 4695 6.12183191573 60 132
5580 4693 4694 15.0703108466 32 135
5581 4692 4693 5.27097685454 32 135
5582 4691 4692 22.590708045 60 132
5583 4690 4691 19.3710632902 60 132
5584 2871 4690 14.3844650237 60 132
5585 4695 4696 15.7304859742 60 132
5586 4762 4763 21.6163180537 60 132
5587 4705 4706 21.8138996063 60 132
5588 4708 4709 5.74926925826 60 132
5589 4722 4703 1.96813947617 60 132
5590 4721 4722 8.79045584729 60 132
5591 4720 4721 15.8145518431 60 132
5592 4719 4720 30.3300145241 60 132
5593 4718 4708 16.2376768042 60 132
5594 4717 4718 21.1109617263 60 132
5595 4706 4707 16.054001993 60 132
5596 4716 4702 4.76751046114 60 132
5597 4714 4715 16.206650888 60 132
5598 4708 4714 6.60189434916 60 132
5599 4712 4713 11.8831295964 60 132
5600 4711 4712 17.6323830492 60 132
5601 4710 4711 24.5137511003 60 132
5602 4709 4710 18.863626427 60 132
5603 4715 4716 12.6445131976 60 132
5604 4763 4764 53.122422362 60 132
5605 4759 4757 41.7344927452 60 132
5606 4759 4765 6.03712933124 60 132
5607 4816 4812 16.7462276645 32 135
5608 4815 4816 25.3224105757 32 135
5609 4813 4814 10.8181093404 32 135
5610 4812 4813 26.176601479 32 135
5611 4810 4811 13.0030112844 32 135
5612 4809 4810 25.4381257958 32 135
5613 4817 4818 3.81348790489 32 135
5614 4808 4809 26.7490956854 32 135
5615 4806 4807 26.2078841625 32 135
5616 4805 4806 20.9754641739 32 135
5617 4804 2225 13.3130442864 110 132
5618 4803 4804 33.2135592533 110 132
5619 4802 4803 24.0089679168 110 132
5620 4801 4802 31.8134763779 110 132
5621 4807 4808 24.0515394096 32 135
5622 4800 4801 30.3759133621 110 132
5623 4818 4819 21.404102807 32 135
5624 4820 4821 17.815285572 32 135
5625 4835 4817 3.48762248136 60 132
5626 4834 4835 6.16007439139 60 132
5627 4833 4834 17.8393705631 60 132
5628 4832 4833 21.1828799365 60 132
5629 4831 4832 22.4356670857 60 132
5630 4830 4831 17.3598374287 60 132
5631 4819 4815 14.7421363013 32 135
5632 4829 4830 27.0332779294 60 132
5633 4826 4827 24.3342741825 32 135
5634 4825 4826 19.8050838925 32 135
5635 4824 4825 20.0505644065 32 135
5636 4823 4824 19.7699937533 32 135
5637 4822 4823 32.5519147087 32 135
5638 4821 2868 21.8934123051 32 135
5639 4827 4828 20.4101804261 32 135
5640 4689 4016 1.62799468336 110 132
5641 4799 4800 16.5534744213 110 132
5642 4797 4798 17.2756467821 60 132
5643 4779 4780 29.6849628659 60 132
5644 4778 4779 75.2603013983 60 132
5645 4777 4769 7.89857374593 60 132
5646 4776 4775 39.842174671 60 132
5647 4775 4773 47.9168984788 60 132
5648 4773 4774 61.1075070095 60 132
5649 4780 4781 26.1041538166 60 132
5650 4772 4769 42.3000491074 60 132
5651 4770 4771 40.1228106422 60 132
5652 4769 4770 78.7560699009 60 132
5653 4769 1024 41.4999918159 60 132
5654 1024 4759 42.0857758396 60 132
5655 4768 4766 78.8870046787 60 132
5656 4766 4767 64.4794364842 60 132
5657 4771 124 80.664926474 60 132
5658 1149 4799 6.58536570662 110 132
5659 4781 4782 26.999886413 60 132
5660 4783 879 16.4064194682 60 132
5661 4796 4797 47.0044529106 60 132
5662 4795 4796 34.2637490929 60 132
5663 4794 4795 34.2222844743 60 132
5664 1141 4793 4.76596572574 60 132
5665 4792 4790 40.4999983604 60 132
5666 4790 4791 7.50004600872 60 132
5667 4782 4783 24.502008698 60 132
5668 4789 4772 33.4500394034 60 132
5669 4789 4788 0.899993294286 60 132
5670 4788 4778 1.17862568286 60 132
5671 4787 4772 58.5077357178 60 132
5672 4786 4787 43.6001479532 60 132
5673 4785 4786 50.5453743787 60 132
5674 4784 4785 27.5341878868 60 132
5675 4790 4789 10.6500423848 60 132
5676 4688 4689 36.5119500132 110 132
5677 4687 4688 6.32019989339 110 132
5678 4686 4015 10.782817166 60 132
5679 4592 4591 44.4477886482 110 132
5680 4591 4590 42.6149714104 60 132
5681 4590 4187 42.4789658775 110 132
5682 4194 4198 42.8339098657 110 132
5683 4198 4208 42.6325669865 110 132
5684 4208 4221 43.7645789068 110 132
5685 4217 4218 28.6038648879 60 132
5686 4221 4230 41.5664391509 110 132
5687 4588 4589 1.10122779263 110 132
5688 4264 4588 32.3009337475 110 132
5689 4447 4578 6.13713926616 110 132
5690 4587 1147 4.26459316952 200 135
5691 4586 4587 18.461790721 200 135
5692 4585 4000 3.18954832274 60 132
5693 4230 1509 43.352163481 110 132
5694 4584 4585 28.9816188004 60 132
5695 4594 4593 40.2074345652 110 132
5696 4596 4594 36.0653218903 110 132
5697 4615 4616 64.3188309586 110 132
5698 4614 4615 74.5874699236 110 132
5699 4613 4614 79.0617045421 110 132
5700 4612 4613 61.7806902657 110 132
5701 4611 4612 45.1404135582 110 132
5702 245 4611 12.000022892 110 132
5703 4595 4596 12.0000145505 110 132
5704 2079 2080 9.06220647922 60 132
5705 2081 2082 28.1571082492 60 132
5706 4525 4515 40.7580438639 110 132
5707 4515 4601 22.4896457125 110 132
5708 4599 4600 18.2570694517 110 132
5709 4598 4599 19.2436427128 110 132
5710 1173 4597 4.75664525575 110 132
5711 2080 2081 29.2816870858 60 132
5712 4616 4617 14.7330596496 110 132
5713 4019 4584 10.3313346209 60 132
5714 4582 4583 5.53646674695 110 132
5715 1428 4563 2.33612055511 110 132
5716 4561 4562 46.1654767206 60 132
5717 4560 4561 21.795893144 60 132
5718 4559 4560 13.3545723805 60 132
5719 4558 4559 10.6784265399 60 132
5720 4557 4558 11.1994739611 60 132
5721 4563 4564 45.7827879475 110 132
5722 4556 4557 19.2963745075 60 132
5723 4554 4555 8.99668658977 60 132
5724 4553 4554 3.88130921473 60 132
5725 4552 4553 11.6897878927 60 132
5726 4551 4552 3.42538665419 60 132
5727 4550 4551 23.6872119462 60 132
5728 4549 4550 14.6467966003 60 132
5729 4555 4556 13.5675065163 60 132
5730 4442 4437 41.2100221008 110 132
5731 4564 4565 43.4347401069 110 132
5732 4566 4567 37.9697788344 110 132
5733 4581 4582 15.5690176819 110 132
5734 4580 4581 0.00601664339239 110 132
5735 4579 4580 54.7026851857 110 132
5736 4578 4579 14.3910624461 110 132
5737 4576 4577 19.084422247 60 132
5738 4575 4576 38.002264938 60 132
5739 4565 4566 23.5567058964 110 132
5740 4574 4575 26.6443409803 60 132
5741 4264 4573 8.00004334284 60 132
5742 4571 4572 12.3428123838 110 132
5743 4570 4571 14.5459082475 110 132
5744 4569 4570 29.515281081 110 132
5745 4568 4569 52.2443980502 110 132
5746 4567 4568 45.2170808335 110 132
5747 4573 4574 0.721169472989 60 132
5748 4836 4837 6.63230736629 32 135
5749 4617 4603 1.83774280023 110 132
5750 2077 2078 10.9232267808 60 132
5751 4668 4669 9.96426615456 60 132
5752 4667 4668 30.7541236697 60 132
5753 4666 4667 26.5953256895 60 132
5754 4665 4666 43.2730167546 60 132
5755 4664 4665 20.4986854299 60 132
5756 4663 4664 16.9532572831 60 132
5757 4015 4670 18.1737539179 110 132
5758 4662 4663 28.3615365593 60 132
5759 4660 4661 9.31436932154 60 132
5760 4659 4660 7.64807399549 60 132
5761 4658 4659 11.5164461125 60 132
5762 4656 4657 25.1119741676 110 132
5763 907 4655 9.87028299977 60 132
5764 4654 4473 17.4900310182 60 132
5765 4661 4662 14.1502444127 60 132
5766 4653 4654 20.48310289 60 132
5767 4670 4671 20.0830179503 110 132
5768 4672 4673 13.4321719831 60 132
5769 4685 4686 29.2262699789 60 132
5770 4684 4685 23.175171474 60 132
5771 4683 4684 11.7471540807 60 132
5772 4682 4683 11.8469723293 60 132
5773 4681 4682 29.29245884 60 132
5774 4680 4681 21.0069114385 60 132
5775 4671 4658 5.80863686968 110 132
5776 4679 4680 32.5654837679 60 132
5777 4677 4678 7.90143270837 60 132
5778 4676 4677 17.770699053 60 132
5779 4672 4676 17.2984516107 60 132
5780 4675 4669 6.60798997049 60 132
5781 4674 4675 12.6259001763 60 132
5782 4673 4674 22.8809624553 60 132
5783 4678 4679 14.1946216718 60 132
5784 2078 2079 21.4335594688 60 132
5785 4652 4653 19.8744264323 60 132
5786 4650 4649 36.5570193514 110 132
5787 2074 2075 30.3003470292 60 132
5788 2075 2076 17.7701676842 60 132
5789 2076 2077 26.6172774714 60 132
5790 4629 4618 5.52886763422 110 132
5791 4628 4629 15.5512606006 110 132
5792 4627 4628 34.690170919 110 132
5793 4634 4207 42.6397476093 110 132
5794 4626 4627 56.4712107556 110 132
5795 4624 4625 43.5511679236 110 132
5796 4623 4624 31.0563586706 110 132
5797 4622 4623 22.7014898804 110 132
5798 4621 4622 33.1766114705 110 132
5799 4620 4621 32.8816921382 110 132
5800 247 4620 12.0000599274 110 132
5801 4625 4626 65.5298596796 110 132
5802 4651 4652 12.3283222291 60 132
5803 2073 2074 34.4718399532 60 132
5804 2070 2071 30.3701217151 200 135
5805 253 4650 8.64052573912 110 132
5806 4649 4647 40.7592410869 110 132
5807 4648 4645 27.8688720079 110 132
5808 4647 4648 13.0376598398 110 132
5809 4646 4642 39.9502024205 110 132
5810 4645 4646 6.6654652844 110 132
5811 2072 2073 16.1963897582 60 132
5812 4644 4639 15.9289931791 110 132
5813 4642 4643 10.8135290863 110 132
5814 4641 4152 13.633162748 110 132
5815 4640 4641 20.6269102268 110 132
5816 4639 4640 11.1368781579 110 132
5817 2068 2069 23.0632073051 200 135
5818 2069 2070 50.4269489979 200 135
5819 4643 4644 11.4611786665 110 132
5820 4837 4838 23.8524036523 32 135
5821 4838 4839 2.00271540669 32 135
5822 4839 4840 17.1581074098 32 135
5823 5043 5044 26.8000818422 32 135
5824 5037 5038 32.2936778029 32 135
5825 5036 5037 38.8068629062 32 135
5826 5034 5035 67.7974438558 60 132
5827 5033 5034 55.4796177248 60 132
5828 5032 5033 73.1865890346 60 132
5829 1166 5045 9.38626729175 200 83
5830 5031 5032 26.7555476907 60 132
5831 5029 5030 45.7567327286 60 132
5832 5028 5029 29.3811214448 60 132
5833 5026 5027 76.441953872 60 132
5834 5025 5026 59.9984505237 60 132
5835 5024 5025 52.176855891 60 132
5836 5023 5024 51.6570875917 60 132
5837 5030 5031 32.816050688 60 132
5838 5022 5023 42.8987228835 60 132
5839 5045 5046 31.9872786854 200 83
5840 5047 5048 25.7958179725 200 83
5841 5063 5064 2.46410521305 200 135
5842 5062 5063 6.93041279668 200 135
5843 5061 5062 2.7173859935 200 135
5844 5060 5061 0.280995267334 200 135
5845 5058 5059 4.69970048656 32 135
5846 5056 5057 27.7220797635 60 132
5847 5046 5047 19.1759926986 200 83
5848 5055 5056 10.136255382 60 132
5849 92 5054 30.5954318212 60 132
5850 5052 5053 1.39483162058 200 83
5851 2756 5052 3.05008855764 200 83
5852 5051 2756 4.60038527562 200 83
5853 5050 5051 0.00308706957195 200 83
5854 5049 5050 8.56511425975 200 83
5855 5054 5055 37.3614684113 60 132
5856 5060 5065 6.78810626102 60 132
5857 5021 5022 56.2492645867 60 132
5858 5018 5019 77.093070166 60 132
5859 4999 5000 2.66292651041 85 132
5860 4998 4999 22.3356780075 85 132
5861 4978 4998 12.1194030036 85 132
5862 4949 4793 13.6376226473 60 132
5863 4949 4992 36.4741568224 60 132
5864 4997 4948 43.7903253664 60 132
5865 4999 5001 200.000250764 32 135
5866 4996 4997 41.6560902752 60 132
5867 4994 4995 47.3052256653 60 132
5868 4993 4994 29.1132816049 60 132
5869 4992 4993 22.9875550708 60 132
5870 4990 4991 15.9400314303 60 132
5871 4989 4990 18.0316749367 60 132
5872 4988 4989 23.3217003019 60 132
5873 4995 4996 34.4373423465 60 132
5874 5019 5020 57.9266621388 60 132
5875 273 5002 169.89746951 32 135
5876 5004 5005 5.27833657501 110 132
5877 5017 5018 58.7353350583 60 132
5878 5016 5017 45.1118006806 60 132
5879 5015 5016 36.9914682192 60 132
5880 5014 5015 43.1236722436 60 132
5881 5013 5014 29.8628116832 60 132
5882 5012 5010 20.1163796198 150 135
5883 5003 5004 19.2603595239 110 132
5884 1496 5012 21.1736810214 150 135
5885 5010 5011 17.7635911347 150 135
5886 5009 1560 19.0616642767 150 135
5887 5008 5009 21.6616404045 150 135
5888 5007 5003 19.7750570417 110 132
5889 5006 5007 21.4938861077 110 132
5890 5005 913 16.8749284149 110 132
5891 5011 5008 23.7268506542 150 135
5892 4987 4988 24.3646912768 60 132
5893 5065 5066 6.49400755296 60 132
5894 5067 5068 7.59563299584 60 132
5895 5115 5116 4.79998665223 60 132
5896 2046 801 22.8099422629 300 87
5897 802 2047 21.7763790603 300 87
5898 2047 2048 20.9362056978 300 87
5899 2048 2049 19.459331566 300 87
5900 5110 5107 122.386025452 60 132
5901 5116 5117 24.0235100393 60 132
5902 5109 5110 11.9663871324 60 132
5903 4979 5107 49.7184946425 85 132
5904 5107 226 50.0618521536 85 132
5905 5105 5106 37.5247996967 60 132
5906 2049 2050 18.9417582478 300 87
5907 1565 2051 27.9148174943 350 89
5908 1012 1013 21.082076013 60 132
5909 5108 5109 3.72462642404 60 132
5910 1011 1012 14.7648369439 60 132
5911 5117 5118 38.5288467129 60 132
5912 5119 5120 6.01983043703 60 132
5913 3758 5132 47.4957558835 60 132
5914 5131 260 26.1213438318 60 132
5915 5130 5131 48.1221150766 60 132
5916 5129 5130 53.4495105617 60 132
5917 5098 5129 36.7532687146 60 132
5918 5125 5115 49.4606179112 32 135
5919 5118 5119 121.956485447 60 132
5920 5128 5125 4.89632854909 32 135
5921 5126 5127 125.164199524 32 135
5922 5125 5126 79.7323589335 32 135
5923 5124 5115 48.6367101626 60 132
5924 5123 5124 27.2295988159 60 132
5925 5121 5122 5.31991000008 60 132
5926 5120 5121 6.01983043824 60 132
5927 135 5128 67.675693685 32 135
5928 5066 5067 3.97551984697 60 132
5929 5097 5098 55.5269469356 60 132
5930 3766 884 0.561379060949 85 132
5931 5079 5078 45.1686603146 60 132
5932 87 5079 22.6995751339 60 132
5933 5078 1176 74.0729740964 60 132
5934 188 3748 161.600579615 85 132
5935 208 5077 7.67923096537 60 132
5936 5075 5076 1.87704709066 60 132
5937 5078 5080 37.2763754552 60 132
5938 5074 5075 11.5744891788 60 132
5939 115 2175 2.10006920092 60 132
5940 115 5071 4.94772162199 60 132
5941 5071 5072 5.52288487329 60 132
5942 5066 5070 1.78319376405 60 132
5943 5069 119 4.5665008276 60 132
5944 5068 5069 16.7670712291 60 132
5945 5073 5074 46.5549203457 60 132
5946 5096 5097 11.7294187839 60 132
5947 5080 5081 76.5611020911 60 132
5948 87 5082 49.230580176 60 132
5949 5094 5095 15.5494900242 60 132
5950 5093 5094 12.1111188581 60 132
5951 5092 5093 48.5769987221 60 132
5952 5091 5092 41.9941531141 60 132
5953 266 5091 36.2897095285 60 132
5954 5089 5090 15.7447907888 60 132
5955 5081 3764 49.5905388922 60 132
5956 5088 5089 17.8250164939 60 132
5957 5086 5087 34.1604409442 60 132
5958 262 5086 24.7454685104 60 132
5959 5085 192 33.7691355477 60 132
5960 5084 5085 34.3005834181 60 132
5961 5083 3763 43.2102630175 60 132
5962 5082 5083 71.5737714108 60 132
5963 5087 5088 63.7761138242 60 132
5964 4548 4549 11.6344779693 60 132
5965 4986 4987 21.0790255939 60 132
5966 4984 4985 21.0521735929 60 132
5967 4893 4894 7.60981151191 110 132
5968 4892 4893 18.6745829964 110 132
5969 4891 4892 16.5390433351 110 132
5970 4890 4891 9.67571236627 110 132
5971 4889 4890 9.26315982827 110 132
5972 4888 4889 15.8691877048 110 132
5973 4894 4895 19.1101614369 110 132
5974 4886 4887 41.3770951736 110 132
5975 4884 4885 6.91290956557 110 132
5976 4883 4884 21.4988836922 110 132
5977 4882 4883 17.4009727017 110 132
5978 4881 4882 11.9817053753 110 132
5979 4880 4881 18.171827846 110 132
5980 4879 4880 15.5503800723 110 132
5981 4885 4886 26.7946138446 110 132
5982 4878 4879 29.3881297433 110 132
5983 4895 4896 11.0213039315 110 132
5984 4897 4898 3.43013087372 110 132
5985 4911 4912 7.62268937044 60 132
5986 4910 1455 21.4848443929 110 132
5987 4909 4910 15.3209236881 110 132
5988 4908 4909 8.22088652974 110 132
5989 4907 4908 30.0486078922 110 132
5990 4906 4907 7.61778624849 110 132
5991 4896 4897 22.12695217 110 132
5992 4905 4906 20.2915502613 110 132
5993 4903 4904 19.0582872622 110 132
5994 4902 4903 12.3454848724 110 132
5995 4901 4902 22.7222558524 110 132
5996 4900 4901 20.4689576171 110 132
5997 4899 4900 14.8989753636 110 132
5998 4898 4899 15.8276171168 110 132
5999 4904 4905 18.4556040573 110 132
6000 4912 4913 13.8540990443 60 132
6001 4877 4878 20.3083103015 110 132
6002 4875 4876 33.0326066764 110 132
6003 4855 4856 31.1706712699 32 135
6004 4854 4853 3.49997928705 60 132
6005 4853 4850 24.999969592 60 132
6006 1147 2065 23.1676713338 200 135
6007 2065 2066 14.9184787811 200 135
6008 4849 4842 4.15346545415 32 135
6009 4857 4858 11.9299679319 200 135
6010 4848 4849 12.0906491327 32 135
6011 4846 4847 13.4222467369 32 135
6012 4845 2072 9.81568872504 32 135
6013 4844 4845 10.3429567465 32 135
6014 4843 4844 8.98696009607 32 135
6015 4842 4843 11.3865796132 32 135
6016 4841 2862 3.8999032036 110 132
6017 4847 4848 7.58556747532 32 135
6018 4876 4877 15.0328104684 110 132
6019 4858 4859 10.4715867423 200 135
6020 4860 4861 28.3534935105 200 135
6021 4874 4875 37.5007926233 110 132
6022 4873 4874 13.1865737421 110 132
6023 4872 4873 32.9737505365 110 132
6024 1452 4872 14.2515616749 110 132
6025 4870 4871 0.718291897276 60 132
6026 4869 4870 0.718291897276 60 132
6027 4859 4860 31.2640264865 200 135
6028 4868 4869 2.72989083988 60 132
6029 4866 4867 2.41391155645 60 132
6030 4865 4586 4.38459293938 200 135
6031 4864 4865 18.170161652 200 135
6032 4863 4864 14.2925916142 200 135
6033 4862 4863 24.7165866771 200 135
6034 4861 4862 13.0560624641 200 135
6035 4867 4868 2.72989084075 60 132
6036 4985 4986 23.4787449841 60 132
6037 4913 4914 28.1178104001 60 132
6038 4915 4916 37.877952183 60 132
6039 4960 4961 18.7376863763 60 132
6040 4959 4960 36.1109323771 60 132
6041 4958 4959 37.191919923 60 132
6042 4957 4958 17.5357165817 60 132
6043 4957 4932 44.476802886 60 132
6044 4956 4687 35.6842848724 110 132
6045 4961 4962 36.8880842171 60 132
6046 4948 4956 2.80626595479 110 132
6047 4954 4945 22.3348188584 60 132
6048 4953 4954 47.842571953 60 132
6049 4952 4953 23.7566071245 60 132
6050 4951 4952 33.3321801342 60 132
6051 4950 4951 53.7296027763 60 132
6052 4949 4950 32.3553397959 60 132
6053 4955 2704 2.52042912259 85 132
6054 4947 4948 8.99708713148 110 132
6055 4962 4963 9.82505352306 60 132
6056 4964 4965 30.1104540177 60 132
6057 4983 4984 22.1353156748 60 132
6058 4982 4983 16.0322490312 60 132
6059 4793 4982 24.2962273819 60 132
6060 4977 4978 6.95346398912 32 135
6061 4976 4977 135.853373866 32 135
6062 4974 4975 6.68518536411 32 135
6063 4963 4964 23.5002601817 60 132
6064 4973 4970 44.6591769259 60 132
6065 4970 4971 4.80586476887 60 132
6066 4969 1456 4.43612263158 60 132
6067 4968 4969 11.4676436114 60 132
6068 4967 4968 4.65689864595 60 132
6069 4966 4967 1.08341127895 60 132
6070 4965 4687 13.5811795585 60 132
6071 4971 4972 34.2618928741 60 132
6072 4914 4915 39.5752728877 60 132
6073 4946 4947 24.1570263475 110 132
6074 4944 4016 17.3744604582 60 132
6075 4925 4926 10.2284108245 60 132
6076 1128 4925 5.95909590473 60 132
6077 1107 4924 36.5128937713 32 135
6078 4924 4854 37.074374932 32 135
6079 4923 4855 1.2323052583 60 132
6080 1107 4923 36.742952487 60 132
6081 4926 4927 4.0182881928 60 132
6082 1336 4922 34.4001274448 32 135
6083 2229 4920 42.5953837539 60 132
6084 4911 4921 40.5070573272 32 135
6085 4919 4920 28.1209609268 60 132
6086 4918 4919 13.0869906724 60 132
6087 4917 4918 19.8563365367 60 132
6088 4916 4917 20.3150067997 60 132
6089 4855 1336 40.2726431305 60 132
6090 4945 4946 8.65138680484 110 132
6091 4927 4928 19.3546410973 60 132
6092 4930 4931 20.0000576207 60 132
6093 4943 4944 26.1789379898 60 132
6094 4942 4943 23.6446131674 60 132
6095 4941 4942 4.72489826544 60 132
6096 4940 4941 35.2558101169 60 132
6097 4939 4940 18.1297442633 60 132
6098 4938 4939 10.4502107486 60 132
6099 4929 4930 20.0000152501 60 132
6100 4937 4938 16.289596629 60 132
6101 4935 4936 14.1698969109 60 132
6102 4934 4935 23.2642226022 60 132
6103 4932 4934 17.4391869762 60 132
6104 4933 4672 3.06131219584 60 132
6105 4932 4933 33.0431466624 60 132
6106 4931 132 7.00411782132 60 132
6107 4936 4937 19.8063578995 60 132
6108 4547 4548 18.9344596856 60 132
6109 4593 4592 41.2766197807 60 132
6110 1041 4462 16.8897949757 60 132
6111 4367 4368 6.60445770366 110 132
6112 4534 4535 0.74822481208 60 132
6113 4535 4536 46.2380861907 60 132
6114 4536 4537 49.7986892849 60 132
6115 4366 4367 11.3420526247 110 132
6116 4352 4366 26.6025864969 110 132
6117 4364 4365 12.4257805102 110 132
6118 4363 4364 14.9471271686 110 132
6119 4362 4363 5.42988054123 110 132
6120 4355 4361 106.000006092 32 135
6121 1503 4355 41.3061285367 32 135
6122 4360 1503 11.05597718 32 135
6123 4359 4360 25.8267499472 32 135
6124 4358 4359 16.3345034897 32 135
6125 4357 4358 44.4675800449 32 135
6126 4356 4357 5.94295128136 32 135
6127 4355 4348 38.62028657 32 135
6128 4354 4350 38.2158960044 32 135
6129 4353 4354 51.1878255982 32 135
6130 4348 4353 40.6828882386 32 135
6131 4352 4350 33.2315909776 110 132
6132 4350 4351 3.60290406339 110 132
6133 4348 4349 31.1488341341 32 135
6134 2899 4314 12.267919166 60 132
6135 3852 4317 42.0600580805 60 132
6136 4347 3852 35.7212549605 60 132
6137 4346 4347 2.39881278995 60 132
6138 4368 4356 1.21101843138 110 132
6139 4369 4370 4.64143268395 110 132
6140 4370 4371 12.6135146009 110 132
6141 4371 4110 23.334448952 110 132
6142 4380 4381 33.6977995062 60 132
6143 4514 4515 15.8122707494 60 132
6144 4516 4517 1.97217695448 60 132
6145 4517 4518 9.41339880521 60 132
6146 4518 4519 36.6145062481 60 132
6147 4519 4520 49.4424422565 60 132
6148 4520 4521 57.378526768 60 132
6149 4521 4522 60.6679528402 60 132
6150 146 4380 10.4556626665 60 132
6151 4522 4523 69.9273416145 60 132
6152 4523 4524 48.8570762364 60 132
6153 4524 4525 4.74968296792 60 132
6154 4526 4527 27.4871898577 60 132
6155 4344 4345 18.0671423304 32 135
6156 4527 4528 54.568810572 60 132
6157 4378 4379 17.7803642606 32 135
6158 4529 4530 68.7459524951 60 132
6159 4530 4531 81.586010797 60 132
6160 4377 4378 8.76501138259 32 135
6161 4531 4532 25.4456296405 60 132
6162 4532 4533 30.2436368924 60 132
6163 249 4534 11.9999880668 60 132
6164 4376 4377 9.34221089716 32 135
6165 4375 4376 38.4766067656 32 135
6166 4374 4375 33.4818297899 32 135
6167 4373 4374 14.8770274093 32 135
6168 4372 4373 6.58511148722 32 135
6169 4365 4369 1.63100362344 110 132
6170 4528 4529 53.0342654448 60 132
6171 4343 4344 15.8305282605 32 135
6172 4342 4343 15.4031199766 32 135
6173 4341 4342 20.7242887937 32 135
6174 4314 4315 17.7696384525 60 132
6175 4312 4313 4.88715586494 32 135
6176 4311 4312 20.2399963685 32 135
6177 4310 4311 18.972290215 32 135
6178 4309 4310 19.568764345 32 135
6179 4308 4309 20.9923828093 32 135
6180 4307 4308 16.8520092569 32 135
6181 2923 4307 9.45149072886 32 135
6182 4304 4305 3.59756749049 110 132
6183 4303 4304 2.24823419613 110 132
6184 4298 4299 6.11980010841 110 132
6185 4297 4298 60.4878732897 110 132
6186 4296 237 8.06361548462 60 132
6187 4315 4316 16.1306036319 60 132
6188 4295 4296 32.2897851457 60 132
6189 4292 4286 65.9610226411 32 135
6190 4292 3996 23.636568819 110 132
6191 4293 4286 25.0454383517 60 132
6192 1512 4544 15.7159867866 60 132
6193 4544 4545 16.499086224 60 132
6194 4545 4546 10.1236386206 60 132
6195 4546 4547 12.165405591 60 132
6196 139 4403 21.827784023 60 132
6197 4291 4292 33.7297070727 110 132
6198 4290 4291 10.9710566423 110 132
6199 4289 4290 7.04856421484 110 132
6200 4290 4287 65.2569030699 32 135
6201 4285 4289 7.61727772881 110 132
6202 4294 4295 7.81384391281 60 132
6203 4513 4514 52.8609292502 60 132
6204 4317 4318 26.3117393002 60 132
6205 4319 4320 14.0539163228 60 132
6206 4340 4341 20.6857858919 32 135
6207 4339 4340 14.9724136333 32 135
6208 2925 4339 20.1202569068 32 135
6209 4337 4338 16.2642054221 32 135
6210 4336 4337 19.95224243 32 135
6211 4335 4336 18.4146273384 32 135
6212 4334 4335 19.5141952691 32 135
6213 4333 4334 21.6727957121 32 135
6214 4332 4333 19.562985176 32 135
6215 4331 4332 20.8542890074 32 135
6216 4330 4331 21.9599628876 32 135
6217 2927 4330 19.0217606966 32 135
6218 4329 4319 18.737842992 60 132
6219 4318 4319 20.6514643067 60 132
6220 2927 4329 21.4269140334 60 132
6221 4538 4539 60.3107079501 60 132
6222 4539 4540 55.8878708244 60 132
6223 4540 4541 62.9600633042 60 132
6224 4541 4542 13.0706425705 60 132
6225 4327 4328 19.9872944892 60 132
6226 4542 4543 5.56805479962 60 132
6227 4326 4327 20.125789475 60 132
6228 4325 4326 20.0472364681 60 132
6229 4324 4325 17.1739916148 60 132
6230 4323 4324 21.8234014307 60 132
6231 4322 4323 19.2468795391 60 132
6232 4321 4322 20.2132480319 60 132
6233 4320 4321 20.6809623082 60 132
6234 4537 4538 52.0468951615 60 132
6235 4512 4513 70.9079436976 60 132
6236 4511 4512 62.7605669289 60 132
6237 4510 4511 58.9992958632 60 132
6238 4434 4435 31.5611107447 110 132
6239 4436 4433 3.21321833958 110 132
6240 4437 4438 13.2829495645 110 132
6241 4438 4436 28.8005843936 110 132
6242 4435 4439 50.9999655941 32 135
6243 4436 4440 55.5299862921 32 135
6244 4437 4441 55.7500599764 32 135
6245 1182 4442 35.6042522308 110 132
6246 4399 4400 21.1180176659 60 132
6247 4299 1182 2.21269593241 110 132
6248 4443 4444 11.1982486943 60 132
6249 4398 4399 11.2073782253 60 132
6250 4444 4445 22.8911681772 60 132
6251 4433 4434 6.17923894977 110 132
6252 4445 4446 19.586244092 60 132
6253 4448 4449 2.3089159748 110 132
6254 4449 4450 12.0745381864 110 132
6255 4450 4451 13.2952209226 110 132
6256 4451 4194 33.1412014268 110 132
6257 4274 4452 5.30458799466 110 132
6258 4452 4453 34.4352193522 110 132
6259 4453 4454 4.95351483327 110 132
6260 4455 4456 10.4054694309 60 132
6261 4456 4457 11.5939887464 60 132
6262 4457 4443 11.0318401595 60 132
6263 912 4458 10.4853179945 60 132
6264 4458 4459 9.30138646733 60 132
6265 4459 4455 14.1551662525 60 132
6266 4446 4447 15.2104369909 60 132
6267 922 4460 8.38253122277 60 132
6268 4431 4432 46.9999772682 32 135
6269 4429 4430 18.8375594278 110 132
6270 4403 4404 30.1805783376 60 132
6271 4404 4405 8.68767651839 60 132
6272 4405 4406 14.0950278613 60 132
6273 4406 4407 9.7597253166 60 132
6274 4407 4408 7.47749496096 60 132
6275 4408 4409 11.5343360556 60 132
6276 4409 4410 21.3395904456 60 132
6277 4401 4402 23.170593271 60 132
6278 4410 4411 26.8683275768 60 132
6279 4411 4412 35.1386558687 60 132
6280 4412 4413 18.6914414288 60 132
6281 4413 4414 5.63512901448 60 132
6282 4414 4415 25.7648157037 60 132
6283 4430 4431 10.2579171484 110 132
6284 4415 4416 26.293803917 60 132
6285 4417 4418 21.8944936936 60 132
6286 4418 4419 37.9347077013 60 132
6287 4419 4420 27.1295201567 60 132
6288 4400 4401 18.2483600016 60 132
6289 4420 4421 17.3030938921 60 132
6290 4421 4422 19.0277667346 60 132
6291 4422 4423 20.5372884132 60 132
6292 4423 4424 19.2436179688 60 132
6293 4424 4425 13.827153939 60 132
6294 4425 4426 23.0153779303 60 132
6295 4426 4427 20.4389971694 60 132
6296 4427 4428 12.1995349827 60 132
6297 4428 4365 9.50783778147 60 132
6298 4416 4417 16.5895413164 60 132
6299 4288 4275 29.6485866843 60 132
6300 4460 4461 1.33709696366 60 132
6301 4462 4463 25.8487275861 60 132
6302 4498 4499 25.7453606554 60 132
6303 4499 4500 47.1153860942 60 132
6304 4500 4294 22.1394713977 60 132
6305 2085 4501 87.9229273256 60 132
6306 4396 4397 11.4463822987 60 132
6307 4501 4502 70.6436913567 60 132
6308 4395 4396 19.6826338825 60 132
6309 4502 4503 83.8835025267 60 132
6310 4503 4504 59.5476536045 60 132
6311 4505 4506 0.000199999660254 60 132
6312 4394 4395 6.05346883899 60 132
6313 4393 4394 24.454064763 60 132
6314 4392 4393 14.115577751 60 132
6315 4497 4442 21.2756647029 60 132
6316 4391 4392 24.3553380904 60 132
6317 4389 4390 16.0702492338 60 132
6318 4388 4389 8.30276597419 60 132
6319 4387 4388 22.5251425841 60 132
6320 4386 4387 38.7630702117 60 132
6321 4385 4386 19.6478685779 60 132
6322 4384 4385 46.1732617148 60 132
6323 4383 4384 38.6574985546 60 132
6324 4382 4383 20.1654017612 60 132
6325 4381 4382 24.6309065627 60 132
6326 4506 4507 1.36074004888 60 132
6327 4507 4508 18.3264318408 60 132
6328 4508 4509 15.3175239605 60 132
6329 4509 4510 43.8043318776 60 132
6330 4390 4391 18.9211000954 60 132
6331 4397 4398 29.8015464962 60 132
6332 4496 4497 29.3244613479 60 132
6333 4494 4495 23.2335342243 60 132
6334 4463 4464 30.9912764199 60 132
6335 4464 924 17.4781654128 60 132
6336 4473 4474 24.7422687045 110 132
6337 4474 4472 17.8396973655 110 132
6338 4475 4476 41.5779977328 110 132
6339 4477 4476 109.042752813 60 132
6340 4478 4477 10.299956432 110 132
6341 4478 912 108.842485154 60 132
6342 4479 4478 32.0001225794 110 132
6343 4479 4475 108.889403333 60 132
6344 4480 4479 9.1999746976 110 132
6345 4480 4481 21.0798310094 60 132
6346 4481 4482 43.7922273908 60 132
6347 4495 4496 33.9107284055 60 132
6348 4482 909 44.3402510426 60 132
6349 4483 4484 30.0709081797 60 132
6350 4484 4485 37.8229724712 60 132
6351 4485 4429 40.2424296873 60 132
6352 4486 4487 14.365202928 60 132
6353 4487 4488 28.2490533737 60 132
6354 4488 4433 64.4385383274 60 132
6355 4489 4490 23.3728733333 110 132
6356 4490 4486 21.1272096991 110 132
6357 4489 4491 19.5071486697 60 132
6358 4491 4492 21.154148305 60 132
6359 4492 4493 37.0399733423 60 132
6360 4493 4437 29.6711481275 60 132
6361 4494 4489 41.5298456145 110 132
6362 4483 4480 29.9693539811 110 132
6363 4287 4288 1.05719366226 60 132
6364 4270 4293 19.1035993251 60 132
6365 4402 4368 6.98387311515 60 132
6366 4251 4252 17.4495692 110 132
6367 4250 4251 32.1594239915 110 132
6368 4249 4250 31.4274941642 110 132
6369 1170 4249 7.47803767443 110 132
6370 4246 1426 25.5484138474 60 132
6371 4245 4246 56.9697575523 60 132
6372 4244 4245 56.3693887875 60 132
6373 4243 4244 51.107483996 60 132
6374 4242 4243 52.2700762823 60 132
6375 4241 4242 50.6676176796 60 132
6376 4240 4241 34.7339028776 60 132
6377 4277 4278 7.47561935144 110 132
6378 1509 4240 6.69333056983 60 132
6379 4278 4279 0.675787311258 110 132
6380 4279 4280 6.12489912575 110 132
6381 4239 1513 45.5501104247 60 132
6382 4238 4239 37.2164519543 60 132
6383 4252 4253 46.3614169581 110 132
6384 4253 4254 58.8022603056 110 132
6385 4255 4256 43.751106972 110 132
6386 4256 1427 28.4672454494 110 132
6387 4269 4265 35.4896597132 110 132
6388 4268 4258 15.4218194123 32 135
6389 4267 4268 29.9144110319 32 135
6390 4266 4267 15.8827510514 32 135
6391 4263 4266 6.00564299768 32 135
6392 4265 4263 48.5883717021 110 132
6393 4263 4264 0.721945295628 110 132
6394 4262 4258 29.456831524 60 132
6395 4237 4238 45.7859986793 60 132
6396 4260 4270 44.5000886577 60 132
6397 4271 4272 19.7472942577 110 132
6398 4273 4274 37.8901479017 60 132
6399 4275 4276 15.9446327414 60 132
6400 4276 4273 14.547128407 60 132
6401 4261 4262 3.89263438424 60 132
6402 4259 4260 15.5478964898 60 132
6403 4258 4259 34.3192357864 60 132
6404 1170 4257 49.8765762841 60 132
6405 4260 4265 66.9663647521 32 135
6406 4236 4237 59.0137498429 60 132
6407 4254 4255 61.9249299251 110 132
6408 4234 4235 33.5767134556 60 132
6409 4286 4287 47.1847894017 60 132
6410 4284 4285 11.9708011446 110 132
6411 4283 4276 22.4622922431 32 135
6412 4282 4283 21.6356869311 32 135
6413 4219 4220 26.0331078808 60 132
6414 4235 4236 23.0061135977 60 132
6415 4222 4223 19.2534870471 60 132
6416 4223 4224 48.6295095442 60 132
6417 4224 4225 41.2316236464 60 132
6418 4225 4226 59.8307819599 60 132
6419 4281 4282 23.439822375 32 135
6420 4280 4281 2.54734318226 110 132
6421 4226 4227 59.0188432529 60 132
6422 4227 4228 58.3596709035 60 132
6423 4228 4229 36.7203357973 60 132
6424 4221 4222 10.7300522946 60 132
6425 4231 4232 28.132327807 60 132
6426 4230 4231 13.6372457429 60 132
6427 4232 4233 31.7317106174 60 132
6428 4233 4234 15.517792771 60 132
6429 6225 2960 18.8726691809 60 132
6430 8187 8188 3.95385059161 110 132
6431 1609 8187 3.95385059161 110 132
6432 1562 1563 93.0552270299 150 135
6433 1545 1564 3.03150364391 100 132
6434 8185 8186 7.55851444977 500 86
6435 7363 1946 12.0032099878 75 70
6436 1314 7363 25.8931338489 75 70
6437 7411 8185 7.57156990904 500 86
6438 1355 1356 187.775979342 85 132
6439 8188 8189 3.45579289008 110 132
6440 1338 1339 0.373232930377 110 132
6441 1357 1358 42.0300000003 60 132
6442 5548 5544 0.924807006267 85 132
6443 1736 3014 10.5952151943 150 72
6444 3262 3058 4.58904652359 110 132
6445 1947 7136 10.0698918415 150 72
6446 8177 8178 0.344571109884 110 132
6447 1354 65 10.0699999994 75 132
6448 8189 8190 3.45579289008 110 132
6449 8190 8191 2.37521520081 110 132
6450 8191 8192 2.37521520047 110 132
6451 8207 8208 4.54126615049 200 74
6452 703 8207 4.54126615049 200 74
6453 8443 9315 3.52842490821 500 86
6454 8167 2944 4.29998947599 200 74
6455 8204 8205 3.76107032632 75 70
6456 8203 8204 3.76107032632 75 70
6457 8202 8203 4.05024110421 75 70
6458 3248 546 5.16204397482 200 74
6459 8201 3249 60.2466791121 400 83
6460 546 8201 2.93959352658 400 83
6461 5345 8177 0.344571110796 110 132
6462 8199 8200 6.8111243196 85 132
6463 8197 8199 6.8111243196 85 132
6464 8197 8198 5.86629763927 85 132
6465 8196 8194 0.446054929089 110 132
6466 8985 7185 2.27376010139 150 72
6467 8195 3101 6.49850769383 110 132
6468 2649 2203 13.2125268575 110 132
6469 6766 8195 6.49850769383 110 132
6470 8193 8194 3.41365061223 110 132
6471 8192 8193 3.41365061214 110 132
6472 7468 1729 8.42293894203 150 72
6473 8176 3214 6.91580626156 300 78
6474 8175 6107 6.51172390771 110 132
6475 686 2963 17.7330936106 75 70
6476 7248 1787 2.69602837026 110 132
6477 6113 7061 3.19982207739 85 132
6478 1573 1574 8.12636113162 50 70
6479 8208 5233 21.8661026476 200 74
6480 2232 2213 4.73430179109 200 74
6481 1349 1350 44.0614492496 60 132
6482 1210 1351 5.1351728311 85 132
6483 3217 2027 11.4509884291 400 83
6484 1570 1571 7.10994397297 75 70
6485 6068 7263 4.38030904099 85 132
6486 2551 2122 1.45627647382 32 135
6487 682 2952 135.701914976 85 132
6488 7266 1577 3.25652857579 110 132
6489 2989 7266 5.07567760304 110 132
6490 2644 7251 67.00948528 100 70
6491 5270 7059 2.83399792765 110 132
6492 6215 8118 18.64919194 110 132
6493 2804 7296 150.062084989 85 132
6494 7297 7298 1.71515422032 110 132
6495 7150 2966 10.6880526289 75 70
6496 8118 6161 8.39181464231 110 132
6497 2649 7262 2.79437422404 110 132
6498 6156 8119 0.725889799177 60 132
6499 8165 8166 0.470205273922 150 72
6500 8174 8175 6.51172390772 110 132
6501 2652 8174 2.48243047259 110 132
6502 1577 1578 1.000002205 110 132
6503 7298 2652 0.779515265958 110 132
6504 1735 8165 1.83251766775 150 72
6505 1346 1347 100.156640179 110 132
6506 9055 6274 2.23600288 85 132
6507 672 1348 116.78184605 110 132
6508 8169 3237 3.41140770053 110 132
6509 1604 8169 3.41140770053 110 132
6510 1786 3237 19.4808803957 200 74
6511 8141 8142 5.52424302489 200 74
6512 8140 8141 1.00907977834 200 74
6513 3221 8140 12.0565262534 200 74
6514 1794 2988 8.06393293217 110 132
6515 8168 1754 2.13744151977 200 74
6516 2999 8168 2.13744151977 200 74
6517 1762 5251 7.25568839305 110 132
6518 5253 8167 2.18501313479 200 74
6519 369 2007 5.0119087186 150 72
6520 8166 2991 4.93443679645 150 72
6521 3217 8176 6.91580626156 300 78
6522 344 2994 3.65296838194 200 74
6523 1761 7535 19.8252219153 200 74
6524 8209 351 4.91534711396 75 70
6525 1311 1312 40.0352494687 85 132
6526 1266 1264 104.121822006 85 132
6527 5553 8233 1.63742267019 150 72
6528 8233 5549 14.2787096187 150 72
6529 2622 2612 18.566789629 150 72
6530 1264 1310 42.790004674 110 132
6531 465 1313 9.47337417889 110 132
6532 1308 1309 39.493707093 85 132
6533 1306 1301 43.0779787392 85 132
6534 574 1540 9.90599737579 500 86
6535 1306 1305 90.7570100919 85 132
6536 1305 1304 55.6730725309 60 132
6537 1304 1303 42.1471383606 60 132
6538 1303 1302 60.3602725305 60 132
6539 1307 1306 26.2268222676 85 132
6540 1302 1300 26.9899129309 60 132
6541 6080 2947 20.2415380214 85 132
6542 8231 2684 0.0415463598765 150 72
6543 67 68 0.469601799818 75 132
6544 68 69 20.8508762791 75 132
6545 1314 1312 87.6522631084 85 132
6546 1313 1311 48.1979732185 110 132
6547 7157 1573 13.4191423184 100 70
6548 9044 1329 13.3185135634 85 132
6549 2685 2687 14.5143006026 150 72
6550 2816 9035 3.62758666298 150 72
6551 473 8228 6.89235882517 85 132
6552 8228 5502 21.2271668165 85 132
6553 399 5575 14.5649730853 110 132
6554 5572 8229 0.0111220501348 110 132
6555 8229 492 4.14158423796 110 132
6556 8230 8231 8.70467104432 150 72
6557 9035 8230 0.917554429494 150 72
6558 66 67 3.48980001253 75 132
6559 1300 1301 58.3877773339 60 132
6560 7520 7528 259.095794423 200 74
6561 7590 7591 3.96095571445 200 74
6562 7534 7590 12.9414411869 200 74
6563 7543 5227 31.0340120835 200 74
6564 7542 7543 21.4821268272 200 74
6565 7541 7542 17.2363850618 200 74
6566 7540 7541 13.5920166638 200 74
6567 7591 7532 7.21900756167 200 74
6568 7539 7540 13.5920166645 200 74
6569 7537 7538 20.9331247781 200 74
6570 370 1299 117.059790278 85 132
6571 7531 7532 725.341237167 200 74
6572 7533 7534 1.89973682327 200 74
6573 7536 7537 24.8008807107 200 74
6574 7535 7536 18.8639189988 200 74
6575 7538 7539 24.2486920269 200 74
6576 1269 1425 45.7962523018 85 132
6577 1820 1821 2.95068666013 150 72
6578 1268 2513 0.598414571806 85 132
6579 6258 5510 4.03124050364 110 132
6580 7528 1903 510.142240309 200 74
6581 7610 3059 44.9674159813 85 132
6582 3104 7610 0.550090901389 85 132
6583 1802 3086 4.92686237753 150 72
6584 3054 3006 1.04004807586 85 70
6585 3182 3160 1.36000211798 110 132
6586 2145 6106 4.66490018135 110 132
6587 2638 7609 30.1037676387 85 132
6588 1903 7529 189.14040037 200 74
6589 7529 7530 1.91727986744 200 74
6590 7530 7531 2.01230544377 200 74
6591 2574 2641 4.53040298386 200 74
6592 679 1907 1.26975495212 150 72
6593 7609 6035 0.510881590715 85 132
6594 3138 8209 4.91534711384 75 70
6595 65 66 14.429600035 75 132
6596 6782 9233 95.6999714422 110 132
6597 7466 7060 1.75840069418 150 72
6598 7060 7467 3.85669434215 150 72
6599 1545 1542 6.96391011135 150 135
6600 1544 1545 7.24082099425 150 135
6601 1542 1543 0.500089041851 150 135
6602 1540 1541 15.5748135458 150 135
6603 7465 7466 0.472025899852 150 72
6604 7467 7468 6.74546384656 150 72
6605 7469 7470 0.176245538881 110 132
6606 7512 7513 2.6678894595 200 74
6607 7514 7515 0.764238293439 150 72
6608 7515 1620 5.30152912018 150 72
6609 7516 3170 41.496521517 150 72
6610 3194 7516 82.520545321 150 72
6611 1909 7469 4.37009364781 110 132
6612 7518 5256 11.0384460595 200 74
6613 7464 7465 0.239980019993 150 72
6614 2586 7464 0.418366167475 150 72
6615 5596 3261 7.68182562921 85 132
6616 3282 8210 0.579655932315 200 74
6617 3276 6240 9.35101203006 85 132
6618 6242 3273 11.5800630394 85 132
6619 3069 1757 6.90688587526 110 132
6620 7518 7533 171.679709503 200 74
6621 7618 466 0.148732814249 50 70
6622 8211 3048 15.8557969842 110 132
6623 3124 3122 4.66019254469 75 132
6624 8212 3291 16.3532804043 200 74
6625 8212 3117 13.7368136035 85 132
6626 2037 8213 0.00500000081956 200 74
6627 1540 7410 12.8471485551 500 86
6628 7410 7411 6.03095382129 500 86
6629 3125 2234 2.19343490684 200 74
6630 8395 9044 5.51556606359 85 132
6631 8213 8212 8.22564927526 200 74
6632 7519 7521 1.25255738424 200 74
6633 8219 2303 18.6664915022 100 70
6634 1327 1328 2.08191565904 85 132
6635 1326 1327 0.806960625177 85 132
6636 9118 8367 5.47592550025 200 74
6637 3230 9119 14.635217888 200 74
6638 7527 9120 11.6159970319 200 74
6639 8218 8219 12.6842757617 100 70
6640 9120 9119 4.8647058784 200 74
6641 8370 9150 1.39369823469 200 74
6642 9234 9235 0.999995665224 110 137
6643 6782 9234 1.00002460458 110 137
6644 1114 1115 37.8816692861 60 132
6645 9233 6055 11.0222743938 110 132
6646 1298 234 112.102438925 60 132
6647 9119 2231 1.32612450779 200 74
6648 7519 7520 1.25255738361 110 132
6649 6124 1689 1.55623091225 85 132
6650 1254 1331 46.5402074349 110 132
6651 7521 7522 20.3141379338 200 74
6652 7522 3218 185.37647681 200 74
6653 1666 7523 134.421284654 150 72
6654 6173 7524 42.9731598213 85 132
6655 680 7525 3.3777533951 200 74
6656 7525 7526 8.94646237339 200 74
6657 1329 1330 82.372863426 85 132
6658 7526 7527 10.9084171555 200 74
6659 3112 2031 5.39093072205 200 74
6660 3090 2034 2.46109999996 150 72
6661 8205 2033 2.94395502883 75 70
6662 1803 8202 5.69433753843 75 70
6663 8102 8214 3.5830068384 200 74
6664 8214 2242 3.58300683747 200 74
6665 2244 3112 36.8913110939 200 74
6666 1758 8211 0.837707377381 110 132
6667 1689 1690 5.20813232204 85 132
6668 8931 9055 1.19613907181 85 132
6669 466 467 0.520753300998 50 70
6670 3200 2739 0.49384839789 250 76
6671 464 465 4.19730450268 75 70
6672 462 463 4.27869664496 80 70
6673 461 462 9.18699829585 80 70
6674 460 461 4.80813172848 80 70
6675 1656 1667 1.75425081988 150 72
6676 459 460 4.8902459455 80 70
6677 458 459 2.48492022034 80 70
6678 505 465 16.858846257 100 70
6679 467 468 0.542005534904 50 70
6680 452 1666 2.62775569797 75 70
6681 1661 1665 3.11448230018 75 70
6682 1664 1663 25.927709116 75 70
6683 1663 1255 78.6517181377 75 70
6684 1663 1257 44.9996188873 75 70
6685 391 502 62.2926247966 75 70
6686 1661 1662 135.286244592 75 70
6687 1660 452 140.764896811 75 70
6688 1331 452 42.5212231245 150 72
6689 1658 1659 52.3614136933 75 70
6690 1654 1657 42.1448383551 150 72
6691 1664 1665 45.5189630822 110 70
6692 1656 1652 76.3005483858 150 72
6693 468 469 5.61138530124 50 70
6694 470 471 4.10661688408 50 70
6695 488 489 2.60930019128 400 83
6696 487 488 5.07950039373 400 83
6697 486 487 0.326564695403 400 83
6698 1684 1685 20.0911846591 110 132
6699 485 486 0.326564694472 400 83
6700 1683 1684 18.4406910117 110 132
6701 483 484 6.38540416301 200 74
6702 482 483 19.0830398523 200 74
6703 481 482 22.4331112864 200 74
6704 480 481 20.06461435 200 74
6705 469 470 3.64954926706 50 70
6706 479 480 19.9976040566 200 74
6707 8375 8376 13.5682051193 200 74
6708 478 479 16.1264019543 200 74
6709 477 478 8.28141612249 200 74
6710 8376 8377 2.57023855948 200 74
6711 1682 1683 19.4581907781 110 132
6712 472 473 3.53982225133 50 70
6713 1681 1682 0.334859030154 110 132
6714 704 344 6.55435435466 200 74
6715 7297 3216 4.25410636905 400 83
6716 471 472 0.505370329749 50 70
6717 613 8375 4.86347971678 200 74
6718 492 356 2.35337247344 150 72
6719 1654 1655 10.1436334716 150 72
6720 1651 1649 46.8969256772 75 70
6721 1632 1630 44.2181161967 75 70
6722 8930 691 0.852685170065 85 132
6723 691 8931 44.7963147815 60 132
6724 1630 1631 41.4306468691 75 70
6725 699 1629 22.7900548486 150 72
6726 1627 1628 69.4571653319 75 70
6727 450 1626 52.00132681 150 72
6728 8935 8936 19.3937451001 75 70
6729 8936 3147 1.04888178499 75 70
6730 3166 8935 1.80561372707 75 70
6731 1298 5258 29.1115067452 150 72
6732 5534 3189 4.04242703617 60 132
6733 788 399 10.3556912374 150 72
6734 8360 8363 3.77970147694 200 74
6735 8361 8362 25.9873959722 250 76
6736 2774 8361 19.9200401605 250 76
6737 451 1620 71.3182018911 150 72
6738 1562 1619 5.30810034824 100 70
6739 8360 7519 2.69412754863 85 132
6740 1616 1614 7.52000651617 150 72
6741 1614 1615 4.16114663298 200 74
6742 1211 1209 39.5390180413 85 70
6743 1626 1621 4.69069966325 150 72
6744 1652 1653 40.1541458635 110 70
6745 1298 5249 6.63620561764 150 72
6746 1633 1634 40.0136339265 60 70
6747 1649 1650 19.4800924027 75 70
6748 1648 1646 101.550636187 150 72
6749 1646 1647 16.2200123302 150 72
6750 787 788 3.99207076575 150 72
6751 538 3231 0.467321088562 110 132
6752 1642 1643 92.6485529905 150 72
6753 1542 1642 64.8576169903 150 72
6754 1641 1311 69.6248537373 100 70
6755 1640 1629 15.46 100 70
6756 1640 1638 7.1646353715 150 72
6757 8929 306 9.99998301268e-05 60 132
6758 457 458 2.48492022005 80 70
6759 454 455 19.1873825988 75 70
6760 453 454 13.3716574582 75 70
6761 452 453 134.491778588 75 70
6762 450 451 5.9962821818 150 72
6763 1638 1639 4.1269148587 150 72
6764 1638 1637 38.1606800513 150 72
6765 1637 1634 94.0849685126 150 72
6766 1629 1635 15.5049185744 100 70
6767 1635 1636 32.300385447 100 70
6768 393 1632 39.3902145211 75 70
6769 456 457 2.48492022005 80 70
6770 499 500 1.38896508954 150 72
6771 500 501 0.751175093137 150 72
6772 502 503 8.99467812902 75 70
6773 671 672 14.2778786296 150 72
6774 669 670 2.98477155734 150 72
6775 667 668 86.689822028 150 72
6776 644 645 2.67135850214 200 74
6777 643 644 2.67135850301 200 74
6778 642 643 5.91653414199 200 74
6779 641 642 5.91653414147 200 74
6780 640 641 16.5176330028 200 74
6781 615 616 20.0562401512 400 83
6782 614 615 28.8188464661 400 83
6783 676 677 2.24856532472 150 72
6784 1740 1562 189.040550782 150 135
6785 1743 1744 0.757693868907 85 132
6786 1745 1746 0.559016994125 85 132
6787 1747 1748 0.917977129339 110 132
6788 1749 1750 21.8329839031 110 132
6789 1750 1751 9.50662929262 110 132
6790 1751 1752 9.50233976519 110 132
6791 1752 1753 1.71093537041 110 132
6792 1754 1641 34.7652701604 110 132
6793 1755 1756 0.177070607524 110 132
6794 613 614 17.5960008355 400 83
6795 1741 1742 20.9999523822 110 132
6796 573 574 4.33643646905 500 86
6797 677 678 2.60101085695 150 72
6798 680 681 2.4311439693 200 74
6799 1691 1692 7.99052564007 60 132
6800 1692 1693 4.29254186651 60 132
6801 1694 1695 2.75287908386 110 132
6802 703 704 1.46882538072 200 74
6803 700 702 13.1823708041 150 72
6804 1722 1723 4.61519298073 110 132
6805 1724 1189 7.86693808365 110 132
6806 1725 1726 6.02891597662 75 132
6807 1729 1730 3.48797064838 150 72
6808 1731 1732 11.9851511835 100 70
6809 678 679 4.51759908429 150 72
6810 1733 1734 4.14958865068 50 70
6811 1737 1738 30.9315074764 100 70
6812 700 701 8.11074595769 150 72
6813 698 699 89.9901089344 150 72
6814 694 695 96.576031146 100 70
6815 689 690 28.4507912898 150 72
6816 688 689 0.0042190049603 150 72
6817 359 687 37.8501601325 150 72
6818 685 686 25.2611936935 75 70
6819 683 684 38.8171137231 150 72
6820 681 682 1.48623820503 200 74
6821 1735 1736 7.74401091161 150 72
6822 572 573 4.33643646905 500 86
6823 571 572 28.700028502 500 86
6824 570 571 8.69503906174 500 86
6825 544 545 4.83465707064 200 74
6826 543 544 19.2804325684 200 74
6827 542 543 18.067178778 200 74
6828 541 542 20.4669886645 200 74
6829 540 541 20.8895927438 200 74
6830 539 540 20.1931379435 200 74
6831 538 539 28.2762020789 200 74
6832 38 537 191.059732325 200 74
6833 8125 8364 1.42572998811 100 70
6834 8364 8365 1.30045415122 100 70
6835 546 547 0.808210251116 500 86
6836 8142 8125 0.884382270955 100 70
6837 8366 7297 11.0006922055 250 76
6838 8367 8368 5.09903565678 200 74
6839 8368 8369 8.74933730227 200 74
6840 8369 8370 6.67831813314 200 74
6841 3186 6779 4.90448868764 200 74
6842 38 8371 2.64245903831 200 74
6843 1686 1687 6.86216207985 60 132
6844 506 507 8.96263839786 100 70
6845 505 506 10.9468721557 100 70
6846 503 504 16.824003265 75 70
6847 8362 8366 15.2773700946 250 76
6848 547 548 6.61941097101 500 86
6849 548 549 22.1398791779 500 86
6850 549 550 18.4933123048 500 86
6851 569 570 18.8385858359 500 86
6852 568 569 20.6758239494 500 86
6853 567 568 25.5142843324 500 86
6854 566 567 24.7129475579 500 86
6855 565 566 20.8728650641 500 86
6856 564 565 21.2941017659 500 86
6857 563 564 21.1441253542 500 86
6858 562 563 17.1731013216 500 86
6859 561 562 37.3588921814 500 86
6860 560 561 24.0617612405 500 86
6861 559 560 16.3357333779 500 86
6862 558 559 30.484807134 500 86
6863 557 558 21.5766691126 500 86
6864 556 557 30.9472249162 500 86
6865 1757 1758 6.0691784993 110 132
6866 1759 1760 3.99391688046 110 132
6867 1761 1762 12.8135447472 110 132
6868 555 556 18.503650072 500 86
6869 554 555 24.0458281204 500 86
6870 553 554 19.5144674543 500 86
6871 552 553 22.7248743008 500 86
6872 551 552 19.4125065358 500 86
6873 550 551 26.4149183796 500 86
6874 358 1207 27.0178629256 150 72
6875 1805 7618 0.152225654435 50 70
6876 7534 8359 4.77491751635 75 70
6877 1608 1609 32.5385031693 110 132
6878 1617 1737 8.30112009045 100 70
6879 1806 1807 8.50936966516 150 72
6880 1807 1808 1.45457727585 150 72
6881 1809 1205 2.97461005504 150 72
6882 343 1810 6.35420670826 150 72
6883 1810 676 3.4745894553 150 72
6884 695 685 4.11979999952 100 70
6885 8990 8991 1.25890309365 63 135
6886 969 8992 3.02543567205 200 74
6887 8992 8993 5.64526903445 200 74
6888 1573 1805 3.01750774611 100 70
6889 8993 8994 8.84008887326 200 74
6890 8996 8997 4.05301320149 150 72
6891 8997 8998 25.5566970671 150 72
6892 8998 8999 50.2566524353 150 72
6893 9000 477 0.972164594767 200 74
6894 477 8995 1.41301981569 200 74
6895 8996 547 18.1790031815 150 72
6896 8375 9001 1.40460000001 200 74
6897 9001 9002 19.5741953598 200 74
6898 9002 9003 4.79444866488 63 135
6899 9004 9005 11.4485000326 150 72
6900 8995 8994 2.58989362746 200 74
6901 9006 9003 3.00056961241 250 76
6902 1804 1797 42.8071956572 85 70
6903 8988 8989 41.0512335622 60 132
6904 8387 7523 0.804930811074 150 72
6905 2807 8383 31.4318834944 200 74
6906 5256 8385 6.52254565197 200 74
6907 1216 1217 4.0 110 132
6908 5255 2806 2.05549264182 200 74
6909 3287 8388 3.1667848439 200 74
6910 8388 6766 3.16678484482 200 74
6911 2234 3288 12.2204990284 200 74
6912 8389 3224 7.96977697303 200 74
6913 3224 8390 3.70089948526 200 74
6914 1802 1803 28.6625859042 75 70
6915 1215 1216 10.1917690447 110 132
6916 7296 8393 2.70641147052 85 132
6917 8393 8394 17.9843848415 85 132
6918 8394 8395 2.05189988518 85 132
6919 3225 8389 7.34121213783 200 74
6920 1211 1212 229.140949867 85 132
6921 1209 1210 93.6015531157 85 132
6922 3166 8985 2.88474160585 63 135
6923 8986 3166 8.31857401958 63 135
6924 8987 1944 6.38322915474 110 132
6925 2202 8988 2.2494234818 110 132
6926 1213 1214 39.430492967 85 132
6927 453 8387 1.98484754323 150 72
6928 9003 9007 9.92592615331 250 76
6929 9005 9008 1.78388901067 63 135
6930 3207 2935 3.97989708087 110 132
6931 8186 8442 61.5140791947 500 86
6932 8442 8443 2.09127254298 500 86
6933 484 8444 9.23034330549 200 74
6934 8444 703 24.2635460312 200 74
6935 1260 1258 32.0100140579 85 132
6936 1261 1260 46.8235923443 85 132
6937 1262 1263 36.9501637346 110 132
6938 1264 1265 52.7179563716 110 132
6939 1266 1267 56.7117853713 110 132
6940 1258 1259 68.2406748503 85 132
6941 1268 1269 80.3868367393 60 132
6942 5262 645 7.959299593 200 74
6943 7622 2250 24.2939849503 500 86
6944 1687 1688 82.9240085106 60 132
6945 9051 9052 1.51097584359 110 135
6946 5595 2567 0.894276244111 63 135
6947 9012 9053 1.91310790614 32 135
6948 8989 9054 6.75474773781 63 135
6949 9054 8990 2.95642385356 63 135
6950 3299 8996 6.7950278197 150 72
6951 8999 9000 7.64062955515 63 135
6952 6030 6032 4.03562758407 85 132
6953 9008 9006 2.44384717178 150 72
6954 1257 390 62.5574617135 75 132
6955 1253 1254 71.1973061818 110 132
6956 1207 1208 111.652206437 85 132
6957 1205 1206 11.3074822568 85 132
6958 1204 1196 41.1326792225 85 132
6959 1204 1203 7.10623669812 110 132
6960 1203 1202 36.8207742988 110 132
6961 1202 1199 67.3092895964 110 132
6962 1200 1201 41.9266180373 85 132
6963 1199 1198 43.5519690257 110 132
6964 9009 9010 29.190052586 32 135
6965 9010 9011 11.3291444514 32 135
6966 1255 1256 43.4030997052 75 132
6967 9011 9012 22.0140211687 32 135
6968 1197 1195 28.4043895906 85 132
6969 1195 1196 49.4656335248 85 132
6970 1193 1194 6.90339611731 110 132
6971 1191 1192 3.09878672535 110 132
6972 1189 1190 16.594245593 110 132
6973 968 969 4.01587014231 200 74
6974 6226 6223 2.12477006992 60 132
6975 233 234 0.326522433952 150 135
6976 1250 1251 41.5290356251 110 132
6977 1250 1252 41.4730141177 85 132
6978 1198 1197 63.0892225339 85 132
6979 8386 453 1.97700543478 150 72
6980 8384 8386 196.401213316 150 72
6981 7516 2785 38.672632442 200 74
6982 1222 1223 44.9900100024 110 132
6983 1581 1582 0.866655461999 110 132
6984 1580 1581 0.859094249818 110 132
6985 1579 1580 0.857794340792 110 132
6986 1224 1225 40.4298528323 85 132
6987 1226 1227 39.404929894 60 132
6988 400 401 16.7580005569 150 72
6989 399 400 20.7832911735 150 72
6990 1228 1229 25.9533038363 85 132
6991 875 876 5.07045358526 85 132
6992 1220 1221 91.2500087671 60 132
6993 877 878 4.76609128122 110 132
6994 390 391 27.6325985022 75 70
6995 389 387 44.0912599044 85 70
6996 387 388 41.700340527 85 70
6997 385 386 40.3719880365 75 70
6998 383 384 72.5248369599 85 70
6999 381 382 25.5576415967 75 70
7000 380 381 3.28896640345 75 70
7001 378 379 23.0608672869 75 70
7002 369 370 42.0204652792 150 72
7003 367 368 6.0428221879 75 70
7004 392 393 43.3350252097 75 70
7005 361 362 5.11738112402 150 72
7006 1582 1583 0.520761029621 110 132
7007 1584 1585 0.520728489688 110 132
7008 1607 1608 31.0001216056 110 132
7009 1606 1607 31.0000218426 110 132
7010 1577 1605 16.2251895313 110 132
7011 1603 1604 4.11015924279 110 132
7012 1602 1603 2.52973263425 110 132
7013 1601 1602 1.88062028553 110 132
7014 1600 1601 1.89353671801 110 132
7015 1599 1600 1.88155166804 110 132
7016 1598 1599 1.05683529948 110 132
7017 1597 1598 1.05563130392 110 132
7018 1583 1584 0.521101112784 110 132
7019 1596 1597 1.05631908082 110 132
7020 1594 1595 0.601139825404 110 132
7021 1593 1594 0.601333858736 110 132
7022 1592 1593 0.510340846816 110 132
7023 1591 1592 0.509148348244 110 132
7024 1590 1591 0.514256375575 110 132
7025 1589 1590 1.17461876805 110 132
7026 1588 1589 1.16735518179 110 132
7027 1587 1588 1.16958517875 110 132
7028 1586 1587 0.212121662916 110 132
7029 1585 1586 0.212276894907 110 132
7030 1595 1596 0.601374633562 110 132
7031 359 360 46.1700097465 150 72
7032 357 358 20.5531218551 150 72
7033 356 357 4.28265198275 150 72
7034 2765 8381 33.8879636295 200 74
7035 311 310 31.0238505022 60 132
7036 309 310 45.4665459426 60 132
7037 307 308 39.4057226427 110 132
7038 1785 1786 114.334434081 200 74
7039 1787 1191 3.24973709187 110 132
7040 1788 1789 53.0579251859 150 72
7041 305 306 5.20424673617 110 132
7042 303 304 11.9253721117 110 132
7043 301 302 8.99694392544 110 132
7044 2771 8103 3.0432016817 200 74
7045 299 300 42.7313058546 60 132
7046 1795 1796 3.98085231298 110 132
7047 1797 354 36.7686482561 75 132
7048 1800 1801 45.4300011003 75 70
7049 298 299 35.3822384825 60 132
7050 888 234 21.6326668351 60 132
7051 8383 8384 4.11325904856 200 74
7052 8385 8383 7.41026067073 200 74
7053 2763 2765 205.612216885 200 74
7054 7524 2804 19.0103897121 200 74
7055 341 1794 10.4945891297 110 132
7056 7524 7514 80.6250735155 200 74
7057 8380 6771 0.571126081115 200 74
7058 8196 8380 0.956669744756 200 74
7059 354 355 10.6086497722 200 74
7060 352 353 5.96094370502 150 72
7061 350 351 15.4256287073 200 74
7062 349 350 23.6223904377 200 74
7063 348 349 26.9711523856 200 74
7064 347 348 22.8118900797 200 74
7065 346 347 21.1802338271 200 74
7066 345 346 22.3002297974 200 74
7067 344 345 7.96449351848 200 74
7068 342 343 6.5344089253 150 72
7069 340 341 3.76240375213 200 74
7070 339 340 9.39238462798 200 74
7071 338 339 0.945010714522 200 74
7072 337 338 0.70320774347 200 74
7073 336 337 0.241802977608 200 74
7074 335 336 12.0056741995 200 74
7075 1230 1231 5.89274978219 85 132
7076 3189 8984 48.0620046103 110 132
7077 8984 6778 48.9554382602 110 132
7078 300 888 23.0184903933 60 132
7079 8377 8378 2.5702385585 200 74
7080 8378 8379 1.54051939297 200 74
7081 8379 8196 0.294742259952 200 74
7082 1218 1219 31.6300015807 75 132
7083 2680 5540 4.4630775499 75 132
7084 2216 2217 26.1635851524 400 83
7085 3160 3139 2.99774069084 110 132
7086 3265 3266 21.3047278327 200 74
7087 3266 3267 22.1994109152 200 74
7088 3267 3268 23.9698572792 200 74
7089 3268 3269 26.058463597 200 74
7090 3269 3270 27.9173306211 200 74
7091 3270 3271 21.4031160812 200 74
7092 3271 3272 19.0804306296 200 74
7093 3272 335 30.0770063837 200 74
7094 3273 3274 20.2170645988 200 74
7095 3274 3275 22.5898850147 200 74
7096 3275 1758 7.26148519655 200 74
7097 3276 3277 14.026086874 200 74
7098 3277 3278 16.8575285559 200 74
7099 3278 3279 20.993231671 200 74
7100 3279 3273 29.9063209711 200 74
7101 355 3280 15.6059028899 200 74
7102 3280 3281 22.7476219639 200 74
7103 3281 3276 24.4190422823 200 74
7104 3259 3282 0.683143469761 200 74
7105 3261 3283 7.29584347504 200 74
7106 3283 3284 7.29584347413 200 74
7107 3284 3285 7.33632939519 200 74
7108 3285 355 7.33632939519 200 74
7109 3286 3287 118.616616404 200 74
7110 3288 3286 38.325398345 200 74
7111 3264 3265 24.6754796706 200 74
7112 3263 3264 20.7684532169 200 74
7113 3257 3262 5.53338232903 400 83
7114 3261 3259 5.89408559456 200 74
7115 3235 3236 4.12941254951 200 74
7116 3236 3237 0.409469168299 200 74
7117 3238 3239 22.1072638066 400 83
7118 3239 3240 18.6573622194 400 83
7119 3240 3241 32.9130119709 400 83
7120 3241 3242 25.878207241 400 83
7121 3242 3243 41.2662675799 400 83
7122 3243 3244 11.543236483 400 83
7123 3244 3245 11.5432364828 400 83
7124 3245 616 24.9762055165 400 83
7125 2222 3246 4.89540286844 200 74
7126 3246 3247 4.19406708736 200 74
7127 3123 3289 21.6591847723 200 74
7128 3247 3248 0.70133578277 200 74
7129 3250 3251 33.6329225019 400 83
7130 3251 3252 16.4113214884 400 83
7131 3252 3253 17.8166001526 400 83
7132 3253 1328 25.4643607618 400 83
7133 1328 3238 20.2452630013 400 83
7134 3072 3254 5.9733414944 200 74
7135 3254 3255 16.2701835576 200 74
7136 3255 3256 23.8291138949 200 74
7137 3256 351 24.0374811486 200 74
7138 3257 3258 3.6511073668 400 83
7139 3259 3260 7.3379234114 200 74
7140 3260 3072 1.36458191827 200 74
7141 3249 3250 21.5311291855 400 83
7142 3234 3235 4.12941254858 200 74
7143 3289 3290 20.3121515607 200 74
7144 3291 3123 43.3520648758 200 74
7145 2038 1740 5.40293324512 150 72
7146 5248 5249 224.573237669 60 132
7147 5248 5250 90.6012340356 60 132
7148 5253 5254 5.17222895848 200 74
7149 5254 5255 19.3041319154 200 74
7150 5256 5255 27.8143937558 200 74
7151 5227 5257 20.4747698398 200 74
7152 5257 5258 6.53611092353 200 74
7153 5258 5259 24.3200760688 200 74
7154 5259 5260 21.3899108227 200 74
7155 5260 5261 34.5916841156 200 74
7156 5261 5262 35.6844085003 200 74
7157 5263 5253 5.2632757256 200 74
7158 309 308 120.921632985 60 132
7159 304 309 30.8162976363 60 132
7160 2503 304 38.2907106162 110 132
7161 5223 305 35.2693094912 110 132
7162 5264 5223 8.29957227807 110 132
7163 307 5264 36.6159157059 110 132
7164 2495 307 59.6070402729 110 132
7165 2503 2495 85.8458134059 110 132
7166 5265 298 16.097333879 60 132
7167 5266 5265 23.6607140208 60 132
7168 302 5266 74.2994234301 60 132
7169 5267 302 78.7571795081 60 132
7170 2039 2040 11.2424610295 150 72
7171 5233 3073 179.132589916 85 132
7172 3085 5230 120.791707356 85 132
7173 5230 5232 40.1758634008 85 132
7174 3258 3206 46.9175539958 400 83
7175 3292 3293 35.934119496 400 83
7176 3293 3258 21.3041616831 400 83
7177 613 3294 23.5011602272 400 83
7178 3294 3295 20.262235834 400 83
7179 3295 3292 57.0300439069 400 83
7180 3296 3297 19.7677622664 200 74
7181 3297 3298 25.9313711548 200 74
7182 3298 1761 19.5191770577 200 74
7183 2008 3299 4.45730200147 200 74
7184 3299 3300 5.97120055717 200 74
7185 3192 2781 47.4404804776 200 74
7186 3290 2234 11.5853890263 200 74
7187 2959 3301 0.141396817251 100 70
7188 3302 3303 1.09510118158 100 70
7189 3303 2683 47.948998709 60 132
7190 2040 1945 10.2892035161 150 72
7191 5222 5223 224.97894885 85 132
7192 5224 5225 4.29930226968 110 132
7193 463 5226 6.7301866618 80 70
7194 5226 5227 6.7301866618 80 70
7195 353 5228 3.12130487114 150 72
7196 5228 2580 159.213444471 150 72
7197 5229 5230 43.0705628013 60 132
7198 5229 5231 43.1237301268 85 132
7199 3084 5229 112.299101385 85 132
7200 3301 3302 9.26537322574 100 70
7201 341 3234 22.7210056344 200 74
7202 2972 3233 38.4405117173 200 74
7203 3233 2778 44.5100909905 200 74
7204 3161 1544 43.8215995441 75 70
7205 3162 3163 42.5206686218 75 70
7206 3164 3165 16.3028145444 75 70
7207 3165 3166 19.7277914054 75 70
7208 1656 1657 33.2063849283 150 72
7209 3167 3168 3.11854157193 75 70
7210 3168 3169 52.1131521222 75 70
7211 3170 3171 4.0246365113 150 72
7212 3171 3172 2.13280792647 150 72
7213 1263 3142 47.0335763049 85 132
7214 3173 2773 46.4201776386 110 132
7215 3153 3174 44.8334878064 60 132
7216 3162 3151 68.6997733035 75 70
7217 1544 3167 38.5443816806 75 70
7218 3162 3161 59.3305267127 75 70
7219 3164 3163 45.1981366041 75 70
7220 1267 3175 64.6063704295 110 70
7221 3176 3141 1.68585289973 150 135
7222 3175 3176 35.3619357505 150 72
7223 1648 1265 49.529111642 110 132
7224 3177 3178 56.0106319196 110 132
7225 3179 3177 48.9568677513 110 132
7226 1653 3179 50.8304387739 110 132
7227 3180 3177 41.6928794875 85 132
7228 3158 3180 63.9712888261 85 132
7229 3160 1695 32.8500547941 110 132
7230 3158 3159 43.0000046978 110 132
7231 3157 1948 9.29019375474 110 132
7232 2773 3156 50.6601421239 100 70
7233 3114 3126 43.4212874062 60 132
7234 3131 700 42.9100000003 75 132
7235 3132 3133 42.7571728013 60 132
7236 3134 3135 42.8209461591 60 132
7237 388 3021 43.7338358704 85 132
7238 382 3023 15.3732815625 60 132
7239 3136 384 21.8956896672 60 132
7240 3137 3138 12.9682651075 75 70
7241 1649 1694 14.4088100568 75 70
7242 3139 3140 40.5012641778 75 70
7243 3141 1544 12.2170129169 150 135
7244 2974 3142 40.2507012361 85 132
7245 3159 3179 106.580657251 85 132
7246 1261 3143 65.6703578659 110 132
7247 3146 3144 21.6000700227 85 132
7248 3144 3143 40.3335429747 60 132
7249 3147 3148 10.8127066447 110 132
7250 3148 1605 194.427787804 110 132
7251 3149 3150 19.8707339251 60 132
7252 3151 3152 23.9207023307 85 132
7253 1259 2981 40.7102768597 60 132
7254 2782 3061 49.0901466699 110 132
7255 3153 3043 135.99014626 85 132
7256 3154 3013 69.2373905487 85 132
7257 3155 1902 9.72726584884 150 72
7258 1654 3155 2.86094370802 150 72
7259 3144 3145 29.3100835896 85 132
7260 3181 1653 107.896009917 85 132
7261 3158 3182 21.4600329394 110 132
7262 1657 3181 56.083317484 110 132
7263 3207 3208 96.6551731677 250 76
7264 3200 3209 17.8874727397 250 76
7265 3209 3210 20.6141214222 250 76
7266 3210 3211 23.4559285892 250 76
7267 3211 3212 21.1249892309 250 76
7268 3212 3213 17.7010068924 250 76
7269 3213 545 24.0896476733 250 76
7270 3214 3215 17.3212085611 300 78
7271 3215 3195 0.858329773347 300 78
7272 3216 3217 8.26910666243 400 83
7273 2737 2774 4.460649281 200 74
7274 3208 2737 139.5764436 250 76
7275 3207 342 1.98123698687 250 76
7276 3218 3219 21.9356745786 200 74
7277 3220 3221 20.6806908812 200 74
7278 680 3222 3.43659788211 200 74
7279 3222 3223 6.7784307915 200 74
7280 3223 3224 12.987649518 200 74
7281 3224 1685 6.29467028574 200 74
7282 2805 3225 8.30602558671 200 74
7283 538 3226 7.3232785006 200 74
7284 3226 3227 20.605468449 200 74
7285 3227 3228 18.2423762158 200 74
7286 3228 3229 30.0615908098 200 74
7287 3229 3230 19.0002497299 200 74
7288 3231 3232 0.784073975826 110 132
7289 3219 3220 11.4772963407 200 74
7290 2501 5267 54.3719927909 60 132
7291 679 2713 159.397254179 200 74
7292 3204 3205 20.6413845716 400 83
7293 1655 3183 167.399524748 110 132
7294 3147 3184 20.213153267 75 70
7295 3184 3185 14.5050391056 75 70
7296 3185 3186 4.77353581724 75 70
7297 3170 3187 169.995240298 110 132
7298 3187 3188 19.6264331202 110 132
7299 3188 3149 6.28894818016 110 132
7300 3149 3147 1.23132368684 110 132
7301 3189 2782 108.571046068 60 132
7302 3190 3191 20.2997641608 60 132
7303 3191 3192 89.975002005 60 132
7304 2784 3145 95.3492142597 60 132
7305 3205 3206 19.7737076442 400 83
7306 2783 3146 90.7534388326 60 132
7307 3193 3146 45.8100024554 85 132
7308 3157 3194 40.3338501262 150 72
7309 504 464 6.39580483801 100 70
7310 3195 3196 1.07524369361 300 78
7311 3196 3197 22.7176844766 300 78
7312 3197 3198 18.0776933263 300 78
7313 3198 3199 14.9084408976 300 78
7314 3199 3200 20.7228243727 300 78
7315 2221 3201 22.9879051892 400 83
7316 3201 3202 18.7184240793 400 83
7317 3202 3203 20.7624132751 400 83
7318 3203 3204 24.5883076477 400 83
7319 2785 3193 86.1100051905 60 132
7320 2501 300 153.61386778 60 132
7321 2982 5268 8.35002395262 60 132
7322 3025 3017 174.740141135 110 132
7323 1261 3157 41.2001983006 110 132
7324 1308 1310 7.30951434772 85 132
7325 69 5911 3.78020171412 75 132
7326 2254 1787 33.7484047817 110 132
7327 1723 5912 18.3008545769 110 132
7328 5991 5992 89.8625505397 110 132
7329 1339 5993 25.2495168533 110 132
7330 5993 5994 18.6411482106 110 132
7331 5994 5995 17.1265965232 110 132
7332 5995 5996 9.28053492119 110 132
7333 5996 5992 9.0032866761 110 132
7334 1339 5997 3.99137303971 110 132
7335 5998 5999 38.1416241647 110 132
7336 5999 5991 38.3108009882 110 132
7337 6001 6002 59.9278655593 110 132
7338 6002 6003 25.423355725 110 132
7339 6003 6004 14.9211861303 110 132
7340 6004 5998 36.7743944228 110 132
7341 6005 6006 21.010737603 110 132
7342 6006 6007 18.4067609365 110 132
7343 6007 6001 60.6106290565 110 132
7344 2533 6008 57.6543564527 110 132
7345 6008 6009 23.4620012743 110 132
7346 6009 6010 2.61040454443 110 132
7347 6010 6005 16.9468486312 110 132
7348 3181 3159 50.8909262841 110 132
7349 5601 3045 39.1337537175 60 132
7350 5599 5600 14.4118354139 60 132
7351 3122 3119 19.4824099131 75 132
7352 5574 1809 30.6720263431 150 72
7353 5574 1208 55.5363200978 85 132
7354 2949 1207 54.3635350417 150 72
7355 1200 2617 118.912392769 110 132
7356 1201 1229 92.7947922787 85 132
7357 5575 5576 187.201999921 110 132
7358 2235 5577 186.826871465 85 132
7359 5578 5579 124.302475365 85 132
7360 2613 401 194.932434975 110 132
7361 5580 1208 50.4956998166 85 132
7362 5580 2949 122.333106 85 132
7363 5573 2616 66.8933815861 150 72
7364 1724 1200 6.93814096159 110 132
7365 1227 2618 96.683973067 75 70
7366 5587 1250 132.390034323 110 132
7367 303 5588 1.70451619217 110 132
7368 303 311 33.3657848701 110 132
7369 2500 2499 1.98822476091 60 132
7370 5589 5590 20.3579222913 85 132
7371 5591 5592 7.60909994656 60 132
7372 5592 5593 20.1861625127 60 132
7373 5593 5594 16.32590607 60 132
7374 1627 5595 42.7730327423 60 132
7375 5536 5596 11.9574455572 85 132
7376 3085 3081 41.1410379063 60 132
7377 3095 3087 41.3402380679 85 132
7378 5586 311 83.4814695963 110 132
7379 1199 1724 6.37803261215 110 132
7380 1220 6022 45.1400275816 60 132
7381 6023 6022 91.5105917473 60 132
7382 6047 6048 16.0229085996 32 135
7383 6048 6049 26.9779539623 32 135
7384 6049 6050 26.0181761088 32 135
7385 6050 6051 19.1400731454 32 135
7386 6051 6052 4.46013452715 32 135
7387 6052 6053 1.92509739946 32 135
7388 6053 2121 8.69549308568 32 135
7389 6054 2534 90.003420002 110 132
7390 6055 6054 20.0011824646 110 132
7391 6056 6057 87.5163135874 110 132
7392 2582 6066 65.2601007667 60 132
7393 6022 3008 31.3400015953 60 132
7394 6046 6047 14.9380052217 32 135
7395 6025 3008 45.1506378696 60 132
7396 6070 2577 28.0501445627 85 132
7397 3001 6071 32.3000015487 85 132
7398 1222 3001 44.9102347134 85 132
7399 2595 1222 56.3900080331 85 132
7400 2596 1215 40.1788744523 110 132
7401 2599 6072 21.0300023769 85 132
7402 2598 6073 70.2906580849 85 132
7403 6073 6074 22.3800357461 85 132
7404 360 6073 37.9901644905 85 132
7405 2603 2600 29.3799999999 85 132
7406 2605 2603 66.1802699909 85 132
7407 360 2605 30.2100148957 85 132
7408 6069 1800 11.5105343934 60 132
7409 1809 2235 14.7410081916 150 72
7410 6045 6046 14.1865288213 32 135
7411 6043 6044 10.7251107222 32 135
7412 1221 6023 45.4010583581 60 132
7413 6024 6025 38.7801633574 60 132
7414 6024 6026 43.5731029414 60 132
7415 2587 6024 33.9000943946 60 132
7416 6026 6027 14.8900000006 60 132
7417 2590 6026 33.3900134777 60 132
7418 6028 5579 39.0431171915 85 132
7419 6029 6028 108.275532001 85 132
7420 1225 6029 2.82285316578 85 132
7421 6030 6031 0.0920977736668 85 132
7422 6031 5578 42.0069985603 85 132
7423 6032 6033 37.2886376798 85 132
7424 6044 6045 15.4865231734 32 135
7425 1225 6030 19.4342105069 85 132
7426 5274 2637 28.6670996095 85 132
7427 6035 5274 44.0996531739 60 132
7428 6035 5567 87.3903026657 85 132
7429 5565 1909 40.3580532237 110 132
7430 2632 6036 41.8000586122 60 132
7431 2633 5565 39.2232999998 85 132
7432 6037 6038 5.36033581071 32 135
7433 6038 6039 10.9699954415 32 135
7434 6039 6040 4.19552666729 32 135
7435 6040 6041 2.93646045411 32 135
7436 6041 6042 2.76448910276 32 135
7437 6042 6043 4.22800189193 32 135
7438 2630 6034 44.5511695247 60 132
7439 3126 3131 36.1210091222 85 132
7440 401 1204 5.62105297073 110 132
7441 3140 3183 3.042944832 110 132
7442 5354 5355 0.0131529458324 200 74
7443 5355 5356 16.5455764782 200 74
7444 5356 5357 22.3188725753 200 74
7445 5357 5358 24.5513050568 200 74
7446 5358 5359 19.9832545144 200 74
7447 5359 5360 22.1976783694 200 74
7448 5360 2008 17.8573155038 200 74
7449 5361 5362 3.57609966975 200 74
7450 9315 7622 14.5047235426 500 86
7451 5502 5503 0.0402125598957 85 132
7452 5503 5504 342.955227039 85 132
7453 5504 5505 254.898680343 85 132
7454 5505 5506 96.4276428833 85 132
7455 3050 5509 1.79759252571 60 132
7456 5510 5511 3.2293873793 60 132
7457 5512 5361 1.64030888821 200 74
7458 1749 1326 113.224738418 110 132
7459 5513 5284 37.1346286137 110 132
7460 1326 5514 28.9788422822 110 132
7461 5515 3071 47.7367439997 110 132
7462 5515 5513 55.2449399065 110 132
7463 3300 5516 16.2783750655 200 74
7464 5516 5517 29.6412986395 200 74
7465 5517 5518 22.3318017629 200 74
7466 5518 5519 21.3779427687 200 74
7467 3296 5354 22.8092144541 200 74
7468 5353 2237 5.57351758312 400 83
7469 5352 5353 5.57351758312 400 83
7470 5351 5352 25.1170078039 400 83
7471 3037 2990 63.8521359702 110 132
7472 5269 5270 43.5425044531 110 132
7473 1348 5271 5.05811787264 110 132
7474 5272 5273 108.89817746 75 132
7475 5274 5275 87.8691523468 85 132
7476 2643 1214 104.821336282 85 132
7477 5276 5277 28.3600158678 60 132
7478 1746 5279 43.1545096139 85 132
7479 5281 5282 238.620553728 85 132
7480 1231 5283 0.947945145968 85 132
7481 5284 1641 40.1135492076 110 132
7482 5285 5286 11.0080141173 85 132
7483 5519 5520 23.3732791447 200 74
7484 1300 391 40.5628820473 60 132
7485 3089 5338 2.98400665063 150 72
7486 2971 5339 2.10391266499 200 74
7487 2519 5340 1.25080174261 100 70
7488 5340 5341 2.84204916407 100 70
7489 3055 5342 1.84020131754 100 70
7490 5343 5344 1.62848272945 85 132
7491 2221 5345 0.983734212068 110 132
7492 2583 2581 4.07494785283 150 72
7493 2036 2037 57.1900084013 200 74
7494 2035 2036 1.35542489642 200 74
7495 2034 2035 4.23112119675 200 74
7496 2030 5351 24.6100005073 400 83
7497 3017 5337 2.31911594575 110 132
7498 5520 5521 21.5556512318 200 74
7499 5521 5522 26.856272042 200 74
7500 5522 3263 22.0348402757 200 74
7501 5544 5545 0.698396020145 85 132
7502 2966 5546 17.0394171853 75 70
7503 5546 5547 26.8635506401 75 70
7504 5547 5548 15.3228669964 75 70
7505 5549 5550 0.00315753006571 150 72
7506 5550 2620 25.2453012628 150 72
7507 2033 2034 5.49453676295 200 74
7508 2032 2033 52.8625629364 200 74
7509 2031 2032 6.1061958251 200 74
7510 2029 2030 25.5195078718 400 83
7511 2028 2029 30.8712872587 400 83
7512 2027 2028 13.1889842297 400 83
7513 5543 5541 137.217107534 85 132
7514 5559 5560 28.1026223293 150 72
7515 1820 5559 129.390252543 150 72
7516 5562 2630 18.7753881458 85 132
7517 5563 5562 25.7801474004 85 132
7518 5564 5563 44.7772308216 110 132
7519 1349 5564 31.3193757913 85 132
7520 5565 5566 124.982983906 110 132
7521 5567 5275 43.3685434183 60 132
7522 5568 2548 9.2520251039 85 132
7523 492 5569 8.04360926465 85 132
7524 5569 5568 8.44465523262 85 132
7525 2550 5570 111.308012678 110 132
7526 5570 5571 122.783160088 110 132
7527 5559 5561 1.7396077173 150 72
7528 401 5573 34.8443425968 150 72
7529 5541 5542 47.7593658032 85 132
7530 5539 5540 73.4873915993 60 132
7531 5523 1643 12.5804765725 150 72
7532 2993 5523 1.12791843663 110 70
7533 5524 5525 173.211486966 110 132
7534 5525 1806 6.23047239458 110 132
7535 1806 5526 6.23047239367 110 132
7536 5524 3068 46.5904020373 75 132
7537 5514 5524 39.7682366214 110 132
7538 3046 5514 47.782567951 85 132
7539 5527 5528 44.7807697127 85 132
7540 2505 5527 48.8485414314 85 132
7541 1299 5529 84.5439474595 60 132
7542 5530 3061 118.041117439 60 132
7543 2954 2953 6.27449303224 75 132
7544 5531 5530 42.1872066863 110 132
7545 1605 5531 42.2234075128 85 132
7546 3190 5532 7.35373320214 110 132
7547 5532 5533 18.7277737326 110 132
7548 5533 5534 21.5460054853 110 132
7549 3073 3047 40.6632038824 85 132
7550 3021 3135 71.9412123328 85 132
7551 3135 3133 32.2665926308 85 132
7552 5535 3133 42.4298015314 85 132
7553 5536 5535 16.9943094518 85 132
7554 5231 5536 24.1419315635 85 132
7555 5537 2670 48.3401258581 60 132
7556 5538 5537 41.5902457313 60 132
7557 5531 3060 122.836710165 85 132
7558 3131 3053 29.8508386813 85 132
7559 3053 3052 42.6822650531 60 132
7560 3052 3051 41.7400586959 60 132
7561 2589 2591 14.6000000006 75 132
7562 2593 2589 39.0001115383 75 132
7563 1219 2593 2.9304265898 75 132
7564 668 2594 5.65415017117 150 72
7565 1215 2595 69.0314851109 150 72
7566 2596 2597 107.987749676 150 72
7567 2598 2595 45.0301000001 150 72
7568 2599 2598 55.5299999993 150 72
7569 2600 2599 37.8300052869 150 72
7570 2585 2600 46.0201043462 150 72
7571 2601 2585 3.26024538931 150 72
7572 2602 2603 46.0300043019 150 72
7573 2604 2605 46.2001828993 150 72
7574 2606 2596 180.290333074 150 72
7575 2607 2606 38.5700012966 150 72
7576 2604 359 30.1100000003 150 72
7577 2602 2604 66.3300030153 150 72
7578 2601 2602 26.0801477376 150 72
7579 687 2607 13.5500036898 150 72
7580 2608 2609 35.5194397476 150 72
7581 2608 2610 4.18331162711 150 72
7582 2611 2612 181.765250607 85 132
7583 2613 2611 45.934808153 110 132
7584 2614 1224 14.1733058957 150 72
7585 2614 2615 4.45554979428 150 72
7586 2591 2592 11.1800999995 75 132
7587 1219 2590 47.0100382895 60 132
7588 2590 2587 43.5200011494 60 132
7589 2589 2588 40.6201306499 60 132
7590 2559 1722 8.38449163674 110 132
7591 2560 2559 58.3142042387 110 132
7592 1193 2560 33.4701210036 110 132
7593 2562 2563 39.3901318604 60 132
7594 2564 2565 39.3802488564 60 132
7595 2562 2564 44.7401000001 60 132
7596 2566 2567 69.8260557248 60 132
7597 1628 2566 43.7100285975 60 132
7598 2568 1627 15.5608527308 60 132
7599 698 2569 14.4100138794 85 132
7600 2570 699 40.7101768603 85 132
7601 2571 2572 15.0900033133 85 132
7602 2616 2614 8.5293669164 150 72
7603 2573 2571 38.4800324848 60 132
7604 2575 2576 1.96022957834 150 72
7605 1216 2577 34.6967217466 150 72
7606 1344 2578 4.62520000059 150 72
7607 1223 2579 177.522857909 110 132
7608 1730 2580 99.2498896925 150 72
7609 2581 1730 77.1000162133 150 72
7610 2582 2583 1.3437261626 150 72
7611 2584 2582 42.1887584082 150 72
7612 1344 2584 47.2072585729 150 72
7613 1634 1344 12.4641325412 150 72
7614 2585 2586 40.5962879387 150 72
7615 2587 2588 86.1200000002 60 132
7616 1614 2574 13.0096084189 200 74
7617 2616 1229 39.869192367 150 72
7618 1227 1228 16.3619955993 75 132
7619 2617 1228 41.8971199013 60 132
7620 2650 687 122.620297537 85 132
7621 2651 2652 158.066398449 60 132
7622 2653 2651 39.0601548901 60 132
7623 2654 2653 62.6100288447 85 132
7624 2655 2656 28.4301439679 60 132
7625 2657 2658 29.5902433243 60 132
7626 2659 2660 36.3692864929 60 132
7627 2659 2661 7.89696144109 60 132
7628 2662 2659 19.2246358879 60 132
7629 2662 1633 41.1003620056 60 132
7630 1631 2662 90.682355153 60 132
7631 2663 2664 50.8592391504 75 132
7632 2648 2649 185.308709541 110 132
7633 2665 2666 127.41010157 85 132
7634 2669 2667 36.9000013284 150 72
7635 2668 2253 8.5736923207 100 70
7636 2670 2668 5.16163733652 100 70
7637 2671 2670 42.7685304873 100 70
7638 2672 2671 46.1017085584 100 70
7639 2646 2672 48.6935005929 100 70
7640 2673 2674 45.0673094511 100 70
7641 2674 2675 8.40008608576 100 70
7642 2675 2676 16.0144521688 100 70
7643 2676 2677 10.1208981742 100 70
7644 2677 2678 5.24025423999 100 70
7645 2678 1917 10.7066056866 100 70
7646 2667 2668 89.8306009442 150 72
7647 1722 1346 44.8863119453 110 132
7648 1214 2647 50.3021033356 85 132
7649 2647 2646 114.834784155 60 132
7650 2618 2619 38.722820817 150 72
7651 2620 2618 5.08205381868 150 72
7652 2621 2622 22.6784309866 150 72
7653 2625 2626 15.0281901771 60 132
7654 2627 2628 34.1671776423 60 132
7655 2627 2629 28.7445647038 60 132
7656 2625 2627 4.43112852412 85 132
7657 2630 2625 47.1744625617 85 132
7658 361 2623 105.452883792 150 72
7659 2631 361 45.3136734111 150 72
7660 2632 2633 33.4871315121 85 132
7661 2634 2632 11.8209517386 85 132
7662 2647 1210 120.529486002 60 132
7663 2635 2634 87.0612118679 85 132
7664 2637 2636 19.5009256191 85 132
7665 2638 2637 43.5601936871 85 132
7666 2631 2639 45.2702590445 85 132
7667 2639 2638 0.219999999739 85 132
7668 2576 2631 44.1510135788 150 72
7669 2640 2576 0.73027392074 150 72
7670 2641 2640 114.963943009 150 72
7671 2641 2636 42.2165943677 75 132
7672 2574 2642 0.264800302119 200 74
7673 2643 2644 43.8969907851 100 70
7674 1214 2645 105.776472024 75 132
7675 2643 2646 51.7077766301 100 70
7676 2636 2635 22.8628344703 85 132
7677 2679 2680 46.355507354 75 70
7678 2557 2558 43.1820809501 32 135
7679 2555 2556 5.99600960126 32 135
7680 2307 2308 15.5316474903 100 70
7681 2308 2309 70.3599129741 100 70
7682 2309 2310 85.3662345425 100 70
7683 2310 2311 66.2365382251 100 70
7684 2205 2206 8.32562225925 110 132
7685 2204 2205 0.870933407289 110 132
7686 2203 2204 12.9367798953 110 132
7687 2201 2202 18.4880710186 110 132
7688 1266 2201 39.8979965652 110 132
7689 1217 2178 4.1553033807 110 132
7690 1338 2177 2.01981558127 110 132
7691 2145 2146 0.678717688045 110 132
7692 2477 2478 2.80633323926 150 135
7693 2478 2479 4.2373105485 150 135
7694 2479 2480 4.23744314059 150 135
7695 2480 2481 1.98660605347 150 135
7696 2481 2482 1.98865533651 150 135
7697 2482 2483 1.98836787673 150 135
7698 2483 2484 1.86204242918 150 135
7699 2484 2485 1.86012541835 150 135
7700 2485 2486 1.8601272563 150 135
7701 2486 2487 2.03762866334 150 135
7702 2487 2488 2.08722199304 150 135
7703 2488 2489 2.03803643314 150 135
7704 2489 2490 13.0227564424 150 135
7705 2306 2307 25.9441244783 100 70
7706 2305 2306 13.870953069 100 70
7707 2304 2305 14.0307524495 100 70
7708 2303 2304 50.0434339176 100 70
7709 2217 2218 26.1186271651 400 83
7710 2218 2219 28.504024277 400 83
7711 2219 2220 21.4860528019 400 83
7712 2220 2221 12.56562963 400 83
7713 968 2222 21.3303761337 200 74
7714 1758 2226 0.761145616545 200 74
7715 2226 2227 8.02263080256 200 74
7716 2227 2228 7.01180770241 200 74
7717 2231 2232 7.82523313687 200 74
7718 2228 2233 7.0118077016 200 74
7719 2233 2234 0.370766085146 200 74
7720 2235 2236 0.996436294298 150 72
7721 2490 2491 13.0226238924 150 135
7722 2236 787 12.9917377208 150 72
7723 2238 2239 0.952017583761 400 83
7724 2239 2240 1.34637315766 400 83
7725 2240 2241 0.314143677584 400 83
7726 2241 485 0.314143677556 400 83
7727 2242 2243 13.5773560701 200 74
7728 2243 2244 156.509596545 200 74
7729 2253 2254 6.63025831294 110 70
7730 683 1788 4.85750398902 150 72
7731 2255 2256 23.0501204042 100 70
7732 489 2215 2.47020020274 400 83
7733 2213 2214 5.98898727754 200 74
7734 1563 1916 5.34578104467 110 132
7735 2237 2238 2.29839074113 400 83
7736 2491 2492 13.0227564424 150 135
7737 1541 2493 1.44647226011 150 135
7738 2493 2477 8.7901655645 150 135
7739 2520 2521 25.9416847564 150 72
7740 2521 1945 14.4031009513 150 72
7741 2530 2531 100.000150844 110 132
7742 2531 2532 78.6778401109 110 132
7743 2532 2533 21.4198779073 110 132
7744 2530 2534 15.0982088378 110 132
7745 2535 2536 36.0676503312 85 132
7746 2536 2537 66.3253603827 85 132
7747 2535 2538 41.639700896 110 132
7748 2538 2539 1.87537811639 110 132
7749 2539 2540 1.64526014075 110 132
7750 2540 2541 1.69615360457 110 132
7751 2519 2520 12.2871005526 150 72
7752 2541 2542 1.73000164726 110 132
7753 2543 2544 3.26836978538 110 132
7754 2544 2545 22.8497522701 110 132
7755 2546 2547 75.2453441651 85 132
7756 2548 2546 61.8117174601 85 132
7757 2547 2549 102.645326298 85 132
7758 2549 2537 146.680665845 85 132
7759 2545 2550 6.4248510495 110 132
7760 1193 2550 17.9999717899 110 132
7761 2551 2552 15.087809261 32 135
7762 2552 2553 18.0422410277 32 135
7763 2553 2554 9.77932550434 32 135
7764 2554 2555 6.14636974014 32 135
7765 2542 2543 3.23700756976 110 132
7766 2556 2557 7.06631368199 32 135
7767 504 2519 10.9232781823 150 72
7768 2039 2517 6.61343639889 150 72
7769 2477 888 8.09834582442 150 135
7770 301 2494 3.39927015752 110 132
7771 2495 301 46.0635919135 110 132
7772 2496 2497 2.2927529866 110 132
7773 2498 2499 10.8815714842 60 132
7774 2492 2500 105.53210169 150 135
7775 2498 2501 12.1602014784 60 132
7776 2502 2498 47.3783980103 60 132
7777 366 2502 124.589194973 60 132
7778 366 2503 40.2428856216 110 132
7779 305 2496 1.7211969005 110 132
7780 2504 2505 49.3760363335 85 132
7781 2517 2518 89.255236547 150 72
7782 2506 2504 17.5627588943 85 132
7783 2508 1660 42.8067842985 75 132
7784 2509 1664 42.7604134081 75 70
7785 2510 2511 87.2698334939 60 132
7786 2510 2512 28.1239223793 85 132
7787 2512 2039 10.0541757499 85 132
7788 2513 2510 42.461298426 85 132
7789 2514 1268 15.0787267376 85 132
7790 2515 2514 40.0674084013 85 132
7791 2516 2515 67.2556503199 85 132
7792 502 2516 45.3566544182 85 70
7793 1302 390 39.5259016344 60 132
7794 1307 370 39.9260782945 150 72
7795 2507 2506 2.93865615605 85 132
7796 2650 2601 38.140001337 85 132
7797 694 2681 54.6813697711 100 70
7798 2682 2683 7.8583898699 75 70
7799 1785 3060 39.1906626383 110 132
7800 3056 352 35.3013027627 100 70
7801 1785 353 40.3200049606 150 72
7802 3062 3063 123.448283334 60 132
7803 3064 3065 123.152011124 60 132
7804 1804 3066 121.953210069 60 132
7805 3064 1804 50.8948205419 85 70
7806 3062 3064 47.6109346891 85 70
7807 3067 3062 53.5351883177 85 70
7808 3066 3068 47.2247469028 85 132
7809 3065 3066 50.5257676834 85 132
7810 3063 3065 51.0465767713 85 132
7811 3067 3069 34.0195474439 200 74
7812 3070 2993 29.0264651909 110 70
7813 3071 2993 11.6611363079 110 70
7814 3072 3073 6.77588222 200 74
7815 3074 3075 71.1271584 85 132
7816 3076 3074 36.2452120971 85 132
7817 3077 3076 71.8714963112 85 132
7818 3078 3074 41.3349065559 60 132
7819 3079 3076 42.3122196534 60 132
7820 3078 3080 70.4604889998 75 70
7821 3079 3078 35.8806556521 60 132
7822 3081 3079 63.3675350631 60 132
7823 3082 3080 16.0084178629 85 132
7824 3060 3061 43.5882151498 110 132
7825 3058 3059 29.5565591064 110 132
7826 2579 1606 56.6106924533 110 132
7827 702 3057 13.9001290649 75 132
7828 1795 3031 2.03687726786 110 70
7829 3032 2648 15.1546461522 110 132
7830 3027 3032 30.5892409523 110 132
7831 3033 3034 21.2100622349 150 72
7832 3032 3035 2.2367062793 110 132
7833 3033 3036 22.3808936371 85 132
7834 3037 3033 23.450008529 150 72
7835 3038 3039 21.0719603743 85 132
7836 3038 3040 20.9300000006 85 132
7837 3011 3038 27.8700645856 85 132
7838 3041 3037 62.9300127132 110 132
7839 3029 3041 8.21049328599 110 132
7840 3081 3077 44.0885132435 85 70
7841 3018 1795 213.135471845 110 132
7842 3013 3043 45.0689449622 60 132
7843 3044 3045 44.4565753511 60 132
7844 3046 383 60.4123340056 85 132
7845 3047 381 56.0642485899 85 132
7846 3048 3030 205.273994396 110 132
7847 3049 3050 22.0710715647 60 132
7848 1358 3040 85.7601471204 85 132
7849 3051 3039 59.7408038773 85 132
7850 3052 3028 87.5202651051 85 132
7851 3053 3036 72.9072774561 85 132
7852 3054 2990 137.811237793 85 132
7853 3055 3056 20.6606957475 100 70
7854 3042 3043 34.7012406122 85 132
7855 3083 3084 14.1147086399 85 132
7856 3083 3085 27.7522071193 85 132
7857 3018 3083 38.3629920882 60 132
7858 3110 3102 28.9301399934 85 132
7859 3109 3108 62.0200008067 85 132
7860 3111 3109 29.9006688883 85 132
7861 3112 2597 11.646327872 75 70
7862 3006 2032 134.250989974 75 70
7863 3113 3114 92.9476193235 150 72
7864 3115 3113 23.4200999998 150 72
7865 3115 3116 21.34000239 85 132
7866 2035 3115 20.4112794534 150 72
7867 3117 3118 75.6375550291 85 132
7868 3119 378 63.4006327092 75 70
7869 3120 3121 85.9981958998 85 132
7870 3108 3110 0.439999999478 85 132
7871 3122 3120 23.5457108623 85 132
7872 3049 3125 133.159295637 150 72
7873 3126 3127 23.8101028982 85 132
7874 3128 3049 48.3114413152 60 132
7875 3128 3121 23.5226040221 85 132
7876 1358 3128 17.5809214776 85 132
7877 379 3121 41.8900966813 60 132
7878 1357 3051 26.302328795 85 132
7879 3129 3130 15.0713270819 85 132
7880 3129 1357 18.5802179751 85 132
7881 3118 3127 42.4812052555 60 132
7882 3118 378 41.6501972388 60 132
7883 3052 3118 90.5302433328 85 132
7884 3123 3124 20.1024944969 75 132
7885 3030 1355 47.7526377448 85 132
7886 3109 3107 45.6107797447 60 132
7887 3103 3107 30.4682769823 85 132
7888 3086 3087 45.8978140759 85 132
7889 3088 3089 11.9499101824 150 72
7890 3089 3090 4.70152221899 150 72
7891 3086 3088 29.6279013133 150 72
7892 3091 3000 25.9104738455 85 132
7893 3092 3091 64.2401317405 85 132
7894 3002 3092 31.8003264132 85 132
7895 3093 3002 39.0201281388 85 132
7896 3094 3095 42.74143306 60 132
7897 3096 3097 42.9123595251 60 132
7898 3096 3094 39.6310891345 60 132
7899 3098 3094 48.6604531423 60 132
7900 3108 3106 45.6844831432 60 132
7901 3096 3099 48.6411890066 60 132
7902 3098 3100 40.401516061 75 132
7903 3099 3098 39.080864883 85 132
7904 3093 3099 41.451259957 85 132
7905 3059 3093 46.6717294943 85 132
7906 3101 3102 25.5963913763 85 132
7907 3103 3087 37.8967646488 85 132
7908 3097 3095 38.8302558075 85 132
7909 3104 3097 40.3911141215 85 132
7910 3105 3104 38.7136280914 85 132
7911 3102 3105 45.5039251054 85 132
7912 3106 3105 29.4201373553 85 132
7913 3107 3106 61.1133523621 85 132
7914 3100 3009 41.5504344148 75 70
7915 1636 1924 42.9611562571 100 70
7916 3028 3029 1.38032604833 110 132
7917 3025 3026 40.472622846 110 132
7918 2776 2570 89.2501022407 85 132
7919 2571 2810 41.0113484545 60 132
7920 2811 2573 40.8302069552 60 132
7921 2810 2811 38.0306961024 60 132
7922 2812 2810 12.6000158736 60 132
7923 2813 2812 38.0839716942 60 132
7924 2814 2813 74.300946009 85 132
7925 1625 2815 11.0719894515 150 72
7926 2815 2816 1.08829878744 150 72
7927 1579 1578 15.5318464954 110 132
7928 2123 2124 37.3964075815 85 132
7929 2121 2122 57.4561804437 32 135
7930 2944 2945 10.1717143633 200 74
7931 2945 640 18.3525248937 200 74
7932 2947 2948 16.2863373727 150 72
7933 2948 2690 24.977859426 150 72
7934 2949 2950 38.5178962097 150 72
7935 2950 2951 0.0158294032834 150 72
7936 2952 2953 60.0017453815 85 132
7937 2954 2955 27.8936910425 75 70
7938 2956 694 9.63265280135 150 72
7939 2956 2957 4.71529426442 100 70
7940 2958 2956 42.7721989152 150 72
7941 1789 2958 74.0901354559 150 72
7942 2959 695 29.7086515633 100 70
7943 2806 2807 11.5252648929 150 72
7944 2804 2805 5.06227013577 200 74
7945 2781 2772 38.3018436924 200 74
7946 2713 1823 48.7653612066 200 74
7947 2684 2685 60.0562031578 150 72
7948 690 2686 42.363006414 150 72
7949 2686 2687 16.4444679146 150 72
7950 2688 2689 0.777277942678 150 72
7951 2690 2691 2.43676783603 150 72
7952 2691 2688 1.74946163136 150 72
7953 2713 2714 4.29350000061 110 132
7954 2737 2738 4.0347014323 250 76
7955 2739 2740 0.771610328882 250 76
7956 2759 2760 2.41879873014 200 74
7957 2761 2762 3.59435668733 200 74
7958 2764 37 373.629201819 200 74
7959 2960 2961 11.335441103 75 70
7960 2765 1731 3.00595529216 100 70
7961 2767 2768 3.96420000028 200 74
7962 1801 2771 80.9506515342 200 74
7963 2772 2773 2.87565649035 200 74
7964 2774 2775 9.96983548518 200 74
7965 2776 698 40.7348185949 200 74
7966 2777 2776 13.1352122174 200 74
7967 2778 2777 44.4901359856 200 74
7968 2779 2780 3.25006153788 200 74
7969 2781 2782 2.50001999992 200 74
7970 2783 2784 50.4242253289 200 74
7971 2785 2783 49.7613276148 200 74
7972 2803 1823 69.1546592473 200 74
7973 2763 2766 141.6440681 200 74
7974 2961 2962 19.5502873644 75 70
7975 2962 2963 26.9761014972 75 70
7976 2964 2965 18.4825999248 75 70
7977 2994 1748 58.1137321418 75 70
7978 344 2995 1.41631537726 150 72
7979 2996 2997 0.560892146196 150 72
7980 1756 2998 2.37427689402 200 74
7981 2998 2999 2.35792819388 200 74
7982 2577 3000 47.365199612 150 72
7983 3001 3002 47.2528601887 85 132
7984 1691 3003 5.95030427775 60 132
7985 1693 3004 12.3625755202 60 132
7986 3004 3005 126.733119254 60 132
7987 3006 702 41.7003884867 75 132
7988 3000 1802 81.3075364948 150 72
7989 2992 2993 0.75186434983 110 70
7990 3007 3008 40.0499999998 60 132
7991 1802 3009 1.56012820039 75 70
7992 3010 3011 6.36007075466 85 132
7993 3012 3013 31.3591103187 85 132
7994 3014 3015 0.00109999999404 150 72
7995 3015 3016 23.5078841044 150 72
7996 3017 3007 12.2306377591 110 132
7997 3018 3019 6.99829264934 85 132
7998 3020 3019 42.5611007846 110 132
7999 1759 3020 9.66542808092 110 132
8000 3021 3020 39.1945473765 85 132
8001 3022 3023 74.2171073808 60 132
8002 3024 3022 18.6653823963 60 132
8003 384 1753 6.2269173753 85 132
8004 3027 3025 4.82403358167 110 132
8005 2991 1938 4.93443679748 150 72
8006 2988 2989 4.44929072329 110 132
8007 2965 2966 20.4946402749 75 70
8008 2960 2967 28.8729401511 75 70
8009 2967 2964 11.5423909572 75 70
8010 2968 2255 8.08053024763 100 70
8011 2969 2968 28.4519662403 75 70
8012 2970 2969 42.0611705968 75 70
8013 2971 2972 5.49266723661 200 74
8014 1948 2971 195.563392448 150 72
8015 2970 2973 40.6299999999 75 70
8016 2973 2974 41.4721267848 85 132
8017 2975 2973 34.1956210642 75 70
8018 2976 2975 8.5430966283 60 132
8019 2990 1741 9.00024999841 110 132
8020 2977 2976 42.0000047619 60 132
8021 2979 2980 14.5300999992 85 132
8022 2980 2976 49.8802255416 85 132
8023 2981 2974 32.142129674 60 132
8024 2977 2981 10.1501231523 60 132
8025 2982 2977 49.9358837507 60 132
8026 2980 2982 41.3900109454 60 132
8027 2983 2978 25.3605704594 85 132
8028 1260 2983 82.6704199455 85 132
8029 1115 2984 101.691268097 60 132
8030 2985 2986 59.9916742076 85 132
8031 2985 2984 17.3999716354 60 132
8032 2985 2987 147.490047146 60 132
8033 2978 2979 0.200000000186 85 132
8034 6075 2609 58.3274113601 85 132
8035 5571 5572 24.2865351973 110 132
8036 6076 2690 134.134241864 85 132
8037 6278 6277 41.4012522997 85 132
8038 5279 6278 108.208588809 85 132
8039 5279 389 41.7732621188 85 132
8040 1746 1744 37.2742109242 85 132
8041 1748 1746 60.9666141421 85 132
8042 455 2009 4.30001162771 75 70
8043 2007 2008 2.98430980269 150 72
8044 6263 6246 40.5436517845 110 132
8045 5586 6263 50.6083897983 110 132
8046 6255 6283 44.2935579394 60 132
8047 6256 5224 35.3098414039 85 132
8048 6243 6286 82.5419443933 60 132
8049 6287 6288 74.6783422015 60 132
8050 6286 5586 41.7812764634 85 132
8051 6288 6286 42.8720905277 85 132
8052 6289 6288 33.7275332627 85 132
8053 6287 6243 42.5656398995 60 132
8054 6277 6271 41.6441016228 85 132
8055 6290 6287 54.2839856126 60 132
8056 6271 6270 27.1167107152 85 132
8057 6271 385 42.953409644 60 132
8058 6264 6250 15.5693320339 60 132
8059 6265 6264 74.6967362605 60 132
8060 3024 6265 15.941016279 60 132
8061 383 3024 22.6403931054 60 132
8062 380 6251 67.9614352557 85 132
8063 5600 6251 25.7812974844 60 132
8064 6266 5599 73.8816743176 60 132
8065 6267 6266 12.5354098457 60 132
8066 3136 6267 5.16767839586 60 132
8067 3134 388 63.5782329106 85 132
8068 3132 3134 31.344462382 85 132
8069 6268 3132 39.9941120658 85 132
8070 3137 6268 21.4340033589 85 132
8071 386 6245 20.1644141997 75 132
8072 385 6269 26.2730375094 85 132
8073 387 6269 57.8736609523 85 132
8074 6270 6269 42.8966490535 60 132
8075 6270 389 48.9485460667 85 132
8076 6291 6290 3.70752909808 60 132
8077 6258 6291 22.5053626943 60 132
8078 6431 3182 5.97300604735 110 132
8079 5285 1642 43.3524353073 85 132
8080 1659 2507 3.06778421699 85 132
8081 6443 6444 3.53079918524 85 132
8082 1256 2514 5.90526036671 85 132
8083 6446 3070 41.1331885151 85 132
8084 5286 6446 41.4889394897 85 132
8085 3161 5285 87.1279559967 85 132
8086 6447 3161 45.8558458656 110 132
8087 5534 5530 46.4418589598 110 132
8088 5268 1258 41.1200595818 60 132
8089 3143 1263 66.6204414643 110 132
8090 3164 3153 30.9613165184 85 132
8091 3154 3152 42.4644663226 60 132
8092 3174 3154 66.8177790787 85 132
8093 3163 3174 30.5759924916 85 132
8094 3045 6446 71.487806136 60 132
8095 5601 5286 67.6854184886 60 132
8096 3168 6441 67.8027959237 85 132
8097 6441 6442 36.690750328 85 132
8098 6442 5515 62.6636495556 85 132
8099 6442 6439 49.5211851969 85 132
8100 6432 6433 9.04790040909 110 132
8101 2518 6434 1.77160307312 85 132
8102 5528 6436 40.2635839723 85 132
8103 876 6437 139.107706715 85 132
8104 876 6434 39.7640909248 85 132
8105 1695 1648 49.9629111641 110 132
8106 1309 3183 216.580731683 110 132
8107 6076 6075 50.6152091767 85 132
8108 6250 380 25.4164598247 60 132
8109 6436 1304 30.1943619613 60 132
8110 6438 1303 27.2918576159 60 132
8111 878 6436 39.251536251 110 132
8112 6438 878 3.4634333096 60 132
8113 1312 5284 64.1000280807 85 132
8114 6439 5513 65.2374986026 85 132
8115 6440 6439 36.7661616892 85 132
8116 3169 6440 54.4616696895 85 132
8117 6441 6440 47.2228793706 85 132
8118 1665 6438 38.9679776736 110 132
8119 6263 6255 157.104252539 85 132
8120 308 6258 47.0180401552 110 132
8121 5510 6257 56.797134312 110 132
8122 6219 6218 11.5788816385 85 132
8123 6155 6219 53.259561583 60 132
8124 1789 6219 42.8774719405 85 132
8125 6155 6220 17.2507767938 60 132
8126 6223 6224 22.4236761039 63 135
8127 6224 6225 0.345092740885 63 135
8128 2563 6226 13.8600324678 60 132
8129 2565 2563 44.8300011378 60 132
8130 5541 2958 45.0241146504 85 132
8131 5543 683 45.1174741972 85 132
8132 2123 5542 143.449828714 85 132
8133 1633 1630 86.0427603457 60 132
8134 6227 1633 42.9373415572 60 132
8135 6227 1632 78.9519207751 60 132
8136 6130 6227 47.9176961046 60 132
8137 6130 393 73.212546876 60 132
8138 6228 2970 34.1945858282 85 132
8139 6218 2679 7.40586929466 85 132
8140 2679 2954 36.0856894354 75 132
8141 2680 1725 42.7953326899 75 132
8142 1726 6217 66.4067231282 60 132
8143 6204 6146 4.95854676274 85 132
8144 6201 6205 18.2773961497 110 132
8145 6205 6161 19.1769967408 110 132
8146 5548 6206 21.301514148 110 132
8147 6206 6207 19.460033299 110 132
8148 6207 6208 15.4072687397 110 132
8149 6208 6209 20.1601508924 110 132
8150 6209 6210 21.0663708546 110 132
8151 2975 6228 40.5699999994 60 132
8152 6210 6211 0.552014492703 110 132
8153 6212 6213 12.0699292874 110 132
8154 6213 6214 19.4773541583 110 132
8155 6214 6201 16.8900319119 110 132
8156 2681 6215 76.6952329328 110 132
8157 1725 2681 31.2722832546 75 132
8158 6216 6160 108.416093565 60 132
8159 6163 6216 39.4683791529 60 132
8160 6217 5539 43.0537989035 60 132
8161 6211 6212 6.39641376037 110 132
8162 3152 5601 14.4025344997 60 132
8163 6229 6228 72.7916499196 85 132
8164 6230 6229 25.9007968993 85 132
8165 6241 1356 18.3908310026 85 132
8166 3075 6241 24.8093892649 85 132
8167 5232 3082 23.5461768559 85 132
8168 3077 1355 43.3247107554 85 132
8169 6243 310 11.2605728095 60 132
8170 3111 3103 45.5109894429 85 132
8171 3286 3111 52.7617232698 85 132
8172 3007 3112 38.4744424121 110 132
8173 3116 3127 68.150488113 85 132
8174 3137 6245 1.15412304332 85 132
8175 6246 6247 2.60537905117 110 132
8176 1744 1759 207.799294427 110 132
8177 382 6249 21.0960778346 60 132
8178 6250 382 3.74065502315 60 132
8179 6251 6252 6.2269173753 85 132
8180 6246 6254 3.22733469729 110 132
8181 6255 6256 28.174686862 85 132
8182 6241 6242 11.6714529797 85 132
8183 3019 3084 37.4061539324 85 132
8184 6240 3082 13.8602362509 85 132
8185 3047 6239 57.1010700425 85 132
8186 2983 6230 40.7003980326 85 132
8187 2112 6234 105.160216926 110 132
8188 6070 3091 47.2472162991 60 132
8189 6071 3092 47.1400042433 60 132
8190 3010 6235 2.06512139377 85 132
8191 3010 3028 56.5105680556 110 132
8192 3003 6236 20.6076867695 110 132
8193 6236 3011 58.2670973306 110 132
8194 6229 2978 40.6816937698 60 132
8195 3030 6237 11.7707989447 110 132
8196 3044 3070 74.8312160873 110 132
8197 3012 3044 40.7978203103 110 132
8198 3042 3012 46.4395488782 110 132
8199 3016 3042 38.843491316 110 132
8200 6238 6239 41.2037109984 60 132
8201 6238 1797 57.5726410712 75 132
8202 3068 6238 65.2973040031 75 132
8203 6239 3046 64.685410813 85 132
8204 6237 1795 29.0063337212 110 132
8205 6203 6204 14.8364222444 85 132
8206 3175 6447 39.6480718317 110 132
8207 1251 456 7.3981791014 110 132
8208 2814 7158 95.8239109438 150 72
8209 1570 1640 42.66005743 100 70
8210 2256 1570 4.29029937014 100 70
8211 2255 1262 211.132966033 100 70
8212 701 7159 1.76010432038 150 72
8213 3050 7160 84.6875835007 150 72
8214 7160 3003 22.5350880632 150 72
8215 701 3034 95.0903554519 150 72
8216 3055 3156 20.9791634721 100 70
8217 5224 368 99.209484557 75 70
8218 6283 6289 30.6762094611 75 70
8219 6257 6283 26.3534404374 75 70
8220 6433 5587 56.4358092434 110 70
8221 1331 6433 18.0682644707 110 70
8222 1662 1658 40.3184734332 75 70
8223 6436 7161 13.8297570667 100 70
8224 7161 5529 26.7453670344 100 70
8225 6256 6257 44.2760390503 75 70
8226 379 3129 22.6103184403 75 70
8227 7156 7157 0.0240074990348 100 70
8228 1574 1734 21.8569994058 50 70
8229 7146 6036 30.127902349 150 72
8230 1909 7146 39.5761154489 150 72
8231 343 7147 4.1517059162 150 72
8232 667 7148 4.39329999965 75 70
8233 2669 667 168.43033104 150 72
8234 1620 1617 16.5396127227 150 72
8235 7149 1621 6.02110416852 150 72
8236 6141 6145 32.1382326832 150 72
8237 2804 6171 10.5796116287 85 132
8238 65 7150 85.4140158856 75 70
8239 2955 5589 10.5948100502 75 70
8240 7151 2609 4.75386158804 150 72
8241 7152 7151 7.88843457174 150 72
8242 7153 7152 58.3073040018 150 72
8243 7154 7153 12.5575731862 150 72
8244 2687 7155 17.0053845884 150 72
8245 7155 7154 23.3308074873 150 72
8246 2311 7156 16.1330602533 100 70
8247 473 1733 3.92209282184 50 70
8248 1924 392 4.52828728069 75 70
8249 1916 1917 162.037847915 100 70
8250 1902 1903 2.4465417639 150 72
8251 684 545 4.36046476906 150 72
8252 1822 1823 2.20957693934 150 72
8253 1821 1822 2.73745604759 150 72
8254 2986 7240 21.0082848403 85 132
8255 702 3114 21.9501091116 150 72
8256 6444 2508 1.88767052198 85 132
8257 2508 5343 2.07217405213 85 132
8258 7146 7244 2.55440795467 110 132
8259 5343 1254 110.951375589 110 132
8260 7245 2641 1.06712757044 75 132
8261 7246 7247 85.9796077328 110 132
8262 7247 7248 149.467105476 110 132
8263 7249 5577 3.98551145081 85 132
8264 7063 7140 7.14143439045 110 132
8265 5542 2682 35.546518191 85 132
8266 7251 1213 28.6813600688 85 132
8267 1903 1904 1.51352209449 150 72
8268 2009 7218 30.6852043823 75 70
8269 3169 1314 48.6411485151 75 70
8270 1659 7188 17.0009170932 75 70
8271 1616 1915 1.22046876701 200 74
8272 1914 504 1.22341957316 150 72
8273 1913 1914 16.1829084215 150 72
8274 1307 1913 64.6796458589 150 72
8275 675 1910 3.48432821668 150 72
8276 1908 1909 4.34346262314 150 72
8277 1907 1908 3.64991323814 150 72
8278 1905 1906 3.22731093228 150 72
8279 6036 1616 97.935622151 150 72
8280 670 1905 21.3155526183 150 72
8281 1651 3180 56.3201035513 75 70
8282 3178 1651 38.9001555271 75 70
8283 3151 7184 17.8002387625 75 70
8284 3175 1647 3.01026576877 150 72
8285 7185 7186 20.6084227445 150 72
8286 7186 3016 181.359335433 150 72
8287 1654 7187 7.62197480928 150 72
8288 3173 1262 52.1800002393 100 70
8289 1257 1665 25.2288247847 75 70
8290 1738 7145 162.673888661 100 70
8291 1224 1226 19.4761470529 150 72
8292 1226 2619 94.0507123835 150 72
8293 6766 6767 4.77593120647 200 74
8294 6767 6768 2.21287190959 200 74
8295 6768 6769 6.98880311691 200 74
8296 6769 6770 0.352097287393 200 74
8297 6770 6771 0.352097287393 200 74
8298 2779 6772 3.91701249401 200 74
8299 6773 6774 35.9133078678 60 132
8300 6773 6775 43.6032484334 60 132
8301 6765 6773 55.1980044933 60 132
8302 6775 2780 37.3800013109 85 132
8303 3145 6775 44.6622674302 85 132
8304 6774 2779 40.8105403048 200 74
8305 6778 6774 57.7097608907 200 74
8306 6779 6778 21.4216095306 200 74
8307 6765 6779 14.0438638163 200 74
8308 2780 3192 42.7417793268 200 74
8309 2767 2669 43.2801000001 200 74
8310 2784 6765 42.5391537296 200 74
8311 2518 2511 44.2524959748 85 132
8312 2511 1269 41.4373321325 85 132
8313 1425 6449 40.0771995392 85 132
8314 1662 2508 11.3899078138 110 132
8315 1251 5529 215.820277652 85 132
8316 6448 6449 66.246453683 60 132
8317 1259 3142 32.0401264043 85 132
8318 6452 1253 42.7771058138 110 132
8319 6453 6452 52.6176056111 110 132
8320 1252 6453 49.9636277706 110 132
8321 5528 1252 125.989550884 85 132
8322 6105 2767 4.83001035203 200 74
8323 5527 6453 114.845842459 60 132
8324 2504 1253 93.6447768517 60 132
8325 6437 1660 94.353658117 60 132
8326 6454 1256 23.5214806266 60 132
8327 6454 1425 72.6796042015 60 132
8328 6448 6454 39.7813533654 60 132
8329 2509 6448 41.0962387436 60 132
8330 6443 2509 59.0372923537 110 132
8331 6449 6443 41.8504452789 85 132
8332 2505 6452 102.914836531 60 132
8333 1265 1267 102.739950914 85 132
8334 6780 6105 81.770000611 200 74
8335 2778 2969 88.6702826993 110 132
8336 7061 6780 3.98104224186 85 132
8337 2206 7062 16.8397102707 110 132
8338 7062 7063 18.1285096098 110 132
8339 7064 2518 14.9499681848 85 132
8340 7136 7137 3.49342514568 150 135
8341 7137 7138 3.49342514568 150 135
8342 7138 3206 3.68952950983 150 135
8343 1796 1691 14.7810621251 110 70
8344 2640 7141 0.794292137843 150 72
8345 1330 2608 6.25799488628 150 72
8346 669 7142 102.436825029 150 72
8347 7142 1330 1.25992063264 150 72
8348 1906 2803 16.6801404674 150 72
8349 7143 669 34.5133032322 150 72
8350 5577 7143 7.12858935346 150 72
8351 1820 5566 44.0848329933 110 132
8352 2612 2618 5.20158629645 150 72
8353 6071 6070 63.4400070928 85 132
8354 6025 1220 31.5301000001 60 132
8355 7060 1223 128.905979457 110 132
8356 6037 6056 3.80320917137 110 132
8357 6230 3233 40.9100000003 85 132
8358 3194 3193 38.7701464278 85 132
8359 6057 6781 26.8154318982 110 132
8360 6781 6782 226.663392156 110 132
8361 1948 1949 1.70050000027 150 72
8362 353 1947 11.2298131719 150 72
8363 1946 505 1.67223951593 75 70
8364 1944 1945 0.433415504996 150 72
8365 2775 6780 66.2803013543 200 74
8366 1652 1943 38.3766540498 150 72
8367 1941 1808 4.41998091029 150 72
8368 1940 1941 4.41998091022 150 72
8369 1939 1940 3.97838048128 150 72
8370 1938 1939 3.9783804802 150 72
8371 373 1937 0.503587132432 75 70
8372 6088 5564 45.3281042617 110 132
8373 7059 1820 2.84808782289 110 132
8374 5912 6037 8.20035365059 110 132
8375 1904 1942 6.08437880651 150 72
8376 6202 6203 15.6605749574 85 132
8377 6102 6100 35.0900056995 60 132
8378 6200 6190 3.07583679746 85 132
8379 5567 6083 27.7753004307 85 132
8380 6083 2623 25.6264258137 110 132
8381 6084 6083 42.3145795312 110 132
8382 6084 5275 25.1819498847 85 132
8383 5273 6084 41.7366331044 110 132
8384 6122 6120 180.028729244 85 132
8385 5563 5273 41.3163502742 110 132
8386 2635 5272 29.4813856528 75 132
8387 2626 5272 39.7342333516 85 132
8388 6034 1349 10.6389988254 85 132
8389 6086 6034 60.452614402 85 132
8390 2666 6104 41.0701438276 85 132
8391 6104 6103 31.2699999996 60 132
8392 6103 6102 60.9101000001 60 132
8393 6086 2634 28.7135037917 85 132
8394 6087 6086 43.8887972949 60 132
8395 6087 2633 25.6301216323 85 132
8396 1350 6087 73.4339410633 85 132
8397 6088 1350 28.7470763732 85 132
8398 6105 2666 41.5201204233 85 132
8399 6106 2665 30.530104815 85 132
8400 6106 6100 10.5412143513 85 132
8401 6201 6202 11.4120175252 85 132
8402 6149 6150 14.8480538794 85 70
8403 6148 6149 11.694056268 85 70
8404 6147 6148 8.36276563084 85 70
8405 6146 6147 16.0862341769 85 70
8406 6144 6145 38.0407882411 85 132
8407 499 450 2.91331426394 85 132
8408 6142 6133 5.3599951497 85 132
8409 6141 6142 67.3898830358 85 132
8410 6140 1112 4.92779749309 85 132
8411 5566 6089 39.9974191913 110 132
8412 6139 6140 67.7987246139 85 132
8413 6136 6137 65.4867439871 85 132
8414 6111 6108 114.75014366 85 132
8415 1637 6130 40.0638003687 60 132
8416 6129 6121 8.46639216142 85 132
8417 5506 6110 30.7001233463 85 132
8418 6109 6108 45.9221079655 85 132
8419 6108 5538 94.0601765471 85 132
8420 5538 2671 38.4699999999 85 132
8421 6107 2145 16.3809799745 110 132
8422 6137 6138 5.16782555886 85 132
8423 6089 6088 0.2308679281 110 132
8424 2215 2216 20.880000383 400 83
8425 6104 6097 45.1300709061 85 132
8426 6102 6099 45.1501177179 60 132
8427 1348 2617 35.4848037894 110 132
8428 6117 1114 52.1117043475 60 132
8429 2987 5282 295.628073226 85 132
8430 6128 6129 5.06953169041 85 132
8431 6127 6128 8.20684055269 85 132
8432 6119 2565 15.2100821825 60 132
8433 6126 6127 11.5082158872 85 132
8434 6125 6126 12.9972467022 85 132
8435 6097 6101 31.1599999992 60 132
8436 2572 6119 42.760074836 60 132
8437 1916 6124 2.61503117519 85 132
8438 1690 6123 10.8299792635 110 132
8439 6123 6122 3.24997898627 110 132
8440 2569 2568 42.9403772684 60 132
8441 5282 1686 11.9213025145 85 132
8442 5577 6077 42.599160886 85 132
8443 6120 6121 119.968067962 85 132
8444 5576 5270 98.3877026153 110 132
8445 2611 5269 38.3180897225 110 132
8446 5281 6125 6.82836020263 85 132
8447 6150 6151 19.9450994987 85 70
8448 6101 6099 60.9001032843 60 132
8449 6099 6098 35.1700014216 60 132
8450 6103 6101 45.1300099711 60 132
8451 2663 6094 1.90664283137 75 132
8452 1631 2663 23.1156639292 75 132
8453 5543 2123 52.4830220165 85 132
8454 3026 6095 106.735763728 110 132
8455 6095 6096 22.2161804097 110 132
8456 3026 6023 55.6131255913 60 132
8457 6097 6069 39.1700012764 85 132
8458 2655 6069 5.58000000007 60 132
8459 6100 6098 45.1201177304 85 132
8460 2657 2655 36.2801344542 60 132
8461 2654 5276 43.8100559238 60 132
8462 6078 6077 33.210962015 85 132
8463 6078 6079 111.456556105 85 132
8464 6098 2654 39.1800625325 85 132
8465 6079 6080 0.0475446107336 85 132
8466 5580 6078 51.3004191999 85 132
8467 1906 6081 55.2156360834 60 132
8468 1688 6116 95.289656946 60 132
8469 6116 6117 174.70960967 60 132
8470 5276 2657 41.4799999995 60 132
8471 6151 6152 21.3910302929 85 70
8472 5562 6085 29.6013242943 60 132
8473 6112 6109 117.590115359 60 132
8474 5591 6189 17.2629920068 85 132
8475 6164 6165 0.28427952789 110 132
8476 6188 6154 23.2804269938 60 132
8477 5594 6188 18.6682074122 60 132
8478 6145 6170 178.176444274 85 132
8479 6177 6176 43.583534735 85 132
8480 6187 2964 19.1020964562 85 70
8481 6154 6187 16.8043280432 85 70
8482 6169 1681 19.0813213644 110 132
8483 6168 6169 24.3282553832 110 132
8484 6167 6168 17.2416677846 110 132
8485 6174 6175 13.0747585069 85 132
8486 6189 2963 21.3895529868 85 132
8487 499 6174 25.4080007089 85 132
8488 6166 6167 20.8398989683 110 132
8489 6165 6166 21.2344103717 110 132
8490 6112 6111 45.9427295662 85 132
8491 6171 6144 23.9404594775 85 132
8492 2647 6109 52.6901009492 85 132
8493 6157 6186 45.81959009 85 132
8494 6186 6170 15.9442936505 85 132
8495 6111 6113 39.4142344336 85 132
8496 6172 6173 55.7358101764 85 132
8497 6174 6172 25.4562369568 85 132
8498 6175 6176 57.1435757729 85 132
8499 1212 6113 39.3126043146 85 132
8500 1621 6177 83.9601180472 85 132
8501 6190 6191 13.5736885552 85 132
8502 6191 6192 20.5881956707 85 132
8503 6146 6198 5.62057941877 85 132
8504 6152 6153 18.6690052491 85 70
8505 6153 6154 22.8381812984 85 70
8506 2952 6155 43.7607482572 85 132
8507 690 6075 120.561183103 85 132
8508 1681 6156 3.72893148226 60 132
8509 5283 6157 50.9714988986 85 132
8510 6158 6159 2.68404545419 85 132
8511 6077 6076 15.5411003472 85 132
8512 6136 6158 24.3391837175 85 132
8513 6139 6159 72.5221546155 85 132
8514 6198 6199 18.6228541312 85 132
8515 6192 6193 19.2767785696 85 132
8516 6109 2672 122.823252538 60 132
8517 6197 5594 23.3240061954 60 132
8518 6195 6196 20.6183305827 60 132
8519 6190 6195 18.9627513294 60 132
8520 1924 6115 0.343477408685 60 132
8521 6114 6110 2.84952851225 85 132
8522 6194 5591 17.2194383474 85 132
8523 6139 6141 37.907215672 85 132
8524 1682 6160 40.3149988818 60 132
8525 6161 6162 9.44595204251 110 132
8526 1351 6112 44.1399637517 85 132
8527 6193 6194 17.5644792687 85 132
8528 6162 6163 0.126047808742 110 132
8529 6163 6164 1.81350167662 110 132
8530 6196 6197 13.9983156126 60 132
8531 6199 6200 21.0571470285 85 132
8532 6951 6952 4.32671132533 110 132
8533 1576 6275 42.3909285113 60 132
8534 1787 7144 260.108190963 110 62
8535 6276 1575 15.5625479924 110 132
8536 375 6276 40.8638740206 110 132
8537 6272 375 49.1645536748 110 132
8538 2997 373 66.3500970912 150 64
8539 371 1576 52.0798546277 75 62
8540 697 2526 54.4308827778 75 62
8541 6016 6017 8.25067934274 110 132
8542 6015 6014 20.8001698798 110 132
8543 6014 6012 5.73570979395 110 132
8544 2253 2120 38.1809756292 100 62
8545 2120 1798 51.3589901381 100 62
8546 7144 2206 0.905428627266 110 62
8547 6276 372 47.4869287276 60 132
8548 2937 6013 8.75215042968 110 132
8549 1575 6280 31.2363122022 110 132
8550 6275 6253 132.907395716 85 132
8551 1791 1792 2.18476543339 110 132
8552 2584 6064 138.133467495 60 132
8553 5597 5598 44.9679708235 110 132
8554 1233 6118 26.6100075154 85 132
8555 6067 6068 60.0898080482 85 132
8556 6951 2936 63.949034068 110 132
8557 6018 6019 53.5384083353 110 132
8558 9156 1791 1.15088510798 110 62
8559 1936 9156 0.820133238909 110 62
8560 6020 6016 6.30001712554 110 132
8561 6021 6020 47.149988546 110 132
8562 6274 6231 129.660057208 110 132
8563 2938 6951 42.5194943528 110 132
8564 2118 2997 163.063541296 110 132
8565 6272 5597 131.386345121 85 132
8566 6273 6274 3.17011435127 110 132
8567 6060 6061 1.93300256831 110 132
8568 6061 6062 2.02673230828 110 132
8569 6062 6063 14.0757949926 110 132
8570 6063 6015 28.8689456099 110 132
8571 6064 6011 27.0026739417 60 132
8572 2528 6064 44.7802515619 60 132
8573 1935 1936 5.67566736136 150 64
8574 5278 2529 50.210015933 85 132
8575 2194 2195 14.0899303194 60 132
8576 6093 2194 96.7324203464 60 132
8577 2526 2527 75.2531723583 85 132
8578 697 2528 97.8644244455 60 132
8579 1232 2561 32.6362978604 85 132
8580 2529 2111 100.4498131 60 132
8581 6955 6090 58.1734045767 110 132
8582 6091 7241 4.46225939588 110 132
8583 1345 2528 46.0200043464 85 132
8584 6184 6955 24.8200987108 110 132
8585 696 1927 71.0617302493 75 62
8586 6183 6118 22.3543306772 110 132
8587 6061 6183 0.796708133343 110 132
8588 6954 6061 34.8339721802 110 132
8589 2943 1232 27.1087293632 85 132
8590 2941 2942 67.6456683614 110 132
8591 2938 2941 29.2534497796 110 132
8592 2526 2524 25.6404387644 60 132
8593 2524 2525 15.2505721206 60 132
8594 6019 6058 4.2596260797 110 132
8595 6058 2133 13.6300582087 110 132
8596 374 1935 25.5257301565 150 64
8597 1798 1799 49.8886540209 100 62
8598 371 377 80.609738865 75 62
8599 375 376 131.367259171 85 62
8600 373 374 60.5671725271 150 64
8601 371 372 64.0415208446 60 62
8602 5252 5222 6.18945366579 110 132
8603 2939 2940 14.4580463479 110 132
8604 6953 6021 5.65003511664 110 132
8605 7608 2943 0.00710633526573 110 132
8606 7607 696 0.200000000186 75 62
8607 1571 7607 42.2604968867 75 62
8608 5225 367 99.4175955058 110 132
8609 2580 6011 44.7400044705 85 132
8610 2524 2522 15.2300295474 60 132
8611 6059 6060 3.05153339856 110 132
8612 2522 2523 44.250236474 60 132
8613 2529 6093 49.7302003419 85 132
8614 2132 2939 48.6826712664 110 132
8615 2561 2937 2.85588943959 85 132
8616 3056 6011 161.748412666 60 132
8617 6012 2937 110.806268897 110 132
8618 2194 6092 52.0200086501 60 132
8619 1792 1793 9.0068767269 110 132
8620 6445 6221 16.6407692127 60 132
8621 1232 1233 60.8494559223 85 132
8622 1575 1576 41.2021034411 75 62
8623 6248 5598 131.049799008 110 132
8624 5280 6281 148.868981598 60 132
8625 6282 6259 17.1007755675 60 132
8626 6281 6282 124.519708192 60 132
8627 6248 6272 55.7283839883 110 132
8628 6067 6092 96.8001253105 60 132
8629 6093 6067 51.4200155581 85 132
8630 1352 1353 15.2306434528 60 132
8631 1110 6065 73.4376489827 85 132
8632 2528 1110 54.1801083052 85 132
8633 1345 1927 27.3045783705 85 132
8634 2527 3173 61.0050296041 85 132
8635 2935 2936 17.6913558393 110 132
8636 2117 2118 8.91564981935 110 132
8637 2119 2120 4.19030313946 60 132
8638 6178 6954 6.45000775212 110 132
8639 2940 6178 44.9038459381 110 132
8640 367 6281 39.7145109254 75 62
8641 2132 2133 1.60984641522 110 132
8642 2937 2938 48.9874746487 85 132
8643 1799 7139 119.45764234 100 62
8644 2942 6091 48.1997367833 110 132
8645 6090 6091 52.0714989229 110 132
8646 6013 6090 35.5073020656 110 132
8647 1353 6451 16.4433117106 60 132
8648 6451 6450 49.2801988626 60 132
8649 6450 6445 15.4900516464 60 132
8650 6445 2527 22.0507346814 60 132
8651 7139 7140 1.37770208991 100 62
8652 6017 6018 38.5795245542 110 132
8653 2936 6953 51.8404002512 110 132
8654 2523 1111 15.8500127444 60 132
8655 6178 6179 21.0500023751 110 132
8656 2525 6222 43.0647558921 60 132
8657 2195 1799 9.45021991263 60 132
8658 7241 7242 5.71701381109 110 132
8659 3156 6065 61.9563498764 85 132
8660 1344 1345 80.5601620649 85 132
8661 6065 1353 26.2051597974 85 132
8662 5222 5280 41.2020688052 60 132
8663 2667 5278 45.9100098019 85 132
8664 6231 1936 44.4388354926 110 132
8665 5252 6232 7.06252332032 110 132
8666 6233 376 6.96132889563 110 132
8667 5248 5252 41.4803137782 110 132
8668 5251 5248 0.763447194818 110 132
8669 2111 1798 9.89037478899 60 132
8670 2112 2113 5.42202893583 110 132
8671 2113 2114 5.425018424 110 132
8672 2114 2115 5.4209019936 110 132
8673 2115 2116 8.914025987 110 132
8674 2116 2117 8.92079272333 110 132
8675 6233 6244 2.82373600086 110 132
8676 1110 1111 27.6801018068 60 132
8677 6180 6181 20.29 85 132
8678 5278 2119 96.1599022069 60 132
8679 6222 1111 15.413786037 60 132
8680 8441 6184 10.7039291853 110 132
8681 374 7265 0.509901951469 85 132
8682 1793 7264 9.00100996382 110 132
8683 696 697 47.7221217054 75 62
8684 6247 367 92.4179214221 110 132
8685 6253 377 52.1188792085 110 132
8686 6231 6253 47.4655770009 110 132
8687 7608 8441 8.22358345474 110 132
8688 377 6233 122.647984884 110 132
8689 376 5597 49.6664484341 110 132
8690 5598 2118 40.9553088875 110 132
8691 6182 6180 17.3208342758 85 132
8692 377 373 41.8403166819 110 132
8693 6248 5280 1.0340696297 110 132
8694 6118 8440 13.532497921 110 132
8695 6221 1352 49.633626706 60 132
8696 6954 8439 4.05976048152 110 132
8697 6184 6185 25.5308852576 85 132
8698 8440 2943 47.3181016738 110 132
8699 6183 6182 34.7299999995 85 132
8700 3734 3735 8.74204269112 110 132
8701 3739 1040 15.1198067536 110 132
8702 3735 3736 3.9382239048 110 132
8703 42 3740 6.68914378959 60 132
8704 7083 7084 5.28972008012 32 135
8705 3738 3733 41.1952479934 110 132
8706 1038 3738 0.357248162866 110 132
8707 972 973 25.870033633 32 135
8708 3736 3737 5.90687897721 110 132
8709 1439 7083 46.3448749476 32 135
8710 3740 3741 6.37279863373 60 132
8711 5770 5771 20.0819653149 60 132
8712 2056 3743 9.01965954227 60 132
8713 6513 3722 2.56813510927 32 135
8714 6512 6513 3.50515642665 32 135
8715 6511 6512 2.76939520635 32 135
8716 6510 6511 2.8691536473 32 135
8717 6509 6510 2.26254966106 32 135
8718 6508 6509 1.2802830938 32 135
8719 6507 6508 3.65182156396 32 135
8720 3733 3734 9.1414920059 110 132
8721 6505 6506 20.4655775967 60 132
8722 2104 2105 50.000135464 110 132
8723 2105 2106 49.9999974654 110 132
8724 5774 1070 3.18027401474 60 132
8725 2106 2107 58.5958934722 110 132
8726 3744 3745 30.3216961315 60 132
8727 3743 3744 24.2508699346 60 132
8728 3741 3742 63.6073438503 60 132
8729 3731 3732 8.40015228745 110 132
8730 2881 2882 14.3507388693 60 132
8731 3729 3730 49.9999428808 110 132
8732 3718 1434 8.57070346132 32 135
8733 951 925 10.092303018 60 132
8734 945 951 26.7880072541 60 132
8735 950 944 1.58191687539 60 132
8736 949 950 1.25310136817 60 132
8737 948 949 1.25310136909 60 132
8738 43 44 6.52029568897 60 132
8739 1432 3718 28.3501205359 60 132
8740 42 43 12.230813352 60 132
8741 946 947 16.1824756599 60 132
8742 5900 5901 21.6475129064 60 132
8743 5899 5900 18.5936784378 60 132
8744 5898 5899 6.78704341037 60 132
8745 3745 5898 14.5627951172 60 132
8746 5777 5778 107.676132285 60 132
8747 5776 5769 19.5782009086 60 132
8748 947 948 10.4182948126 60 132
8749 3719 1432 21.3994426899 60 132
8750 2876 2877 4.46090414733 60 132
8751 2877 2878 10.4166484561 60 132
8752 3728 3729 50.0000770207 110 132
8753 3727 3728 50.0000950945 110 132
8754 3726 3727 49.9999603746 110 132
8755 3725 3726 50.0000893947 110 132
8756 3724 3725 49.999997595 110 132
8757 3723 3724 50.0000673112 110 132
8758 1080 3723 39.044853595 110 132
8759 3719 3722 70.1130386307 32 135
8760 3720 3721 6.85658086343 32 135
8761 2885 2886 19.306948765 60 132
8762 2884 2885 6.2144523951 60 132
8763 2883 2884 8.46705567269 60 132
8764 2882 2883 11.9315891436 60 132
8765 1435 6514 4.80328488952 32 135
8766 2880 2881 25.5100376857 60 132
8767 2879 2880 13.2334734158 60 132
8768 2878 2879 12.6698464077 60 132
8769 3730 3731 50.0000177057 110 132
8770 6515 6516 4.37820036996 32 135
8771 2058 2059 20.8451343197 60 132
8772 3718 6515 44.1900003176 32 135
8773 1078 1079 24.404304743 85 132
8774 1077 929 8.61827280429 60 132
8775 1076 1077 6.0169945086 60 132
8776 1075 1076 10.0766889094 60 132
8777 1108 1102 4.78905191962 110 132
8778 1074 1075 14.6825956436 60 132
8779 1073 1074 15.0615285813 60 132
8780 1072 1073 11.7699695516 60 132
8781 1071 1072 4.96790399503 60 132
8782 1070 1071 10.4881625175 60 132
8783 800 5774 19.0700860991 60 132
8784 1431 1432 32.9205912389 32 135
8785 1433 1434 35.9708400737 32 135
8786 5907 3689 26.9013378918 60 132
8787 5906 5907 29.6973767702 60 132
8788 5932 5933 20.5416644168 85 132
8789 5933 5934 21.9240274813 85 132
8790 5934 5935 10.2150302002 85 132
8791 5935 5936 12.569771876 85 132
8792 1102 1340 3.37662404743 110 132
8793 1109 9179 4.43566670736 110 132
8794 1108 1109 9.07951460238 110 132
8795 6567 3958 7.84348500261 85 132
8796 5985 5905 12.690962583 60 132
8797 5984 5985 13.4870691144 60 132
8798 5983 5984 8.30526251284 60 132
8799 5905 5906 15.1210056096 60 132
8800 5982 5983 2.47364728695 60 132
8801 5980 5981 21.2686815888 60 132
8802 3745 5980 11.1257517946 60 132
8803 1080 1081 20.0511095254 85 132
8804 3958 5932 14.3524872412 85 132
8805 5937 3940 17.7312585564 85 132
8806 3957 5937 10.7525901993 85 132
8807 5936 3957 8.05184711805 85 132
8808 5981 5982 6.36288265616 60 132
8809 5904 3686 20.7299562074 60 132
8810 5903 5904 26.3007935461 60 132
8811 973 1435 47.5463002452 32 135
8812 2061 2062 21.5029737195 60 132
8813 972 6567 9.38938042944 85 132
8814 6506 3719 74.530428109 60 132
8815 6506 3720 115.300107976 32 135
8816 2062 2063 20.0829167626 60 132
8817 2063 2064 23.346068 60 132
8818 1078 2101 38.4745708336 110 132
8819 2060 2061 19.6359842153 60 132
8820 2101 2102 49.99996748 110 132
8821 2103 2104 50.000030102 110 132
8822 1340 1341 10.8367214256 110 132
8823 5602 6505 94.484473515 60 132
8824 1439 5605 21.900050179 32 135
8825 6534 1438 10.1409431989 85 132
8826 5605 6534 27.6059283096 85 132
8827 1438 972 44.9993236455 85 132
8828 2102 2103 49.99999388 110 132
8829 1434 917 22.0500391556 32 135
8830 2059 2060 21.8929669254 60 132
8831 9164 940 17.4672600263 85 132
8832 940 1436 2.20411017219 110 132
8833 1436 1437 47.0671046684 110 132
8834 1438 1433 42.7492969421 32 135
8835 5902 5903 17.3484863253 60 132
8836 5901 5902 20.2915685316 60 132
8837 6730 2052 7.29851448769 60 132
8838 1439 1431 34.9294253541 32 135
8839 5775 5776 21.2831073206 60 132
8840 3742 6730 6.8252091259 60 132
8841 1038 1039 0.83178173215 110 132
8842 2052 2053 19.9641211982 60 132
8843 2053 2054 23.9583856065 60 132
8844 2054 2055 20.3280737516 60 132
8845 2055 789 16.2746627 60 132
8846 2056 2057 16.7438746676 60 132
8847 2057 2058 18.1472040668 60 132
8848 1039 1040 7.77336571906 110 132
8849 789 5775 21.271238902 60 132
8850 5700 5701 22.0125799709 60 132
8851 5773 5774 3.82710763414 60 132
8852 9163 9164 0.020359273481 85 132
8853 5697 9163 25.0095123603 85 132
8854 9162 3703 0.00412310571416 60 132
8855 6298 9162 17.2698619353 60 132
8856 3715 3716 17.47732078 60 132
8857 3714 3715 29.1094707834 60 132
8858 3713 3714 30.1508323349 60 132
8859 917 918 4.86127721901 32 135
8860 1437 9165 0.027485450248 110 132
8861 3712 3713 18.5141165733 60 132
8862 3710 3711 20.2232583489 60 132
8863 3709 3710 23.4671259772 60 132
8864 3708 3709 24.2314847045 60 132
8865 3707 3708 21.6155667106 60 132
8866 3706 3707 23.068899385 60 132
8867 3705 3706 22.9941195555 60 132
8868 3704 3705 25.3131505958 60 132
8869 3703 3704 24.9445585783 60 132
8870 3711 3712 22.0459189664 60 132
8871 9165 9166 11.2625261688 110 132
8872 3716 3717 19.5816225784 60 132
8873 5702 5703 20.9221155785 60 132
8874 5714 6297 22.0568932727 60 132
8875 5769 3681 12.1392495606 60 132
8876 1079 5715 17.9259640352 85 132
8877 5713 5714 8.83630485931 60 132
8878 5712 5713 21.0887289599 60 132
8879 5711 5712 22.0447407208 60 132
8880 5710 5711 28.8224616884 60 132
8881 5709 5710 24.86922966 60 132
8882 5708 5709 24.2076933234 60 132
8883 5707 5708 21.0485603837 60 132
8884 5706 5707 26.1351640509 60 132
8885 5705 5706 19.3925838827 60 132
8886 6284 6285 37.4125840859 85 132
8887 5704 5705 18.7883054291 60 132
8888 5703 5704 25.6021033708 60 132
8889 928 929 25.065835963 110 132
8890 927 928 25.2784856477 110 132
8891 926 927 7.8552245445 110 132
8892 925 926 10.076881829 110 132
8893 3701 3702 22.2059068481 60 132
8894 3700 3701 15.6226265718 60 132
8895 3695 3700 20.9707749648 60 132
8896 3699 2064 17.7360144627 60 132
8897 3683 3684 12.9843991139 85 132
8898 941 3683 16.995906806 85 132
8899 3682 932 22.4509201781 60 132
8900 3681 3682 7.35918026406 60 132
8901 3680 941 44.4515166735 85 132
8902 799 800 14.2712690013 60 132
8903 798 799 16.2539374016 60 132
8904 797 798 11.2559696042 60 132
8905 796 797 2.18003772396 60 132
8906 795 796 3.03836985886 60 132
8907 794 795 0.0265369547648 60 132
8908 793 794 17.5109777353 60 132
8909 792 793 0.0187387293509 60 132
8910 791 792 16.1765016707 60 132
8911 790 791 25.8780996594 60 132
8912 3679 945 18.5666808288 60 132
8913 3678 3679 26.9002801538 60 132
8914 932 3678 23.0268836115 60 132
8915 789 790 20.7139898776 60 132
8916 3685 3686 11.0161580398 60 132
8917 2107 1341 86.2042439904 110 132
8918 2064 3687 21.9225060111 60 132
8919 3688 3685 22.440127255 60 132
8920 3698 3699 21.1127627688 60 132
8921 3697 3698 23.7776910525 60 132
8922 3696 3697 20.6487138731 60 132
8923 3695 3696 15.2412314266 60 132
8924 3694 3686 14.8030416794 60 132
8925 3693 3694 4.33296649974 60 132
8926 3692 3693 18.9850858557 60 132
8927 3691 3692 23.3264272482 60 132
8928 5701 5702 23.2802499098 60 132
8929 3690 3691 21.0484712839 60 132
8930 5699 5700 19.794699277 60 132
8931 5698 5699 19.8666033832 60 132
8932 3702 5698 24.5851345566 60 132
8933 1081 5697 10.9220683175 85 132
8934 5697 1079 8.32959268206 85 132
8935 5604 5605 9.68570646298 85 132
8936 5603 5604 55.6136261073 85 132
8937 5602 5603 33.9416263156 85 132
8938 3689 3690 13.0456086485 60 132
8939 3687 3688 18.3951951601 60 132
8940 5714 2107 56.2556302628 60 132
8941 6297 6298 41.0516607979 60 132
8942 3732 6299 11.2005586736 85 132
8943 940 941 7.05727577837 60 132
8944 939 940 15.4444610252 60 132
8945 5746 5747 18.9787942805 60 132
8946 5745 5746 24.9426368944 60 132
8947 5744 5745 22.4228591152 60 132
8948 5743 5744 22.9716890104 60 132
8949 938 939 26.122285567 60 132
8950 937 938 22.1950805726 60 132
8951 5747 5748 20.0606373073 60 132
8952 5742 5721 25.0775380211 60 132
8953 935 936 23.2563158863 60 132
8954 9169 941 16.545030996 60 132
8955 5741 5742 25.6479658106 60 132
8956 5740 5741 21.4854376332 60 132
8957 5738 5739 21.230312314 60 132
8958 5737 5738 20.7990923381 60 132
8959 1341 3732 19.4444185856 110 132
8960 934 935 22.132868945 60 132
8961 936 937 17.7018402101 60 132
8962 5748 5749 28.5955816968 60 132
8963 5749 5750 29.2230977481 60 132
8964 5750 5751 23.1868197567 60 132
8965 5772 5773 22.3343215834 60 132
8966 5771 5772 25.3769728696 60 132
8967 5769 5770 14.093704995 60 132
8968 5768 2886 5.82302756467 60 132
8969 5767 5768 4.20960372546 60 132
8970 5766 5767 9.20857146011 60 132
8971 930 5766 9.47401667695 60 132
8972 945 946 23.5686352138 60 132
8973 943 944 13.0725053225 60 132
8974 942 943 22.5430520847 60 132
8975 3717 3695 19.0057774692 60 132
8976 933 942 25.0584517639 60 132
8977 5757 5740 30.6862297536 60 132
8978 5756 5757 25.5657628317 60 132
8979 5755 5756 26.3682858068 60 132
8980 5754 5755 23.2359582198 60 132
8981 5753 5754 22.6470258304 60 132
8982 5752 5753 26.5536429329 60 132
8983 5751 5752 23.0110495201 60 132
8984 9168 5777 21.3789483884 60 132
8985 933 934 17.4984523306 60 132
8986 5778 9169 23.9273471675 60 132
8987 5735 5736 20.8679808794 60 132
8988 9167 3739 7.48024614044 110 132
8989 5721 5724 24.5339896882 60 132
8990 5736 5737 17.9938309344 60 132
8991 3682 9167 2.0973648227 110 132
8992 9166 3682 1.71007408377 110 132
8993 5723 1081 1.22808809187 85 132
8994 1079 5722 9.20602488954 85 132
8995 5720 5721 20.4470661574 60 132
8996 5719 5720 20.4335488907 60 132
8997 5718 5719 21.0078870078 60 132
8998 5717 5718 7.97925153761 60 132
8999 5716 3702 15.3316875379 85 132
9000 5715 5716 23.5398745765 85 132
9001 6300 5743 196.227115911 60 132
9002 930 931 24.5644008634 110 132
9003 5739 6301 118.910611106 60 132
9004 6301 6284 17.7249224609 60 132
9005 6284 6300 97.8541450438 85 132
9006 6299 6285 26.5387510008 85 132
9007 5724 5725 22.9534271349 60 132
9008 3681 3680 17.7485768758 85 132
9009 5717 5723 1.72839736155 85 132
9010 9270 9271 2.37878428009 60 132
9011 2886 3737 0.357474824254 60 132
9012 3737 9270 2.74757779905 60 132
9013 5734 5735 18.6126569248 60 132
9014 5733 5734 27.4096282291 60 132
9015 44 9168 31.300532614 60 132
9016 5731 5732 23.0009653056 60 132
9017 5730 5731 28.0975525674 60 132
9018 5729 5730 23.863950272 60 132
9019 5732 5733 21.6943144345 60 132
9020 931 932 24.4712799996 110 132
9021 5725 5726 23.0897964532 60 132
9022 5728 5729 26.8380026768 60 132
9023 5727 5728 25.0452762455 60 132
9024 5726 5727 30.0556392134 60 132
9025 1919 1920 23.0260656651 150 135
9026 2252 9088 6.18300668054 500 71
9027 1923 8888 40.305248005 150 135
9028 1932 1933 20.443671436 150 55
9029 1920 1921 20.1986126253 150 135
9030 9087 1931 14.1703526354 150 55
9031 1922 1923 23.5071573143 150 135
9032 1921 1922 18.7749348067 150 135
9033 1931 1932 0.0192010411887 150 55
9034 9088 8110 4.72726063284 500 71
9035 2395 2396 42.2449405573 32 135
9036 7191 7192 18.709809693 85 132
9037 2391 2392 8.33440815688 32 135
9038 2390 2391 33.3746093312 32 135
9039 2389 2390 10.391877059 32 135
9040 2388 2389 11.58009411 32 135
9041 2387 2388 17.7704332435 32 135
9042 2386 2387 11.6523925381 32 135
9043 2385 2386 14.5438960025 32 135
9044 2392 2393 82.5141728837 32 135
9045 2384 2385 14.4418181596 32 135
9046 2382 2383 15.7207025658 32 135
9047 2381 2382 23.078157702 32 135
9048 2380 2381 31.7689638301 32 135
9049 7282 7283 6.1996552319 60 132
9050 7281 7282 14.3175586258 60 132
9051 7280 7281 6.11539050254 60 132
9052 7279 7280 6.73948143452 60 132
9053 2383 2384 23.0202089242 32 135
9054 7278 7279 11.615755162 60 132
9055 2357 2394 19.2996585017 32 135
9056 9086 9087 1.55952455576 150 55
9057 2462 2463 20.0526929863 85 132
9058 2461 2462 22.9274955456 85 132
9059 2460 2461 22.5215880876 85 132
9060 2459 2460 77.2167695001 85 132
9061 2458 2459 22.5281425109 85 132
9062 2457 2458 6.14067919719 85 132
9063 7285 7286 21.2104443137 60 132
9064 2394 2395 19.8350869976 32 135
9065 2418 2446 7.81100188868 32 135
9066 2439 2440 4.67887560144 32 135
9067 2438 2439 3.79967357779 32 135
9068 2437 2438 3.20856862756 32 135
9069 1763 2437 18.0000090702 32 135
9070 7284 7285 16.8301540101 60 132
9071 7283 7284 17.95100805 60 132
9072 869 2197 1.91962259083 85 132
9073 2440 2441 143.078085625 32 135
9074 2463 2464 21.7608378747 85 132
9075 2372 2373 17.6559776 85 132
9076 2370 2371 19.3178388539 85 132
9077 7276 7277 10.7419027177 60 132
9078 7275 7276 14.0376310317 60 132
9079 7277 7278 15.5160260707 60 132
9080 7267 6473 8.3884428808 85 132
9081 1699 7267 5.94026929995 85 132
9082 2251 2252 16.4954950539 500 71
9083 2250 2251 11.6386133792 500 71
9084 2247 624 15.3954227617 400 66
9085 2245 2246 11.4881631188 500 71
9086 2371 2372 17.2178498368 85 132
9087 2369 2370 17.9135475266 85 132
9088 2368 2369 32.1061574786 85 132
9089 2358 2367 4.58004388593 32 135
9090 2359 2366 4.29705398868 32 135
9091 2360 2365 4.40299866072 32 135
9092 2361 2364 4.40643280792 32 135
9093 2362 2363 1.19319237278 32 135
9094 2361 2362 3.82479826552 32 135
9095 2359 2360 4.23450334823 32 135
9096 2358 2359 4.10475756433 32 135
9097 1370 2358 19.6431878232 32 135
9098 2356 2357 38.9598845695 60 132
9099 2360 2361 4.23664023716 32 135
9100 6468 7191 20.3494186741 85 132
9101 2464 2465 19.3050168868 85 132
9102 46 47 17.3991621063 110 132
9103 7212 7213 19.4697651244 85 132
9104 7213 7214 21.8647080476 85 132
9105 7214 7215 21.120857203 85 132
9106 7215 7216 20.8501011988 85 132
9107 7216 2457 22.1158052529 85 132
9109 7211 7212 30.8399091605 85 132
9110 7210 7211 23.4538672502 85 132
9111 7208 7209 20.4003304385 85 132
9112 7192 7193 19.043102295 85 132
9113 7193 7194 37.1663818521 85 132
9114 7194 7195 23.051328053 85 132
9115 7195 7196 19.9450149155 85 132
9116 7196 7197 16.3672540464 85 132
9117 7197 7198 18.8250094289 85 132
9118 7198 7199 20.7541903478 85 132
9119 7209 7210 21.9809906285 85 132
9120 7199 7200 31.3086590101 85 132
9121 7201 7202 26.346204376 85 132
9122 7202 7203 20.5123816752 85 132
9123 7203 7204 20.4506165189 85 132
9124 7204 7205 19.0166533597 85 132
9125 7205 7206 21.8881294082 85 132
9126 7206 7207 26.1271732306 85 132
9127 7207 7208 24.0253377078 85 132
9128 7200 7201 16.2442374393 85 132
9129 45 46 50.0050685433 110 132
9130 2470 2471 22.9677245072 85 132
9131 2469 2470 20.3182320585 85 132
9132 2468 2469 20.7220257943 85 132
9133 2467 2468 21.3751061984 85 132
9134 2466 2467 20.4957026711 85 132
9135 2465 2466 22.2944101741 85 132
9136 56 57 21.0228579646 110 132
9137 2471 2472 22.8110415587 85 132
9138 55 56 18.4721898004 110 132
9139 53 54 27.5074769478 110 132
9140 52 53 24.4033791304 110 132
9141 51 52 24.8111640194 110 132
9142 50 51 18.8315736203 110 132
9143 49 50 17.7495365569 110 132
9144 48 49 19.4909262221 110 132
9145 47 48 23.4761954541 110 132
9146 54 55 15.3006738735 110 132
9147 57 58 17.282425119 110 132
9148 2472 2473 21.7133617846 85 132
9149 7293 7294 10.8889195978 60 132
9150 7292 7293 12.6303184439 60 132
9151 7291 7292 12.3080750728 60 132
9152 7290 7291 17.7383665818 60 132
9153 7289 7290 10.2537865206 60 132
9154 2356 7289 6.3453357298 60 132
9155 7288 2356 12.9523651178 60 132
9156 58 59 19.9251093094 110 132
9157 7287 7288 17.1396341848 60 132
9158 61 62 17.0624914946 110 132
9159 2476 1699 8.72692683586 85 132
9160 60 61 18.3664359363 110 132
9161 2475 2476 18.4719744747 85 132
9162 2474 2475 20.6636160681 85 132
9163 59 60 22.1513653309 110 132
9164 2473 2474 21.2424406319 85 132
9165 7286 7287 18.8880356843 60 132
9166 2246 9086 4.22280681981 150 55
9167 493 494 1.80577794934 100 53
9168 1783 1784 6.34980910759 500 71
9169 7217 7659 4.32550825337 150 55
9170 7612 6468 0.924748403889 85 132
9171 8309 6469 0.846526249327 85 53
9172 7623 1318 24.2044423401 85 132
9173 8308 8309 0.106741650624 85 53
9174 6467 8308 0.479080087107 85 53
9175 8108 8882 0.391410845368 500 71
9176 8882 8883 1.30448854782 500 71
9177 8883 1783 0.762019421812 500 71
9178 8888 1673 22.2962429998 150 135
9179 1673 8889 2.93112342977 110 132
9180 8889 1270 10.9263022593 110 132
9181 1782 8890 31.9548688365 32 135
9182 8890 8891 113.69258232 32 135
9183 2457 7275 9.8360370578 60 132
9184 7220 7623 22.4996101524 32 135
9185 1705 1706 19.1042763013 85 132
9186 1704 1705 24.0888254795 85 132
9187 1703 1704 21.4075370138 85 132
9188 1702 1703 24.1188184004 85 132
9189 1701 1702 19.1106948611 85 132
9190 1700 1701 2.04949849982 85 132
9191 1699 1700 12.4319210503 85 132
9192 2393 6472 8.70288339871 32 135
9193 1679 1680 87.0413292234 110 132
9194 1678 1679 45.630706087 110 132
9195 1677 1678 26.8040412063 110 132
9196 1676 1677 22.7852678069 110 132
9197 1706 1707 29.7383180762 85 132
9198 2197 7612 0.976403450886 85 132
9199 1707 1708 16.6634206871 85 132
9200 1709 1710 13.141989081 85 132
9201 2197 6467 2.47360962339 85 132
9202 6468 6469 2.4403874602 85 132
9203 2363 6470 6.7699903841 32 135
9204 2362 6471 4.35059229265 32 135
9205 1727 1728 4.29408155726 150 55
9206 1719 1720 18.6369942321 85 132
9207 1718 1719 12.0815003206 85 132
9208 1717 1718 17.5360197588 85 132
9209 1673 1674 0.471870797745 110 132
9210 1716 1717 18.3705055998 85 132
9211 1715 1716 18.9725538612 85 132
9212 1714 1715 17.7262789379 85 132
9213 1713 1714 21.6484711937 85 132
9214 1712 1713 20.5039755411 85 132
9215 1711 1712 18.499604996 85 132
9216 1710 1711 19.117962234 85 132
9217 1708 1709 19.0371481587 85 132
9218 1675 1676 23.3128372576 110 132
9219 490 491 10.7276697946 300 62
9220 495 496 2.35672831752 100 53
9221 639 490 6.38712207227 500 71
9222 624 625 4.14427810369 400 66
9223 8802 8803 10.1751206314 110 53
9224 8803 8804 9.42542816214 110 53
9225 8804 8805 24.3997078059 110 53
9226 8805 8806 18.7840804942 110 53
9227 494 495 5.46026707702 100 53
9228 8807 8808 19.9257642507 110 53
9229 871 872 7.12859312817 100 53
9230 870 871 3.90130794769 100 53
9232 868 869 0.522037020216 85 132
9233 867 868 2.02014955141 85 132
9234 866 867 5.56083546202 85 132
9235 810 811 9.48340213718 400 66
9236 8106 8107 1.79448169643 500 71
9237 8107 8108 2.77301973503 500 71
9238 490 8106 4.75383890033 500 71
9239 2246 639 3.22320849383 500 71
9240 491 8109 3.18404322339 300 62
9241 8110 2245 3.12834529576 500 71
9242 639 8111 13.0973497404 300 62
9243 8111 8112 7.53179769549 300 62
9244 8806 8807 19.3268750188 110 53
9245 1933 1919 24.9752207192 150 55
9246 1934 1727 4.15540643633 150 55
9247 8811 8812 31.8391551701 110 53
9248 8812 8813 45.804739602 110 53
9249 8813 8814 20.7438888597 110 53
9250 8814 8815 18.7407923257 110 53
9251 8815 8816 22.0348637389 110 53
9252 8816 8817 23.9677198336 110 53
9253 8817 8818 22.4276443032 110 53
9254 8818 8819 19.2529382952 110 53
9255 8819 8820 22.0055159679 110 53
9256 8820 2368 35.9135508262 110 53
9257 8821 8822 22.0633502673 110 132
9258 8822 8823 22.9820262382 110 132
9259 8823 8824 41.1321611993 110 132
9260 8824 8825 21.684294063 110 132
9261 8825 8802 21.5045506811 110 132
9262 62 8821 16.1876260452 110 53
9263 1680 45 41.0734546147 110 53
9264 625 810 3.91016045938 400 66
9265 8809 8810 20.9104881107 110 53
9266 8810 8811 27.2680620692 110 53
9267 8808 8809 19.4036170856 110 53
9268 1674 1675 18.6112289222 110 132
9269 1318 1319 16.6657740897 32 135
9270 1319 1320 26.841953928 32 135
9271 1320 1321 9.01066274082 32 135
9273 7517 811 19.6001492709 200 57
9274 7512 7517 33.9279887872 200 57
9275 1441 5921 11.7697148689 110 132
9276 7068 7069 22.0050840533 32 135
9277 7069 6846 20.2520870279 32 135
9278 1502 7070 10.9279690945 110 132
9279 7070 2895 264.460678939 110 132
9280 7075 7076 1.50449236892 110 132
9281 801 802 20.4911219799 300 58
9282 7076 5987 1.28101549218 110 132
9283 5987 7077 9.02252041139 110 132
9284 5923 7075 1.47976284903 110 132
9285 5989 5986 1.59163419138 110 132
9286 6390 1546 12.4161354977 150 135
9287 5921 5922 62.3832131135 110 132
9288 5922 5923 80.6789948985 110 132
9289 6365 7068 14.7636325316 32 135
9290 7065 7066 88.5516089231 110 132
9291 6851 2905 3.60411749266 32 135
9292 6850 6851 0.501281078481 32 135
9293 6849 6850 0.397130772359 32 135
9294 6848 6849 2.07879230788 32 135
9295 6846 6847 2.07875385017 32 135
9296 5988 7065 74.5447635205 110 132
9297 1464 5989 2.03740667046 110 132
9298 5986 5987 1.89341385058 110 132
9299 7066 2265 17.2300769715 110 132
9300 1446 5581 2.63595689118 60 132
9301 1497 1498 64.5290871621 150 135
9302 5581 7067 50.7126673993 60 132
9303 7067 1364 39.1563619544 60 132
9304 5987 5988 2.06725538891 110 132
9305 6847 6848 2.07866154057 32 135

[COORDINATES]
0 200880.3659 8252685.9635
1 200884.8594 8252680.5713
2 200886.0902 8252677.8637
3 200887.8132 8252675.4023
4 200888.7978 8252673.9254
5 200890.7669 8252669.2486
6 200891.5054 8252666.0487
7 200891.9977 8252663.5873
8 200892.7267 8252661.1774
9 200893.2284 8252657.6798
10 200893.2284 8252655.4644
11 200893.2767 8252654.3774
12 200892.7361 8252650.0492
13 200892.49 8252647.0955
14 200892.1667 8252644.9074
15 200891.2592 8252642.1726
16 200890.1567 8252638.8874
17 200888.5516 8252636.0189
18 200856.1167 8252550.9673
19 200855.7167 8252550.0773
20 200855.3466 8252549.1542
21 200854.9358 8252548.5488
22 200854.5804 8252548.2136
23 200853.7237 8252547.7515
24 200853.2483 8252547.6388
25 200852.5167 8252547.6282
26 200851.8067 8252547.8073
27 200790.6166 8252593.6673
28 200788.7766 8252766.4275
29 200716.5537 8252829.419
30 200630.494 8252905.162
31 200630.3912 8252905.2629
32 200568.045 8252656.51
33 200564.5498 8252675.1843
34 200612.807 8252905.865
35 200575.382 8252638.576
36 200575.806 8252643.061
37 200561.3964 8252631.1573
38 200569.4665 8252624.4473
39 200790.1366 8252768.1675
40 200574.209 8252637.668
41 200795.9548 8252775.0365
42 204068.0398 8256996.3042
43 204080.1423 8256998.0712
44 204086.0905 8257000.742
45 201441.404 8255529.409
46 201392.908 8255517.217
47 201375.977 8255513.208
48 201352.534 8255511.96
49 201333.353 8255508.498
50 201316.741 8255502.246
51 201298.244 8255498.712
52 201273.506 8255496.808
53 201249.139 8255495.476
54 201221.641 8255494.754
55 201206.366 8255495.64
56 201187.902 8255496.19
57 201166.891 8255495.484
58 201149.614 8255495.051
59 201129.689 8255494.985
60 201107.544 8255495.516
61 201089.231 8255496.916
62 201072.185 8255497.666
63 204923.5 8258311.958
64 204920.7264 8258320.1565
65 201709.6167 8254126.6889
66 201695.1871 8254126.6899
67 201691.6973 8254126.6902
68 201691.2277 8254126.6889
69 201670.3769 8254126.6325
70 206065.6129 8255619.179
71 206057.9248 8255600.8742
72 205663.7857 8255858.3349
73 205741.4248 8255825.8615
76 202612.0671 8256629.7783
77 202597.6442 8256628.048
78 202588.8092 8256625.8583
79 202572.5983 8256620.5055
80 202546.4983 8256608.2625
81 202532.9622 8256602.1799
82 202518.1153 8256596.0495
83 202500.3338 8256589.1497
84 202487.3452 8256583.6993
85 202905.8815 8256486.0302
86 202967.4905 8256510.2997
87 202968.9695 8256510.8745
88 202161.2 8256303.3684
89 202211.2493 8256320.4722
90 202246.426 8256335.2215
91 202280.8674 8256348.9471
92 203009.3974 8256319.463
93 203017.4204 8256322.6475
94 203060.9999 8256338.8768
95 203104.7047 8256354.4937
96 203136.275 8256367.0064
97 203153.7927 8256371.9688
98 203155.1592 8256372.3559
99 203155.4089 8256372.4266
100 202973.08 8256303.8951
101 202977.184 8256306.6832
102 202988.2627 8256311.7388
103 203000.5497 8256315.8528
104 202223.598 8256225.244
105 202209.569 8256220.182
106 202206.165 8256218.919
107 202209.518 8256210.869
108 202197.0562 8256218.0007
109 202183.0989 8256246.7624
110 202179.8205 8256255.8949
111 202198.0162 8256215.8407
112 202212.8921 8256580.8118
113 202196.2219 8256575.4301
114 202156.7525 8256561.039
115 202074.4282 8256530.15
116 202115.3857 8256558.929
117 202145.0291 8256571.4443
118 202147.5522 8256572.2761
119 202106.2332 8256556.03
120 202106.2404 8256555.647
121 202106.513 8256555.0107
122 202380.1355 8256664.159
123 202381.4738 8256664.695
124 202348.3149 8256649.1437
125 202372.4452 8256661.436
126 202380.5937 8256662.407
127 202421.3602 8256678.7575
128 202426.7799 8256680.5925
129 202460.232 8256694.03
130 202426.6368 8256680.266
131 202614.5518 8256615.4022
132 202603.7424 8256683.2358
133 202608.4716 8256650.5806
134 202486.6382 8256586.1365
135 202505.7571 8256540.323
136 202488.6853 8256579.0801
137 203050.5015 8256710.933
138 203055.2347 8256697.0102
139 203062.6209 8256674.2423
140 202961.4109 8256332.1781
141 202963.23 8256327.36
142 203090.2872 8256598.9858
143 203089.3254 8256601.5709
144 203083.9679 8256615.9713
145 203080.0729 8256627.3635
146 203077.2532 8256635.2448
147 202199.599 8256186.382
148 202189.12 8256215.281
149 202181.209 8256235.878
150 202166.141 8256263.977
151 202162.302 8256275.489
152 202154.487 8256297.697
153 202143.617 8256325.871
154 202135.014 8256349.184
155 202120.297 8256389.546
156 202103.155 8256432.952
157 202096.479 8256451.257
158 202089.63 8256470.706
159 202081.688 8256492.177
160 202075.472 8256508.945
161 202068.3997 8256524.9985
162 203166.7107 8256202.9524
163 203161.8397 8256200.4503
164 203155.933 8256197.4162
165 202974.5282 8256104.2327
166 202981.6951 8256282.4525
167 202996.6883 8256244.452
168 203007.2111 8256216.9311
169 203014.9624 8256195.6934
170 203022.2566 8256175.5669
171 203027.4068 8256161.201
172 202906.6185 8256280.9608
173 202964.9004 8256129.9541
174 202839.7143 8256255.1181
175 202854.2031 8256214.4401
176 202871.3212 8256167.4617
177 202896.0713 8256112.3975
178 202514.6499 8256129.2099
179 202527.3517 8256098.5747
180 202549.797 8256040.831
181 202562.949 8256009.107
182 202568.355 8255994.069
183 202573.387 8255984.114
184 202911.8572 8256467.6983
185 202929.0385 8256421.9469
186 202942.008 8256387.3779
187 202959.1315 8256337.8994
188 202838.4246 8256457.6522
189 202868.8289 8256471.4342
190 202775.6625 8256431.7911
191 202787.3694 8256436.1646
192 202708.5831 8256408.3357
193 202733.8627 8256416.1755
194 202829.6466 8256279.8361
195 202832.7594 8256281.0937
196 202793.0473 8256386.2216
197 202820.4018 8256313.7662
198 202311.013 8256077.429
199 202323.83 8256082.843
200 202375.6487 8256106.6749
201 202315.2815 8256258.1798
202 202251.9146 8256233.6443
203 202766.7054 8256256.5786
204 202797.2384 8256267.6014
205 202502.2788 8256156.3689
206 202560.0116 8256174.2749
207 202567.0109 8256176.6055
208 202443.4277 8256307.7974
209 202440.7817 8256314.954
210 202823.2432 8256506.1773
211 202951.6109 8256559.0982
212 202691.2016 8256458.1466
213 202705.6662 8256463.4082
214 202561.5005 8256402.131
215 202670.6141 8256449.3746
216 202687.3667 8256456.6281
217 202554.8492 8256403.3158
218 202540.0552 8256447.9643
219 202426.7093 8256353.082
220 202520.8196 8256495.1123
221 202391.4347 8256444.8534
222 202966.964 8256124.4409
223 202806.406 8256551.0495
224 202820.9683 8256556.3532
225 202876.2111 8256579.7676
226 202933.6446 8256604.1636
227 202673.9629 8256503.1226
228 202682.9206 8256506.3981
229 202708.4208 8256514.7271
230 202764.591 8256535.8202
231 203391.9168 8257004.5049
232 203432.0528 8257019.9799
233 202026.8622 8255669.5826
234 202027.1863 8255669.6223
235 203174.835 8257645.9834
236 203188.4263 8257610.8996
237 203203.1507 8257570.4953
238 203166.4423 8257665.9445
239 203171.9033 8257668.4823
240 203180.5386 8257672.501
241 203193.7523 8257677.5327
242 203197.5069 8257678.9285
243 203358.2707 8257087.2017
244 203370.3364 8257056.6311
245 203343.2285 8257124.4789
246 203356.3429 8257092.0863
247 203326.7853 8257166.4293
248 203333.8725 8257147.5881
249 203312.1204 8257205.478
250 203313.8015 8257200.9467
251 203296.93 8257246.4513
252 203297.2422 8257245.6092
253 203326.1804 8257258.4949
254 202676.186 8257166.69
255 202695.798 8257173.971
256 202701.351 8257176.29
257 205288.0314 8256903.0977
258 205285.6928 8256905.7776
259 202701.9424 8256232.0699
260 202634.6669 8256205.0822
261 202696.1879 8256229.8922
262 202383.7458 8256079.0828
263 202339.122 8256061.0073
264 202335.014 8256059.262
265 202320.341 8256053.635
266 202449.9703 8256104.6671
267 202439.8672 8256132.2745
268 202408.2327 8256120.0619
269 202632.878 8256618.8338
270 202639.0074 8256631.8357
271 202646.4403 8256641.9598
272 202647.6792 8256658.6955
273 202638.7569 8256704.8905
274 202293.915 8256516.2889
275 202355.2116 8256537.4393
276 202303.293 8256615.685
277 202260.6363 8256602.7821
278 202323.1418 8256622.775
279 202310.912 8256618.478
280 202317.7222 8256557.5317
281 203060.488 8256591.165
282 203017.1212 8256576.3614
283 202250.1215 8256492.2007
284 202109.2512 8256436.8294
285 202329.5957 8256624.974
286 202445.357 8256669.7898
287 202346.1338 8256562.7192
288 202341.3657 8256574.7246
289 202339.1473 8256581.2986
290 202984.2919 8256674.6761
291 202962.2807 8256667.1732
292 202979.9266 8256688.7117
293 202680.374 8256022.221
294 202642.297 8256006.399
295 202635.2333 8256003.6221
296 202632.7655 8256010.2044
297 202638.9909 8255993.619
298 202083.6063 8255597.8802
299 202078.2863 8255632.8602
300 202071.5063 8255675.0502
301 202164.9164 8255642.5602
302 202161.5664 8255650.9102
303 202280.0065 8255583.6602
304 202275.5965 8255594.7402
305 202049.6363 8255557.5601
306 202044.4735 8255556.9046
307 202126.4114 8255578.4052
308 202134.1664 8255539.7701
309 202246.8065 8255583.7502
310 202263.4265 8255541.4302
311 202292.3465 8255552.6602
312 202281.6901 8256349.275
313 202297.4037 8256303.5692
314 202427.1878 8256351.7865
315 204065.2846 8257830.4682
316 204030.4191 8257816.8782
317 205478.1152 8257555.7032
318 205474.5515 8257567.3713
319 205474.6687 8257568.1923
320 205475.1376 8257569.072
321 205475.8995 8257569.8345
322 205476.5443 8257570.3623
323 205477.9509 8257571.1247
324 205479.7717 8257571.7046
325 204956.5392 8256381.2123
326 204965.763 8256377.041
327 204971.322 8256374.609
328 204978.162 8256371.402
329 204984.524 8256368.334
330 205001.811 8256358.138
331 205018.784 8256347.377
332 205035.383 8256337.13
333 205052.453 8256326.546
334 205071.989 8256314.108
335 202154.981 8254690.287
336 202155.278 8254678.285
337 202155.2768 8254678.0432
338 202155.2735 8254677.34
339 202155.269 8254676.395
340 202155.184 8254667.003
341 202154.765 8254663.264
342 202181.9572 8253715.1988
343 202188.4872 8253715.4388
344 202320.723 8255153.514
345 202321.817 8255145.625
346 202325.652 8255123.657
347 202329.229 8255102.781
348 202333.077 8255080.296
349 202337.347 8255053.665
350 202341.096 8255030.342
351 202343.81 8255015.157
352 202144.3366 8254457.9017
353 202150.2969 8254457.9893
354 202351.263 8254900.995
355 202361.748 8254902.61
356 202118.358 8253136.839
357 202115.936 8253140.371
358 202106.613 8253158.688
359 202350.9471 8254196.5392
360 202350.9171 8254242.7092
361 202508.3575 8253632.3788
362 202513.4634 8253632.0362
363 202396.1404 8255395.9028
364 202393.972 8255401.364
365 202389.004 8255414.721
366 202299.7165 8255645.1003
367 202263.4466 8255368.2801
368 202262.3366 8255374.2201
369 202079.425 8255114.8
370 202038.6865 8255104.4998
371 202340.6867 8255289.1
372 202277.2266 8255280.49
373 202380.2267 8255173.21
374 202439.6668 8255184.84
375 202228.7166 8255318.9
376 202239.6666 8255187.9899
377 202366.8667 8255212.86
378 202484.3571 8254613.2496
379 202507.4171 8254613.4496
380 202298.2868 8254997.3398
381 202298.9068 8254994.1098
382 202273.6867 8254989.9698
383 202176.9367 8254978.3197
384 202165.7066 8255049.9698
385 202404.5268 8255041.4699
386 202364.6168 8255035.3798
387 202487.6269 8255054.6999
388 202502.9069 8255015.8999
389 202471.7669 8255095.8399
390 201900.1064 8255197.1098
391 201903.4464 8255169.6798
392 201909.3286 8254070.3919
393 201949.3569 8254053.7889
394 202995.7496 8256860.9894
395 203005.6643 8256835.5168
396 202985.6297 8256888.3943
397 202993.97 8256905.106
398 202995.4251 8256900.855
399 202278.812 8253217.087
400 202297.558 8253226.061
401 202312.5864 8253233.4757
402 204252.555 8256546.462
403 204272.531 8256549.485
404 204292.554 8256552.614
405 204311.862 8256555.379
406 204327.791 8256557.902
407 205319.694 8256159.988
408 205335.161 8256150.5
409 205355.797 8256137.674
410 205373.821 8256126.55
411 205198.748 8256235.495
412 205216.332 8256224.408
413 205233.774 8256213.599
414 205250.828 8256202.946
415 205267.803 8256192.282
416 205285.193 8256181.681
417 205301.888 8256171.003
418 205089.16 8256303.717
419 205107.848 8256291.704
420 205123.98 8256281.802
421 205142.2 8256270.296
422 205164.584 8256256.63
423 205181.471 8256245.767
424 204782.879 8256461.494
425 204791.641 8256457.237
426 204809.425 8256449.021
427 204826.574 8256440.125
428 204847.467 8256430.687
429 204777.312 8256464.536
430 204675.914 8256519.201
431 204695.839 8256514.076
432 204715.964 8256506.963
433 204728.973 8256502.186
434 204742.645 8256497.897
435 204753.986 8256493.615
436 204761.104 8256491.662
437 204765.424 8256490.369
438 204771.361 8256477.183
439 204537.391 8256550.393
440 204558.628 8256545.742
441 204577.099 8256541.416
442 204596.202 8256537.242
443 204615.283 8256532.896
444 204635.19 8256528.545
445 204655.376 8256523.873
446 204342.618 8256559.913
447 204353.093 8256561.645
448 204373.714 8256561.325
449 204788.9184 8256487.6267
450 201863.417 8253547.9085
451 201859.187 8253543.6585
452 201699.5561 8255410.8299
453 201699.1616 8255545.3211
454 201699.1224 8255558.6927
455 201699.0661 8255577.88
456 201977.5263 8255519.1101
457 201979.8826 8255519.8992
458 201982.2389 8255520.6883
459 201984.5952 8255521.4774
460 201989.2323 8255523.0304
461 201993.9419 8255523.9988
462 202002.9907 8255525.5863
463 202007.255 8255525.937
464 201919.8728 8255076.642
465 201920.8253 8255072.5542
466 200718.101 8253288.263
467 200718.621 8253288.235
468 200719.16 8253288.178
469 200724.739 8253287.576
470 200728.3649 8253287.1612
471 200732.4449 8253286.6944
472 200732.947 8253286.637
473 200736.4491 8253286.1216
477 202169.876 8255123.167
478 202177.993 8255124.809
479 202193.867 8255127.651
480 202213.469 8255131.609
481 202233.114 8255135.691
482 202255.175 8255139.76
483 202273.784 8255143.987
484 202280.0452 8255145.2403
485 202183.432 8254188.319
486 202183.4385 8254188.6455
487 202183.445 8254188.972
488 202183.443 8254194.0515
489 202183.442 8254196.6608
490 201886.5396 8255705.528
491 201896.4685 8255709.59
492 202119.247 8253134.66
493 201057.795 8255499.889
494 201057.742 8255498.084
495 201056.667 8255492.7306
496 201056.203 8255490.42
497 202377.53 8253489.69
498 202377.387 8253488.533
499 201861.347 8253549.9585
500 201860.3021 8253550.8736
501 201859.737 8253551.3685
502 201913.2264 8255108.1597
503 201915.286 8255099.404
504 201918.6576 8255082.9213
505 201904.279 8255069.323
506 201893.44 8255067.79
507 201884.5464 8255066.6797
508 204863.207 8256424.436
509 204869.975 8256421.052
510 204885.018 8256414.163
511 204911.838 8256401.92
512 204927.992 8256394.445
513 204947.77 8256385.178
537 200713.3966 8252498.7972
538 201999.828 8253742.59
539 202013.678 8253767.242
540 202022.924 8253785.194
541 202032.553 8253803.732
542 202041.798 8253821.992
543 202050.055 8253838.062
544 202059.177 8253855.048
545 202061.055 8253859.503
546 202112.461 8255115.597
547 202112.3245 8255116.3936
548 202111.207 8255122.918
549 202107.95 8255144.817
550 202104.96 8255163.067
551 202100.693 8255189.135
552 202097.566 8255208.294
553 202093.82 8255230.708
554 202091.086 8255250.03
555 202087.111 8255273.745
556 202084.186 8255292.016
557 202079.225 8255322.563
558 202075.75 8255343.858
559 202070.829 8255373.943
560 202068.353 8255390.09
561 202064.78 8255413.885
562 202058.695 8255450.745
563 202055.998 8255467.705
564 202052.629 8255488.579
565 202049.33 8255509.616
566 202045.966 8255530.216
567 202042.102 8255554.625
568 202038.135 8255579.829
569 202034.995 8255600.265
570 202031.9435 8255618.8548
571 202030.535 8255627.435
572 202026.355 8255655.829
573 202025.9 8255660.1415
574 202025.445 8255664.454
613 202180.36 8254667.171
614 202178.7371 8254684.692
615 202176.079 8254713.388
616 202173.479 8254733.275
624 201851.791 8255679.09
625 201853.271 8255675.219
639 201888.974 8255699.623
640 201964.907 8255664.59
641 201980.325 8255670.516
642 201985.8165 8255672.718
643 201991.308 8255674.92
644 201993.798 8255675.8875
645 201996.288 8255676.855
667 202399.3772 8254126.0592
668 202399.3154 8254212.749
669 202159.9373 8253411.7485
670 202162.2115 8253413.6816
671 202476.745 8253481.812
672 202473.9239 8253467.8156
673 202477.9 8253487.797
674 202485.204 8253487.3
675 202485.8646 8253487.1546
676 202198.3081 8253715.8327
677 202200.5472 8253716.0388
678 202203.145 8253716.168
679 202207.6572 8253716.3888
680 201920.421 8253671.259
681 201921.527 8253673.424
682 201922.229 8253674.734
683 202020.457 8253874.1988
684 202056.918 8253860.881
685 201889.4971 8254032.4289
686 201864.303 8254030.589
687 202351.0572 8254158.6892
688 202008.6172 8253324.9584
689 202008.615 8253324.962
690 201994.8351 8253349.853
691 202400.208 8255397.096
692 202400.79 8255397.065
693 202416.178 8255400.112
694 201850.5869 8253945.9688
695 201893.6169 8254032.4289
696 201968.9468 8254219.9991
697 201969.3968 8254267.7191
698 201806.6667 8254161.8189
699 201896.6568 8254161.859
700 202544.6972 8254486.0095
701 202552.8072 8254485.8995
702 202531.5172 8254485.7595
703 202312.825 8255152.117
704 202314.283 8255152.295
705 204144.751 8256526.638
706 204172.656 8256533.645
707 204126.53 8256520.844
787 202265.806 8253211.047
788 202269.333 8253212.917
789 204174.5719 8257110.893
790 204165.8927 8257129.701
791 204154.9937 8257153.172
792 204147.7167 8257167.6193
793 204147.7082 8257167.636
794 204140.5767 8257183.629
795 204140.5856 8257183.604
796 204139.4188 8257186.4094
797 204141.322 8257187.4726
798 204151.3464 8257192.592
799 204165.8091 8257200.0096
800 204178.6025 8257206.334
801 203400.508 8256291.688
802 203419.644 8256299.016
810 201854.7091 8255671.5829
811 201858.197 8255662.7642
864 205711.7123 8254805.6234
865 205708.9594 8254799.2311
866 200354.3405 8255594.5751
867 200355.4353 8255600.0271
868 200355.9442 8255601.9821
869 200356.069 8255602.489
870 200361.3571 8255599.5483
871 200360.611 8255595.719
872 200359.529 8255588.673
875 201697.512 8255035.6056
876 201702.4736 8255036.6506
877 201928.7568 8255284.9452
878 201927.9857 8255289.6485
879 202261.6554 8256615.8613
880 202287.0724 8256626.771
881 202835.172 8256466.9391
882 202568.0647 8256176.9564
883 202572.5532 8256165.8484
884 202577.7632 8256153.8063
885 202320.584 8256052.641
886 202308.912 8256048.424
887 202291.3263 8256043.9299
888 202048.6563 8255672.2702
889 205578.4151 8257603.6863
890 205107.8894 8259795.2475
891 205091.6769 8259804.9546
892 205107.56 8259446.0704
893 205053.7904 8259751.8795
894 204830.9727 8259436.2638
895 204880.4776 8259444.5896
896 204839.5524 8259386.7016
897 204955.179 8259403.9092
898 204836.1392 8259405.6974
899 204618.462 8259373.8844
900 204689.5493 8259384.5981
901 204735.8661 8259391.2647
902 204783.9459 8259400.6216
903 204742.5855 8259351.4012
904 204759.3539 8259248.6612
905 204765.4632 8259212.3844
906 204787.9041 8259086.7792
907 203143.9082 8257421.4984
908 203148.0614 8257423.082
909 203432.8374 8257658.767
910 203450.2905 8257665.5119
911 203461.1502 8257669.6871
912 203470.7572 8257673.4543
913 202828.296 8257226.082
914 202838.196 8257230.439
915 202839.922 8257230.878
916 202991.3007 8256652.1408
917 204283.5832 8257443.7892
918 204278.7466 8257444.2784
919 203209.2664 8257554.1921
920 203210.2892 8257552.9723
921 203211.8082 8257551.1604
922 203361.6165 8257641.7023
923 203360.8992 8257643.4811
924 203360.1362 8257645.3731
925 204329.6224 8257219.638
926 204319.5916 8257220.6006
927 204311.7723 8257221.351
928 204286.6104 8257223.776
929 204261.707 8257226.625
930 204249.3809 8257198.989
931 204259.2333 8257176.487
932 204269.2105 8257154.142
933 204406.2408 8257147.58
934 204390.3122 8257140.336
935 204370.2648 8257130.957
936 204349.1867 8257121.13
937 204333.0126 8257113.936
938 204312.6757 8257105.046
939 204288.9092 8257094.205
940 204274.9836 8257087.526
941 204268.5665 8257084.589
942 204396.4017 8257170.626
943 204386.864 8257191.052
944 204380.9161 8257202.693
945 204331.3793 8257182.883
946 204352.8271 8257192.654
947 204367.4714 8257199.54
948 204377.0205 8257203.706
949 204378.2653 8257203.562
950 204379.5101 8257203.418
951 204328.9985 8257209.565
952 205636.7913 8257638.831
953 205629.0896 8257662.057
954 205620.4611 8257687.952
955 205611.9716 8257713.908
956 205601.4964 8257745.333
957 205595.8096 8257763.345
958 205587.062 8257789.817
959 205578.4961 8257815.853
960 205570.1976 8257842.251
961 205561.725 8257867.042
962 205555.2909 8257883.182
963 205547.1255 8257909.8
964 205536.7193 8257939.215
965 205526.7174 8257967.373
966 205518.192 8257991.871
967 205511.901 8258011.481
968 202147.983 8255122.982
969 202148.77 8255119.044
970 204541.7145 8257687.1887
971 204666.8285 8257313.974
972 204218.9609 8257470.9148
973 204244.5173 8257474.9309
974 205331.0382 8256946.5625
975 205335.0625 8256934.7902
976 204347.2296 8257854.8257
977 204435.6328 8257592.1891
978 204448.8597 8257553.6219
979 204408.7256 8257874.2813
980 204553.8755 8257591.0233
981 204541.4497 8257627.0855
982 204456.7387 8257889.4713
983 204789.956 8258249.92
984 204789.077 8258252.243
985 204786.016 8258260.82
986 204778.837 8258280.66
987 204771.516 8258301.863
988 204764.16 8258324.098
989 204757.799 8258344.807
990 204751.381 8258365.167
991 204744.035 8258385.423
992 204738.223 8258403.616
993 204729.148 8258430.625
994 204724.573 8258444.013
995 204717.62 8258464.267
996 204710.532 8258486.833
997 204705.027 8258502.984
998 204699.874 8258519.004
999 204691.171 8258544.795
1000 204680.088 8258574.279
1001 204642.734 8258607.281
1002 204633.617 8258605.404
1003 204622.021 8258602.756
1004 204613.876 8258601.246
1005 204601.253 8258601.789
1006 204592.179 8258603.065
1007 204585.466 8258605.16
1008 204578.289 8258608.592
1009 204571.13 8258615.339
1010 204567.754 8258621.625
1011 203090.844 8257681.692
1012 203077.143 8257676.189
1013 203057.591 8257668.304
1014 203032.281 8257658.676
1015 203000.925 8257647.252
1016 202798.7479 8257554.7079
1017 202788.436 8257582.394
1018 202780.9056 8257601.3866
1019 202780.905 8257601.388
1020 202774.517 8257620.425
1021 202837.493 8257565.632
1022 202856.306 8257570.66
1023 202937.1895 8257592.6193
1024 202307.6604 8256849.089
1025 202305.886 8256853.0812
1026 202915.1742 8257290.5247
1027 202911.39 8257288.611
1028 202913.7165 8257294.145
1029 202912.271 8257297.76
1030 202904.32 8257322.371
1031 202903.6815 8257324.867
1032 202903.043 8257327.363
1033 202305.356 8256854.5612
1034 202254.112 8256987.643
1035 205675.0083 8257313.133
1036 205674.4522 8257314.8033
1037 205673.753 8257316.8911
1038 204267.0073 8257162.1023
1039 204266.2472 8257161.7645
1040 204258.9066 8257159.207
1041 203326.3264 8257730.0823
1042 203325.5944 8257731.8975
1043 203324.8411 8257733.7531
1044 202777.0437 8256815.659
1045 202776.756 8256816.31
1046 205615.1657 8257631.664
1047 205623.0365 8257634.2674
1048 205625.8119 8257635.189
1049 205500.829 8258027.535
1050 205493.155 8258050.198
1051 205486.384 8258069.71
1052 205477.985 8258091.158
1053 205471.363 8258110.825
1054 205465.457 8258131.063
1055 205459.208 8258149.697
1056 205452.762 8258169.22
1057 205443.844 8258194.44
1058 205432.945 8258226.163
1059 205425.771 8258247.826
1060 205417.392 8258272.725
1061 205410.933 8258291.679
1062 205403.506 8258313.714
1063 205393.767 8258341.252
1064 205386.794 8258361.545
1065 205379.915 8258382.053
1066 205370.622 8258409.453
1067 205366.841 8258421.332
1068 205363.941 8258430.411
1069 205360.476 8258439.289
1070 204194.8912 8257217.562
1071 204195.2138 8257228.0452
1072 204195.8025 8257232.9781
1073 204207.4939 8257231.6204
1074 204222.5028 8257230.3624
1075 204237.0837 8257228.6373
1076 204247.12 8257227.736
1077 204253.1004 8257227.0734
1078 204295.6429 8257024.12
1079 204285.0159 8257046.089
1080 204311.1016 8257034.345
1081 204303.0877 8257052.725
1082 203802.3765 8257803.456
1083 203818.8284 8257809.515
1084 203842.0964 8257819.051
1085 204878.3699 8256505.3703
1086 204866.8504 8256511.135
1087 204844.4832 8256522.012
1088 204821.7521 8256531.917
1089 204798.4387 8256541.462
1090 204773.1212 8256551.77
1091 204746.8203 8256562.177
1092 204725.2793 8256569.36
1093 204700.6981 8256577.729
1094 204674.0617 8256585.047
1095 204644.2756 8256593.202
1096 204624.6162 8256599.731
1097 204596.3316 8256605.699
1098 204571.7712 8256610.834
1099 204552.8037 8256614.557
1100 204529.2938 8256617.296
1101 204501.9872 8256618.036
1102 204478.7221 8256616.392
1103 204834.0073 8258238.7164
1104 204830.5248 8258237.6035
1105 202880.9478 8257228.9753
1106 202884.2665 8257220.4795
1107 202888.8639 8257206.3602
1108 204478.7444 8256611.603
1109 204477.1873 8256602.658
1110 202067.2269 8254322.8192
1111 202039.5468 8254322.8092
1112 201727.5069 8253667.5785
1113 201710.3469 8253683.6885
1114 200947.5738 8253332.3348
1115 200909.7502 8253334.4315
1116 203599.965 8256423.3798
1117 203590.4623 8256418.9858
1118 203565.2244 8256412.291
1119 203422.8445 8257885.1534
1120 203423.8497 8257885.5304
1121 204644.4793 8258448.5202
1122 204642.6351 8258453.914
1123 205074.0243 8257045.8133
1124 205075.8349 8257049.933
1125 202713.32 8257181.23
1126 202841.932 8257231.857
1127 202857.624 8257238.158
1128 202867.199 8257241.477
1129 203105.531 8257575.471
1130 203107.014 8257572.0249
1131 203107.016 8257572.02
1132 205671.4193 8257323.8819
1133 205659.7155 8257359.4695
1134 205585.7618 8257581.4674
1135 204958.6408 8257848.7674
1136 204958.7776 8257848.3531
1137 204959.1956 8257847.0814
1138 205586.8026 8257231.8549
1139 205678.0031 8257304.1513
1140 202919.796 8257105.3728
1141 202920.9191 8257101.7703
1142 205630.5676 8257621.6245
1143 203354.7835 8256983.2588
1144 203393.109 8256998.1503
1145 203191.284 8257694.581
1146 203192.965 8257690.191
1147 203160.5246 8256915.5097
1148 203154.3385 8256914.1194
1149 203146.1111 8256911.7296
1150 205477.2833 8257578.796
1151 205617.7891 8257624.816
1152 204724.984 8258638.152
1153 204721.332 8258636.888
1154 204701.145 8258629.725
1155 204693.744 8258627.063
1156 204962.8859 8256537.9689
1157 204952.7092 8256524.6084
1158 203353.224 8256991.189
1159 203351.732 8256994.924
1160 203261.4738 8257240.1849
1161 203272.0379 8257242.9272
1162 202782.0914 8256804.722
1163 204559.254 8257572.03
1164 204566.6361 8257574.5099
1165 204569.939 8257575.624
1166 202223.1138 8256600.2965
1167 202222.28 8256601.862
1168 203138.282 8257368.623
1169 203139.052 8257368.912
1170 203805.4116 8257795.514
1171 203801.5525 8257805.595
1172 203195.2811 8257706.344
1173 203193.242 8257705.507
1174 203297.341 8257243.3806
1175 203299.22 8257246.3701
1176 203101.6226 8256561.3748
1177 203103.7576 8256555.3299
1178 203121.5208 8256508.5915
1179 203139.6432 8256461.9913
1180 203146.4403 8256438.8696
1181 203150.7921 8256407.6392
1182 203172.0512 8257789.2477
1183 203146.5754 8257846.714
1184 203435.4821 8257875.1745
1185 203441.4167 8257877.354
1186 203467.5087 8257886.4806
1187 203129.6042 8257772.561
1188 203103.3955 8257845.7493
1189 202428.4096 8253194.2526
1190 202444.9876 8253193.5185
1191 202571.2305 8253957.9125
1192 202574.2974 8253957.4691
1193 202265.1776 8252895.0982
1194 202270.6762 8252899.2722
1195 202323.6775 8253170.5484
1196 202284.3475 8253200.5484
1197 202350.4176 8253160.9684
1198 202412.8176 8253151.6684
1199 202414.1976 8253195.1985
1200 202421.5376 8253201.7485
1201 202380.7676 8253211.5285
1202 202347.0176 8253199.3684
1203 202317.9175 8253221.9284
1204 202314.7275 8253228.2784
1205 202242.2232 8253194.0091
1206 202246.4675 8253183.5284
1207 202093.7902 8253182.4691
1208 202191.0074 8253237.3784
1209 202256.795 8253722.5911
1210 202262.6572 8253816.0089
1211 202217.2582 8253723.0099
1212 202230.3071 8253951.779
1213 202384.4487 8253722.8376
1214 202383.5973 8253762.2589
1215 202349.7284 8254325.5577
1216 202349.7871 8254335.7493
1217 202353.7871 8254335.7493
1218 202516.4072 8254234.9493
1219 202516.4172 8254266.5793
1220 202466.9572 8254349.0194
1221 202558.2072 8254349.0594
1222 202224.307 8254325.4192
1223 202179.317 8254325.4492
1224 202363.4375 8253332.1485
1225 202323.7075 8253339.6385
1226 202367.6275 8253351.1686
1227 202406.4075 8253344.1786
1228 202403.2275 8253328.1286
1229 202397.8975 8253302.7285
1230 201629.9168 8253758.9286
1231 201633.3768 8253763.6986
1232 202071.5972 8253614.8186
1233 202073.4871 8253675.6387
1234 203295.1321 8256321.0045
1235 203309.7167 8256325.8114
1236 203326.8703 8256331.3607
1237 203353.568 8256341.0399
1238 203381.0396 8256352.0095
1239 203419.0309 8256366.916
1240 203462.1672 8256383.8647
1241 203485.9531 8256393.5069
1242 203505.2924 8256400.8324
1243 203512.2852 8256403.5658
1244 203543.6127 8256413.5728
1245 203282.5203 8256359.1409
1246 203286.1143 8256349.5574
1247 203268.2354 8256396.8319
1248 203270.8398 8256386.5463
1249 203276.2597 8256372.6008
1250 201932.1463 8255500.82
1251 201970.6663 8255516.34
1252 201940.1163 8255460.12
1253 201805.4262 8255405.4632
1254 201739.5362 8255378.4898
1255 201859.6564 8255173.4797
1256 201816.8363 8255166.3897
1257 201890.0263 8255258.8498
1258 201781.4966 8254411.0691
1259 201849.7367 8254411.3492
1260 201749.4866 8254411.0391
1261 201748.9066 8254457.8591
1262 201918.1467 8254458.3992
1263 201881.1967 8254458.2892
1264 201748.4763 8255000.0696
1265 201749.3864 8254947.3595
1266 201852.5664 8255002.6396
1267 201852.1164 8254945.9296
1268 201820.3863 8255145.7097
1269 201741.1163 8255132.3564
1270 201690.884 8255631.274
1271 201690.882 8255666.131
1272 201690.436 8255687.218
1273 201690.208 8255706.894
1274 201690.423 8255743.032
1275 201690.202 8255760.012
1276 201690.46 8255788.247
1277 201690.101 8255826.875
1278 201689.807 8255853.629
1279 201689.726 8255892.1
1280 201690.331 8255917.984
1281 201690.311 8255943.003
1282 201690.538 8255978.726
1283 201689.696 8256004.08
1284 201690.392 8256032.699
1285 201690.407 8256048.886
1286 201690.364 8256071.658
1287 201676.276 8256073.355
1288 201659.331 8256075.555
1289 201643.876 8256076.805
1290 201591.361 8256082.902
1291 201577.6734 8256084.5349
1292 201512.823 8256092.208
1293 201491.667 8256098.152
1294 201472.222 8256104.111
1295 201448.606 8256111.03
1296 201429.367 8256116.713
1297 201399.379 8256125.775
1298 202044.197 8255558.818
1299 202020.4465 8255220.1298
1300 201943.4964 8255176.1098
1301 201952.3664 8255118.3997
1302 201939.2264 8255202.7598
1303 201929.6764 8255262.3598
1304 201971.6464 8255266.2199
1305 201980.8914 8255211.3198
1306 201995.3165 8255121.7165
1307 201999.7065 8255095.8597
1308 201741.3663 8255041.2496
1309 201702.9663 8255032.0196
1310 201748.4963 8255042.8596
1311 201977.0465 8255085.3797
1312 201988.5065 8255047.0197
1313 201930.124 8255074.365
1314 201902.5564 8255029.8296
1318 198690.4 8255905.666
1319 198674.149 8255901.971
1320 198647.452 8255899.1852
1321 198638.49 8255898.25
1322 198666.237 8256013.393
1323 205114.8134 8259123.8912
1324 205062.1361 8259419.2582
1325 205058.9783 8259439.6814
1326 202137.5167 8254939.8197
1327 202138.3235 8254939.8036
1328 202140.405 8254939.762
1329 202024.535 8253539.373
1330 202084.3972 8253482.7885
1331 201739.6362 8255425.0299
1332 201979.943 8256893.696
1333 201984.819 8256895.575
1334 202001.348 8256901.846
1335 202020.305 8256909.928
1336 202911.9775 8257131.612
1337 202917.3668 8257113.3328
1338 201878.9696 8251790.5918
1339 201879.1585 8251790.9137
1340 204478.8785 8256619.765
1341 204475.8935 8256630.1825
1342 204942.4996 8256509.7012
1343 204939.3481 8256506.492
1344 202067.1769 8254142.059
1345 202067.2769 8254222.6191
1346 202362.3577 8252908.8682
1347 202325.7076 8253002.0783
1348 202451.2876 8253353.2486
1349 202294.6574 8253576.5687
1350 202250.6073 8253577.5687
1351 202263.2572 8253821.1089
1352 202042.2268 8254381.5392
1353 202042.0868 8254396.7692
1354 201709.6167 8254136.7589
1355 202596.6871 8254776.6197
1356 202411.367 8254746.3496
1357 202548.6071 8254613.4796
1358 202548.6071 8254655.5096
1359 203474.2701 8256517.6545
1360 203478.2486 8256519.3374
1361 203501.808 8256529.1344
1362 203512.5513 8256533.7629
1363 203638.2772 8256437.4858
1364 203245.8369 8256319.6783
1365 203218.5931 8256397.3414
1366 203209.7953 8256422.235
1367 203211.7957 8256430.507
1370 200350.528 8256099.189
1371 200369.907 8256103.415
1372 200389.317 8256107.925
1373 200421.779 8256115.648
1374 200438.55 8256119.901
1375 200456.856 8256124.499
1376 200483.306 8256131.081
1377 200506.812 8256136.396
1378 200533.806 8256143.061
1379 200563.259 8256149.756
1380 200586.174 8256155.513
1381 200601.792 8256159.345
1382 200625.678 8256165.532
1383 200698.049 8256182.806
1384 200726.208 8256187.947
1385 200745.7 8256189.646
1386 200763.645 8256191.339
1387 200772.446 8256191.906
1388 200772.233 8256182.238
1389 200772.874 8256165.436
1390 200772.544 8256147.188
1391 200771.783 8256128.497
1392 200771.665 8256122.131
1393 200777.927 8256121.918
1394 200790.951 8256122.145
1395 200812.374 8256123.3
1396 200828.562 8256123.616
1397 200850.993 8256123.684
1398 200882.449 8256124.906
1399 200905.484 8256124.98
1400 200930.273 8256125.213
1401 200957.777 8256126.13
1402 200980.746 8256127.116
1403 201008.247 8256126.457
1404 201025.331 8256126.23
1405 201047.739 8256127.071
1406 201067.292 8256127.312
1407 201086.167 8256127.387
1408 201104.98 8256127.636
1409 201125.036 8256128.646
1410 201142.216 8256129.033
1411 201166.523 8256129.877
1412 201195.158 8256130.336
1413 201223.271 8256130.933
1414 201249.255 8256131.795
1415 201265.586 8256132.109
1416 201273.67 8256133.432
1417 201279.09 8256136.303
1418 201291.336 8256147.267
1419 201297.162 8256153.151
1420 201301.803 8256158.955
1421 201303.544 8256158.993
1422 201336.008 8256148.335
1423 201350.659 8256143.154
1424 201363.462 8256139.025
1425 201740.5963 8255178.1497
1426 203886.5316 8257476.038
1427 203925.5724 8257491.0331
1428 203401.5371 8257101.9424
1429 204803.5126 8257769.7114
1430 204829.1372 8257778.654
1431 204245.6501 8257388.4073
1432 204278.4013 8257385.072
1433 204245.1692 8257425.1387
1434 204280.9932 8257421.8918
1435 204291.4872 8257482.3119
1436 204274.0834 8257089.5379
1437 204254.8612 8257132.5009
1438 204202.5944 8257428.9973
1439 204210.9004 8257391.9461
1440 203298.1415 8256312.5579
1441 203312.9647 8256280.4809
1442 203166.0013 8256210.7807
1443 203151.3318 8256403.7664
1444 203152.1829 8256397.6585
1445 203153.44 8256377.5977
1446 203159.0812 8256287.5752
1447 202915.557 8257281.242
1448 202914.737 8257283.7045
1449 202913.917 8257286.167
1450 202913.6985 8257286.7178
1451 202912.957 8257287.3822
1452 202806.843 8256828.8948
1453 202800.6043 8256826.5523
1454 202774.4313 8256816.7416
1455 202768.0665 8256814.3289
1456 202906.578 8257278.095
1457 202907.827 8257278.557
1458 202909.076 8257279.019
1459 202911.7205 8257279.918
1460 202914.365 8257280.817
1461 204659.2539 8257308.4976
1462 204669.1315 8257310.2249
1463 203162.6257 8256248.2404
1464 203165.6778 8256214.3952
1465 205108.9001 8257024.5833
1466 205102.5157 8257042.1596
1467 205484.949 8258052.893
1468 205480.039 8258067.924
1469 205472.95 8258089.311
1470 205466.489 8258108.785
1471 205459.819 8258128.792
1472 205453.931 8258147.994
1473 205447.171 8258166.887
1474 205438.889 8258191.586
1475 205428.269 8258223.601
1476 205420.781 8258245.716
1477 205412.348 8258270.571
1478 205406.121 8258290.343
1479 205398.24 8258312.315
1480 205389.849 8258339.58
1481 205382.526 8258359.965
1482 205374.857 8258382.031
1483 205366.902 8258404.841
1484 205362.471 8258419.191
1485 205360.072 8258423.972
1486 205359.289 8258426.17
1487 203436.8917 8256985.63
1488 203438.1168 8256986.0518
1489 203443.5526 8256987.8937
1490 203185.7144 8257435.8282
1491 203672.9859 8257430.334
1492 203611.8401 8257407.4668
1493 202337.488 8257034.304
1494 202338.729 8257034.962
1495 202358.058 8257042.157
1496 202367.098 8257045.796
1497 203477.535 8256342.8554
1498 203537.652 8256366.3064
1499 203539.1691 8256362.39
1500 203539.7038 8256361.0069
1501 203544.7256 8256347.5612
1502 203542.2703 8256367.3487
1503 203650.3927 8256849.3184
1504 203654.5539 8256851.0532
1505 203682.4553 8256861.9633
1506 204874.464 8256440.615
1507 204884.64 8256457.1068
1508 204888.296 8256463.138
1509 203764.1707 8257787.1997
1510 203785.0017 8257796.453
1511 203785.0275 8257796.4634
1512 203421.4242 8257061.126
1513 203847.0929 8257460.8972
1514 205617.4121 8257659.486
1515 205609.4525 8257683.506
1516 205600.3739 8257709.772
1517 205589.1755 8257742.661
1518 205583.1431 8257761.803
1519 205574.5545 8257787.288
1520 205566.4472 8257811.027
1521 205556.9809 8257838.673
1522 205549.6051 8257859.429
1523 205542.1036 8257880.843
1524 205535.2095 8257903.393
1525 205523.7581 8257937.349
1526 205515.9695 8257960.973
1527 205507.6605 8257986.481
1528 204914.582 8258894.087
1529 204897.037 8258890.084
1530 204875.6 8258884.51
1531 204855.874 8258879.558
1532 204839.066 8258874.813
1533 204827.144 8258871.037
1534 204820.086 8258870.039
1535 205108.7003 8259790.6215
1536 204933.2283 8256520.9058
1537 204953.3316 8256548.7856
1538 205001.5011 8256597.6035
1539 205099.615 8256702.5058
1540 202024.625 8255674.326
1541 202039.016 8255680.282
1542 201912.9494 8254890.3755
1543 201912.8691 8254890.8691
1544 201899.0271 8254887.557
1545 201906.1242 8254888.9925
1546 203545.1505 8256463.8747
1547 203546.2173 8256464.2058
1548 203544.939 8256458.7176
1549 205628.2066 8257628.363
1550 205330.458 8256948.2659
1551 205349.395 8256968.4267
1552 205536.1016 8257167.8506
1553 205718.0869 8257361.1509
1554 202558.065 8257121.863
1555 202574.617 8257128.259
1556 202596.229 8257136.675
1557 202520.665 8257105.693
1558 202531.318 8257110.609
1559 202542.998 8257115.658
1560 202482.084 8257090.819
1561 202501.69 8257098.626
1562 201763.577 8253359.9083
1563 201694.135 8253297.9641
1564 201906.1289 8254892.024
1565 203583.7787 8256362.6548
1566 203532.324 8256342.7682
1567 203170.014 8256200.846
1568 203194.837 8256211.887
1569 203215.785 8256220.054
1570 201919.3768 8254219.929
1571 201926.4865 8254219.8701
1572 203155.465 8256195.386
1573 200714.838 8253288.811
1574 200713.5585 8253280.786
1575 202283.9566 8255330.41
1576 202324.3466 8255338.5501
1577 202124.2289 8254664.3112
1578 202124.231 8254663.3112
1579 202139.509 8254660.5146
1580 202140.2373 8254660.0614
1581 202140.951 8254659.5832
1582 202141.649 8254659.0695
1583 202142.0684 8254658.7608
1584 202142.4238 8254658.3797
1585 202142.7584 8254657.9807
1586 202142.8922 8254657.8159
1587 202143.0188 8254657.6457
1588 202143.7123 8254656.7039
1589 202144.4467 8254655.7965
1590 202144.9768 8254654.7483
1591 202145.2089 8254654.2894
1592 202145.3787 8254653.8094
1593 202145.5484 8254653.3281
1594 202145.7484 8254652.761
1595 202145.9481 8254652.194
1596 202146.1468 8254651.6264
1597 202146.4958 8254650.6294
1598 202146.843 8254649.6325
1599 202147.1852 8254648.6326
1600 202147.7944 8254646.8524
1601 202148.2651 8254645.0183
1602 202148.5616 8254643.1612
1603 202148.966 8254640.664
1604 202152.541 8254638.636
1605 202108.0468 8254663.1295
1606 202181.7169 8254559.5694
1607 202181.6801 8254590.5694
1608 202181.6435 8254621.5695
1609 202187.476 8254653.581
1610 205615.7384 8255530.2948
1611 205505.8514 8255275.7196
1612 205688.097 8254972.9399
1613 205877.4825 8255416.2312
1614 202392.0474 8253719.2489
1615 202392.0277 8253715.0878
1616 202384.5274 8253719.2588
1617 201795.527 8253604.2085
1618 201784.2328 8253614.5188
1619 201767.1969 8253356.026
1620 201807.4269 8253592.7215
1621 201903.2684 8253507.6327
1622 201907.761 8253502.369
1623 201911.702 8253496.909
1624 201915.453 8253491.725
1625 201916.985 8253487.866
1626 201900.3671 8253511.3185
1627 201807.565 8254117.398
1628 201877.0068 8254118.8589
1629 201919.4468 8254161.809
1630 202026.767 8254022.1989
1631 202065.277 8254006.9189
1632 201985.7669 8254038.7589
1633 202047.2869 8254105.759
1634 202055.0669 8254145.009
1635 201916.6468 8254146.559
1636 201911.5768 8254114.659
1637 201963.3969 8254166.189
1638 201926.3868 8254175.489
1639 201924.9988 8254171.6025
1640 201919.4468 8254177.269
1641 202045.4865 8255098.1698
1642 201976.5152 8254903.2557
1643 202067.5952 8254920.2318
1644 203166.8783 8256201.6005
1645 203166.907 8256201.3691
1646 201849.9865 8254897.5095
1647 201850.0065 8254881.2895
1648 201748.4364 8254897.8395
1649 201766.1264 8254848.1194
1650 201766.1864 8254828.6394
1651 201813.0165 8254848.9195
1652 201857.1466 8254653.1693
1653 201856.5766 8254693.3194
1654 201706.2565 8254637.9893
1655 201705.0365 8254648.0593
1656 201781.2265 8254645.5593
1657 201748.1865 8254642.2393
1658 201746.3562 8255304.0998
1659 201798.0763 8255312.2698
1660 201698.4062 8255270.0697
1661 201885.6663 8255286.8498
1662 201752.2862 8255264.2198
1663 201845.7363 8255250.8898
1664 201841.0463 8255276.3898
1665 201885.9663 8255283.7498
1666 201697.1261 8255409.8298
1667 201781.5428 8254643.8338
1668 203791.9187 8257969.881
1669 203787.7683 8257979.327
1670 204567.052 8257585.536
1671 204567.08 8257587.069
1672 205662.5254 8255855.4138
1673 201692.0367 8255617.4646
1674 201691.593 8255617.304
1675 201673.832 8255611.743
1676 201651.747 8255604.277
1677 201630.645 8255595.682
1678 201605.573 8255586.203
1679 201562.64 8255570.746
1680 201480.647 8255541.534
1681 201856.021 8253730.936
1682 201856.2731 8253730.7156
1683 201870.914 8253717.899
1684 201884.117 8253705.025
1685 201898.766 8253691.275
1686 201232.6244 8253492.7539
1687 201234.7023 8253486.2139
1688 201258.3055 8253406.72
1689 201687.5141 8253297.7443
1690 201684.1269 8253301.7005
1691 202658.34 8254719.072
1692 202666.296 8254719.814
1693 202670.5748 8254720.1572
1694 201751.7191 8254847.9108
1695 201748.9664 8254847.8794
1696 205611.1522 8255004.716
1697 205610.1893 8255002.4612
1698 205608.7976 8254999.1997
1699 199306.658 8255753.153
1700 199294.408 8255755.272
1701 199292.3829 8255755.5873
1702 199273.371 8255757.528
1703 199249.526 8255761.152
1704 199228.322 8255764.097
1705 199204.654 8255768.58
1706 199185.916 8255772.303
1707 199156.915 8255778.884
1708 199140.57 8255782.126
1709 199121.999 8255786.313
1710 199109.685 8255790.904
1711 199091.529 8255796.892
1712 199075.181 8255805.551
1713 199056.983 8255814.998
1714 199038.214 8255825.786
1715 199023.632 8255835.865
1716 199007.726 8255846.207
1717 198992.236 8255856.083
1718 198976.661 8255864.141
1719 198965.866 8255869.566
1720 198949.241 8255877.989
1721 198925.723 8255892.376
1722 202351.3277 8252865.3582
1723 202350.3628 8252860.845
1724 202420.5676 8253194.8785
1725 201854.2069 8253887.7988
1726 201851.44 8253882.4423
1727 198716.0873 8255935.3471
1728 198714.4854 8255931.363
1729 202162.6949 8254196.5369
1730 202159.207 8254196.5591
1731 201036.3458 8252476.3216
1732 201031.6525 8252487.3496
1733 200735.874 8253282.2419
1734 200735.2546 8253278.1388
1735 202144.378 8254691.92
1736 202144.365 8254684.176
1737 201789.9394 8253598.0695
1738 201769.027 8253575.2785
1739 201770.3569 8253627.3585
1740 201908.7989 8253480.9328
1741 202679.1875 8254443.4595
1742 202700.1873 8254443.3795
1743 202477.5368 8255184.27
1744 202477.8268 8255183.57
1745 202441.4068 8255175.74
1746 202441.5068 8255175.19
1747 202381.1968 8255166.4
1748 202381.3168 8255165.4899
1749 202122.5576 8255052.0519
1750 202144.3573 8255053.257
1751 202153.8089 8255054.2784
1752 202163.1794 8255055.8558
1753 202164.8666 8255056.1398
1754 202079.632 8255104.705
1755 202088.738 8255105.883
1756 202088.561 8255105.888
1757 202387.0435 8254709.8325
1758 202393.0728 8254710.5271
1759 202554.087 8254990.2699
1760 202557.7949 8254991.7541
1761 202054.11 8255325.103
1762 202066.63 8255327.83
1763 199418.411 8256006.516
1764 199431.164 8256021.634
1765 199445.66 8256038.744
1766 199463.571 8256057.731
1767 199479.126 8256075.925
1768 199492.114 8256089.705
1769 199505.436 8256103.944
1770 199519.271 8256119.004
1771 199538.638 8256142.256
1772 199547.188 8256151.246
1773 199559.574 8256163.445
1774 199573.955 8256178.577
1775 199584.821 8256189.52
1776 199599.259 8256205.863
1777 199609.324 8256226.155
1778 199619.033 8256248.757
1779 199624.723 8256268.022
1780 199629.219 8256287.494
1781 199634.404 8256307.957
1782 199638.387 8256323.463
1783 201882.592 8255716.6246
1784 201880.8659 8255722.7353
1785 202150.3169 8254498.3093
1786 202154.871 8254612.553
1787 202568.0174 8253958.3991
1788 202015.981 8253876.0858
1789 201967.197 8253896.9488
1790 202398.1228 8255396.3983
1791 202472.1368 8255191.63
1792 202474.2768 8255192.07
1793 202483.0782 8255193.9829
1794 202144.345 8254662.015
1795 202654.412 8254737.418
1796 202655.2185 8254733.5197
1797 202314.7568 8254896.6097
1798 202546.8373 8254053.8492
1799 202556.8673 8254102.7192
1800 202351.5272 8254136.0392
1801 202396.9572 8254136.0292
1802 202347.497 8254499.0494
1803 202376.146 8254498.167
1804 202321.1968 8254854.2897
1805 200717.825 8253288.383
1806 202183.0175 8254695.964
1807 202174.5646 8254694.9853
1808 202173.117 8254694.843
1809 202241.0175 8253196.7284
1810 202194.8363 8253715.6935
1820 202205.3873 8253507.7386
1821 202202.4494 8253508.013
1822 202199.7238 8253508.2675
1823 202197.5238 8253508.473
1902 201693.7065 8254637.0093
1903 201691.2671 8254636.8225
1904 201689.7579 8254636.7082
1905 202179.2305 8253426.5154
1906 202181.8073 8253428.4585
1907 202208.9202 8253716.5196
1908 202212.5672 8253716.6654
1909 202216.9072 8253716.8388
1910 202489.268 8253486.408
1913 201935.753 8255086.195
1914 201919.854 8255083.177
1915 202384.4974 8253720.4789
1916 201690.0929 8253294.4657
1917 201565.8163 8253190.4869
1919 201829.496 8255672.425
1920 201808.436 8255663.115
1921 201789.712 8255655.539
1922 201772.433 8255648.195
1923 201750.916 8255638.729
1924 201905.1677 8254072.1786
1925 205820.113 8255850.698
1926 205802.828 8255860.683
1927 202039.9769 8254222.1191
1931 201871.7184 8255689.2132
1932 201871.7006 8255689.206
1933 201852.743 8255681.554
1934 198717.974 8255939.0495
1935 202464.6468 8255190.09
1936 202470.2068 8255191.23
1937 202380.2867 8255172.71
1938 202156.457 8254692.843
1939 202160.38 8254693.5045
1940 202164.303 8254694.166
1941 202168.71 8254694.5045
1942 201683.7464 8254635.7693
1943 201895.3266 8254657.0494
1944 201856.394 8255069.578
1945 201856.429 8255070.01
1946 201904.398 8255067.655
1947 202161.5267 8254457.9721
1948 201707.7665 8254448.6591
1949 201709.467 8254448.6591
1950 203122.114 8257576.304
1951 203130.9234 8257578.0709
1952 203130.924 8257578.071
2007 202084.427 8255115.115
2008 202087.198 8255116.223
2009 201699.0561 8255582.18
2010 204067.5254 8257483.702
2011 204070.4882 8257505.568
2012 204072.8409 8257523.703
2013 203993.9688 8257501.9382
2014 203997.2521 8257493.8061
2015 204092.5043 8257478.718
2016 204116.0213 8257474.616
2017 204135.6666 8257471.367
2018 204152.9575 8257468.358
2019 204158.26 8257469.09
2020 204165.4132 8257474.934
2021 204213.3982 8257490.742
2022 204191.1821 8257495.186
2023 204185.2291 8257496.277
2024 204174.8942 8257487.996
2027 202183.377 8254052.856
2028 202181.374 8254065.892
2029 202183.17 8254096.711
2030 202183.331 8254122.23
2031 202397.177 8254439.168
2032 202397.0917 8254445.2736
2033 202396.3529 8254498.131
2034 202396.2761 8254503.625
2035 202396.2164 8254507.8557
2036 202396.198 8254509.211
2037 202396.167 8254566.401
2038 201912.824 8253484.537
2039 201835.3 8255065.88
2040 201846.299 8255068.207
2041 203278.235 8256244.328
2042 203298.385 8256252.089
2043 203319.398 8256260.272
2044 203340.004 8256268.594
2045 203358.589 8256275.572
2046 203379.179 8256283.603
2047 203439.902 8256307.005
2048 203459.372 8256314.702
2049 203477.541 8256321.67
2050 203495.2298 8256328.4447
2051 203593.842 8256336.617
2052 204101.3786 8257077.327
2053 204119.5025 8257085.699
2054 204141.3908 8257095.441
2055 204159.797 8257104.069
2056 204158.0076 8256809.387
2057 204150.9893 8256824.589
2058 204143.3631 8256841.056
2059 204134.7622 8256860.044
2060 204125.5663 8256879.912
2061 204117.441 8256897.788
2062 204108.4586 8256917.325
2063 204100.1773 8256935.621
2064 204090.402 8256956.822
2065 203183.2485 8256920.0225
2066 203197.9062 8256922.7997
2067 203212.3612 8256928.2005
2068 203253.7916 8256946.508
2069 203274.9616 8256955.6591
2070 203322.5475 8256972.3462
2071 203351.3005 8256982.1242
2072 203037.1697 8256749.9831
2073 203052.1718 8256756.0872
2074 203084.6401 8256767.6681
2075 203113.4665 8256777.0035
2076 203130.1537 8256783.1122
2077 203155.2097 8256792.0942
2078 203165.4688 8256795.8449
2079 203185.8884 8256802.3593
2080 203194.4883 8256805.2168
2081 203221.9117 8256815.482
2082 203248.3724 8256825.1077
2083 203709.2045 8257173.5971
2084 203711.2069 8257174.536
2085 203727.3006 8257179.9351
2086 205329.1388 8258418.3869
2087 205330.7167 8258418.9032
2088 205333.812 8258419.916
2089 205345.61 8258424.695
2090 205357.985 8258428.733
2091 204932.126 8258284.957
2092 204930.4742 8258284.4267
2093 204401.5947 8258106.4845
2094 204394.5832 8258104.0098
2095 205095.4129 8257450.7457
2096 205074.8022 8257499.3667
2097 204860.0161 8256939.2317
2098 204848.5614 8256935.356
2099 204704.474 8257735.1481
2100 204657.5963 8257718.7882
2101 204313.0809 8256989.8241
2102 204332.8114 8256943.8817
2103 204353.8034 8256898.5018
2104 204374.8684 8256853.1557
2105 204395.8845 8256807.7868
2106 204415.807 8256761.9273
2107 204440.1221 8256708.6145
2108 202900.238 8257293.987
2109 202898.8101 8257293.3639
2110 202892.355 8257290.547
2111 202536.9471 8254053.7904
2112 202112.4859 8255123.4268
2113 202117.8806 8255123.9705
2114 202123.2879 8255124.4086
2115 202128.6698 8255125.0577
2116 202137.5197 8255126.125
2117 202146.3277 8255127.5391
2118 202155.1566 8255128.7798
2119 202532.6172 8254003.5085
2120 202536.8074 8254003.4791
2121 202263.5177 8252684.858
2122 202236.3831 8252634.2129
2123 202067.237 8253959.8489
2124 202084.117 8253993.2189
2125 205740.2384 8255823.0544
2126 205087.8169 8259807.2746
2127 204055.9772 8258012.6318
2128 204054.0068 8258016.6728
2132 202062.9618 8253826.6646
2133 202063.941 8253827.9424
2134 206074.5356 8255615.2127
2135 206072.2794 8255616.1818
2136 206076.7994 8255614.2518
2137 206157.9853 8255580.368
2138 205750.2212 8255822.0368
2139 205826.5497 8255787.4669
2140 205827.8205 8255790.4672
2141 205797.717 8255805.8378
2142 205796.5002 8255803.1315
2145 202219.4222 8254029.7077
2146 202219.4271 8254029.029
2147 202455.4375 8256691.1953
2148 202455.6536 8256690.6942
2149 202197.5291 8256216.9368
2150 202317.0384 8256637.733
2151 202317.1571 8256637.4733
2152 202317.2646 8256637.238
2153 202456.102 8256689.0264
2154 202459.1819 8256676.6335
2155 202459.5276 8256675.256
2156 205283.0384 8256908.8586
2157 202960.9051 8256671.485
2158 202955.8962 8256664.9969
2159 202954.4104 8256669.6967
2160 202897.8562 8256092.858
2161 202280.5013 8256546.166
2162 202380.638 8255892.3735
2163 202379.549 8255895.1797
2164 202377.584 8255905.72
2165 202324.407 8256043.541
2166 202369.263 8255928.414
2167 203099.2782 8256567.8709
2168 203097.6231 8256572.5355
2169 202224.271 8256561.294
2170 202151.4232 8256534.8728
2171 202098.1813 8256515.155
2172 202080.6059 8256508.6781
2173 202086.6023 8256493.4113
2174 202094.5878 8256472.9096
2175 202072.4866 8256529.3497
2176 202235.5276 8256526.7195
2177 201877.2573 8251791.6631
2178 202353.7818 8254331.594
2179 202716.818 8257172.944
2180 202727.5821 8257151.299
2181 202735.0364 8257126.6351
2182 202748.1872 8257096.0786
2183 202756.4438 8257074.566
2184 202766.1825 8257039.2806
2185 202772.6516 8257028.9225
2186 202780.6004 8257011.1595
2187 202790.3964 8256984.7095
2188 202804.4322 8256944.5633
2189 202811.8267 8256922.3679
2190 202828.6464 8256887.2246
2191 202841.8635 8256846.633
2192 203189.49 8257699.877
2193 203295.079 8257248.532
2194 202533.3273 8254102.7992
2195 202547.4171 8254102.7386
2196 202378.131 8253496.701
2197 200354.2073 8255602.957
2198 205081.3672 8257445.9049
2199 205089.7694 8257448.8457
2200 204837.4069 8258239.7685
2201 201857.04 8255042.286
2202 201856.841 8255060.773
2203 202624.3232 8254235.7521
2204 202620.057 8254223.539
2205 202619.999 8254222.67
2206 202618.53 8254214.475
2207 203394.2682 8256998.6084
2208 202914.645 8257287.979
2209 202914.333 8257289.06
2210 202914.148 8257289.472
2211 202913.939 8257290.518
2212 202912.623 8257293.548
2213 201943.7264 8253632.3757
2214 201941.4834 8253626.8226
2215 202183.441 8254199.131
2216 202183.445 8254220.011
2217 202183.157 8254246.173
2218 202182.976 8254272.291
2219 202182.39 8254300.789
2220 202182.687 8254322.273
2221 202182.385 8254334.835
2222 202127.068 8255118.793
2223 202985.7864 8256896.9627
2224 202986.9151 8256893.8652
2225 202998.4824 8256862.1219
2226 202393.202 8254709.777
2227 202394.565 8254701.871
2228 202395.436 8254694.9135
2229 202922.7012 8256870.0147
2230 202958.3937 8256884.7699
2231 201949.1678 8253643.694
2232 201945.852 8253636.606
2233 202396.307 8254687.956
2234 202396.314 8254687.5853
2235 202253.1358 8253205.1215
2236 202254.021 8253205.579
2237 202183.129 8254183.103
2238 202183.271 8254185.397
2239 202183.3298 8254186.3472
2240 202183.413 8254187.691
2241 202183.4225 8254188.005
2242 202398.135 8254226.801
2243 202398.0699 8254240.3782
2244 202397.32 8254396.886
2245 201894.4838 8255685.983
2246 201890.231 8255696.655
2247 201846.212 8255693.439
2250 201909.5261 8255646.5846
2251 201905.373 8255657.457
2252 201899.4333 8255672.846
2253 202528.4274 8253966.2291
2254 202534.8185 8253964.4644
2255 201919.2468 8254247.2691
2256 201919.3476 8254224.2192
2265 203337.7226 8256289.2905
2266 203353.2969 8256295.1375
2267 203415.5966 8256318.2481
2268 203473.4575 8256341.2983
2269 202529.587 8255950.944
2270 202549.246 8255958.387
2271 202568.978 8255966.168
2272 202589.708 8255974.474
2273 202608.31 8255981.633
2274 202628.353 8255989.509
2275 202638.9846 8255993.6166
2276 202649.401 8255997.641
2277 202673.663 8256007.361
2278 202692.678 8256014.769
2279 202714.99 8256024.123
2280 202733.834 8256031.734
2281 202753.029 8256038.811
2282 202771.546 8256046.156
2283 202788.508 8256052.805
2284 202806.05 8256059.612
2285 202825.19 8256067.064
2286 202843.957 8256074.411
2287 202865.152 8256082.409
2288 202883.899 8256089.936
2289 202901.846 8256097.033
2290 202917.675 8256103.206
2291 202935.649 8256110.141
2292 202954.184 8256117.303
2293 202973.538 8256124.538
2294 203005.04 8256136.671
2295 203021.9 8256143.103
2296 203043.271 8256151.638
2297 203059.652 8256158.428
2298 203073.229 8256163.905
2299 203090.772 8256170.588
2300 203110.515 8256178.236
2301 203128.009 8256184.664
2302 202442.1583 8255913.2928
2303 200624.449 8252946.406
2304 200633.0343 8252995.7075
2305 200636.9275 8253009.1873
2306 200637.913 8253023.0232
2307 200641.6457 8253048.6974
2308 200645.5381 8253063.7334
2309 200658.3463 8253132.9177
2310 200674.2063 8253216.7977
2311 200687.0463 8253281.7778
2354 198913.6149 8255882.4835
2355 198914.926 8255885.538
2356 199752.1617 8255880.8392
2357 199716.36 8255896.2051
2358 200347.4035 8256118.5821
2359 200346.7506 8256122.6346
2360 200346.0771 8256126.8152
2361 200345.4032 8256130.9979
2362 200344.7948 8256134.774
2363 200344.605 8256135.952
2364 200349.7392 8256131.7826
2365 200350.4271 8256127.4963
2366 200350.9933 8256123.3159
2367 200351.9157 8256119.3675
2368 200500.763 8255582.882
2369 200468.901 8255586.834
2370 200451.142 8255589.182
2371 200432.059 8255592.185
2372 200415.002 8255594.533
2373 200397.511 8255596.941
2374 200387.047 8255597.982
2375 200353.762 8256086.611
2376 200358.191 8256045.389
2377 200219.374 8256041.443
2378 200217.82 8255929.49
2379 200213.2463 8255929.4955
2380 198767.329 8256173.697
2381 198799.0413 8256175.5936
2382 198822.0542 8256177.3279
2383 198837.7221 8256178.6153
2384 198860.5803 8256181.3416
2385 198874.9581 8256182.6999
2386 198889.4148 8256181.1097
2387 198900.0113 8256176.2628
2388 198913.8625 8256165.1303
2389 198924.2327 8256159.9769
2390 198934.6022 8256159.2953
2391 198967.9146 8256161.3321
2392 198976.2404 8256161.7108
2393 199058.7478 8256160.6536
2394 199698.6248 8255903.8169
2395 199680.995 8255912.9065
2396 199645.4737 8255935.7729
2397 199273.33 8256098.17
2398 199276.372 8256107.456
2399 199279.97 8256121.284
2400 199284.726 8256140.772
2401 199285.402 8256152.738
2402 199286.056 8256168.005
2403 199285.378 8256183.59
2404 199283.321 8256193.915
2405 199274.706 8256212.318
2406 199266.522 8256227.016
2407 199255.129 8256246.797
2408 199241.843 8256265.433
2409 199229.608 8256282.798
2410 199214.075 8256305.282
2411 199203.257 8256320.689
2412 199197.06 8256327.778
2413 199189.309 8256334.674
2414 199181.076 8256339.313
2415 199165.038 8256347.857
2416 199148.384 8256354.911
2417 199132.792 8256364.426
2418 199108.835 8256379.837
2419 199094.878 8256389.473
2420 199084.329 8256397.096
2421 199062.667 8256411.118
2422 199046.73 8256422.65
2423 199025.656 8256440.793
2424 199019.233 8256450.48
2425 199015.914 8256456.479
2426 199014.547 8256459.47
2427 199012.387 8256464.518
2428 199007.929 8256480.025
2429 199015.631 8256513.789
2430 199019.932 8256531.893
2431 199028.701 8256547.264
2432 199041.193 8256561.014
2433 199060.982 8256571.068
2434 199080.583 8256580.865
2435 199099.438 8256589.909
2436 199121.015 8256599.443
2437 199420.0228 8255988.5883
2438 199421.5548 8255985.7691
2439 199423.6969 8255982.6308
2440 199426.7409 8255979.0775
2441 199533.141 8255883.42
2442 199321.24 8255979.648
2443 199345.733 8255991.0
2444 199366.046 8255999.93
2445 199388.97 8256007.529
2446 199103.4381 8256374.1903
2447 199307.32 8255975.097
2448 199310.21 8255988.158
2449 199312.8 8256003.383
2450 199313.007 8256019.054
2451 199311.778 8256038.592
2452 199306.675 8256057.643
2453 199298.207 8256071.228
2454 199287.228 8256083.756
2455 199262.595 8256116.782
2456 199251.516 8256131.207
2457 199756.263 8255688.769
2458 199750.193 8255689.698
2459 199727.802 8255692.18
2460 199651.398 8255703.354
2461 199629.161 8255706.923
2462 199606.497 8255710.389
2463 199586.661 8255713.329
2464 199565.132 8255716.497
2465 199546.018 8255719.206
2466 199523.931 8255722.24
2467 199503.649 8255725.192
2468 199482.463 8255728.029
2469 199461.875 8255730.382
2470 199441.69 8255732.705
2471 199419.003 8255736.285
2472 199396.532 8255740.209
2473 199375.028 8255743.217
2474 199353.948 8255745.839
2475 199333.458 8255748.512
2476 199315.254 8255751.647
2477 202049.2328 8255680.348
2478 202051.8353 8255679.298
2479 202055.6866 8255681.065
2480 202059.538 8255682.8321
2481 202061.3436 8255683.6606
2482 202063.0858 8255684.6195
2483 202064.8238 8255685.5854
2484 202066.4514 8255686.4899
2485 202068.047 8255687.446
2486 202069.6435 8255688.4006
2487 202071.3924 8255689.4462
2488 202072.9438 8255690.8425
2489 202074.7969 8255691.6908
2490 202086.6379 8255697.1114
2491 202098.4788 8255702.5319
2492 202110.3198 8255707.9525
2493 202040.447 8255680.071
2494 202168.0304 8255643.9233
2495 202182.0464 8255599.8002
2496 202049.3929 8255559.264
2497 202049.0714 8255561.5341
2498 202210.3264 8255743.0703
2499 202207.6583 8255753.6197
2500 202205.8262 8255752.8474
2501 202214.3364 8255731.5903
2502 202254.1564 8255761.0604
2503 202262.176 8255630.602
2504 201819.2863 8255312.8498
2505 201867.9563 8255321.1699
2506 201801.9663 8255309.9398
2507 201801.1063 8255312.7498
2508 201740.9662 8255265.4798
2509 201798.8896 8255269.2298
2510 201827.3064 8255103.2097
2511 201740.9063 8255090.9196
2512 201833.369 8255075.747
2513 201820.4863 8255145.1197
2514 201817.9463 8255160.5897
2515 201857.5264 8255166.8197
2516 201868.5264 8255100.4697
2517 201828.805 8255064.634
2518 201741.3763 8255046.6696
2519 201907.986 8255080.59
2520 201895.932 8255078.208
2521 201870.54 8255072.896
2522 201995.3168 8254307.0691
2523 202039.5669 8254306.9592
2524 201995.3468 8254322.2991
2525 201995.4668 8254337.5492
2526 201969.7068 8254322.1491
2527 201970.3868 8254397.3992
2528 202067.2569 8254268.6391
2529 202436.4973 8254053.7391
2530 202343.2918 8252363.5395
2531 202326.5285 8252264.9544
2532 202306.0233 8252188.9956
2533 202298.2494 8252169.0362
2534 202356.7779 8252370.3278
2535 202202.4197 8252862.477
2536 202166.3741 8252861.216
2537 202100.5216 8252869.1218
2538 202242.4043 8252874.1001
2539 202244.2135 8252874.5939
2540 202245.5293 8252875.5816
2541 202246.5984 8252876.8984
2542 202247.3385 8252878.4621
2543 202247.6284 8252881.6861
2544 202247.9511 8252884.9385
2545 202250.2072 8252907.6766
2546 202041.8866 8253113.3485
2547 201973.0241 8253083.02
2548 202099.5773 8253135.5402
2549 202020.2159 8252991.8663
2550 202255.9517 8252910.554
2551 202235.6977 8252632.928
2552 202229.7822 8252619.0482
2553 202218.5174 8252604.9547
2554 202212.4001 8252597.3249
2555 202206.9034 8252594.5746
2556 202201.4067 8252592.1791
2557 202194.6688 8252590.0499
2558 202160.1177 8252564.1479
2559 202343.2677 8252863.0482
2560 202285.1876 8252868.2682
2561 202104.2072 8253613.5087
2562 201734.3667 8254074.1688
2563 201773.7568 8254074.2189
2564 201734.3667 8254118.9089
2565 201773.7467 8254119.0489
2566 201877.0568 8254075.1489
2567 201807.245 8254073.738
2568 201792.0767 8254118.8989
2569 201792.2567 8254161.8389
2570 201896.5368 8254202.569
2571 201773.9467 8254161.7689
2572 201789.0367 8254161.7589
2573 201735.4667 8254161.7189
2574 202405.057 8253719.2637
2575 202527.2375 8253720.2589
2576 202525.2775 8253720.2289
2577 202347.9871 8254370.3993
2578 202067.1769 8254137.4338
2579 202181.4369 8254502.9594
2580 202156.3969 8254295.7692
2581 202159.257 8254119.4591
2582 202154.017 8254120.8391
2583 202155.317 8254120.4991
2584 202112.987 8254130.659
2585 202225.167 8254196.5691
2586 202184.571 8254196.722
2587 202469.3972 8254310.1593
2588 202555.5172 8254310.1594
2589 202555.4673 8254269.5393
2590 202469.4072 8254266.6393
2591 202570.0673 8254269.5393
2592 202570.0673 8254280.7194
2593 202516.4672 8254269.5093
2594 202398.93 8254218.39
2595 202280.697 8254325.4493
2596 202389.9071 8254325.4393
2597 202385.5571 8254433.3394
2598 202280.697 8254280.4192
2599 202225.167 8254280.4192
2600 202225.147 8254242.5892
2601 202228.427 8254196.6091
2602 202254.5071 8254196.5592
2603 202254.527 8254242.5892
2604 202320.8371 8254196.5392
2605 202320.7071 8254242.7392
2606 202389.6172 8254145.1492
2607 202351.0472 8254145.1392
2608 202079.9972 8253478.3385
2609 202056.4472 8253451.7485
2610 202083.1013 8253475.5341
2611 202245.6174 8253461.3486
2612 202426.5575 8253444.0487
2613 202242.8274 8253415.4986
2614 202360.4275 8253318.2985
2615 202364.8261 8253317.5884
2616 202358.6875 8253309.9485
2617 202444.0076 8253318.5186
2618 202425.6975 8253438.9187
2619 202387.2075 8253443.1586
2620 202430.7476 8253438.3497
2621 202433.469 8253484.706
2622 202429.365 8253462.402
2623 202488.1575 8253528.8787
2624 202477.984 8253488.78
2625 202343.0274 8253632.8788
2626 202344.4574 8253647.8388
2627 202338.5974 8253632.9788
2628 202304.4573 8253634.3388
2629 202340.1974 8253661.6788
2630 202340.2074 8253585.7887
2631 202516.9575 8253676.8689
2632 202286.6673 8253676.4188
2633 202253.1806 8253676.5888
2634 202298.4873 8253676.2688
2635 202385.5474 8253676.7088
2636 202408.4074 8253677.0688
2637 202427.9074 8253676.8788
2638 202471.4674 8253676.7489
2639 202471.6874 8253676.7489
2640 202524.5475 8253720.2089
2641 202409.5874 8253719.2689
2642 202405.0574 8253718.9989
2643 202488.2974 8253767.2989
2644 202480.1274 8253724.1689
2645 202277.8273 8253761.0888
2646 202497.8374 8253818.119
2647 202383.1373 8253812.5589
2648 202668.4373 8254429.3095
2649 202627.1618 8254248.6561
2650 202228.4371 8254158.4691
2651 202185.157 8254187.0491
2652 202187.5489 8254029.0008
2653 202224.217 8254187.1591
2654 202224.2771 8254124.5491
2655 202345.8472 8254124.5291
2656 202345.7972 8254152.9592
2657 202309.5671 8254124.4791
2658 202309.4471 8254154.0691
2659 202105.587 8254090.269
2660 202107.277 8254053.939
2661 202113.247 8254088.349
2662 202086.947 8254094.974
2663 202086.6603 8253998.1389
2664 202109.937 8254043.359
2665 202224.1671 8253999.179
2666 202351.5772 8253999.159
2667 202436.4873 8253957.6191
2668 202526.3174 8253957.9191
2669 202399.5873 8253957.629
2670 202524.9974 8253952.9291
2671 202515.2374 8253911.2891
2672 202505.9674 8253866.129
2673 201473.7969 8253206.5481
2674 201518.4107 8253200.1707
2675 201526.2386 8253197.1235
2676 201540.4684 8253189.7767
2677 201550.2724 8253187.2639
2678 201555.5005 8253187.6206
2679 201936.957 8253854.6488
2680 201894.1469 8253872.4288
2681 201824.5969 8253897.8588
2682 201947.1056 8254044.4165
2683 201950.1612 8254051.6565
2684 201930.6387 8253466.6809
2685 201957.664 8253413.049
2686 201973.373 8253386.377
2687 201965.255 8253400.678
2688 202018.303 8253309.407
2689 202019.047 8253309.632
2690 202020.1048 8253305.6505
2691 202018.873 8253307.753
2692 202594.976 8255987.175
2693 202575.645 8255980.724
2694 202541.344 8255966.241
2695 202508.752 8255954.986
2696 202472.095 8255940.76
2697 202443.229 8255929.849
2698 202415.382 8255918.195
2699 202317.975 8256059.717
2700 204393.248 8256560.548
2701 204412.18 8256559.606
2702 204433.227 8256558.611
2703 204446.3471 8256556.1101
2704 202843.7148 8256841.964
2705 202849.2938 8256844.089
2706 202870.6898 8256852.804
2707 202888.9235 8256860.184
2708 202922.6407 8256873.39
2709 202943.3646 8256881.275
2710 202962.9291 8256889.239
2711 202990.6061 8256898.666
2712 202992.81 8256899.747
2713 202199.9373 8253557.1786
2714 202195.6438 8253557.1786
2715 202798.1446 8256824.5567
2716 202809.9196 8256829.0967
2717 202812.5322 8256830.104
2718 202998.5252 8256901.6041
2719 203001.4509 8256902.311
2720 202467.0638 8256695.353
2721 202483.8973 8256701.561
2722 202503.5928 8256708.977
2723 202518.2272 8256714.841
2724 202536.3555 8256722.117
2725 202559.4594 8256730.674
2726 202575.3435 8256736.858
2727 202595.621 8256744.884
2728 202620.4474 8256753.844
2729 202634.4075 8256759.465
2730 202658.5701 8256769.194
2731 202672.4904 8256774.7654
2732 202683.7057 8256779.2542
2733 202689.9615 8256781.758
2734 202712.5171 8256789.971
2735 202734.2135 8256799.757
2736 202752.9633 8256806.834
2737 202193.5271 8253953.1289
2738 202189.4924 8253953.1255
2739 202117.158 8253971.0622
2740 202116.4741 8253971.4195
2741 202115.3083 8256558.549
2742 202137.5797 8256567.39
2743 202167.6347 8256578.522
2744 202190.754 8256587.758
2745 202214.6823 8256597.113
2746 202318.0315 8256638.1416
2747 202334.1013 8256644.754
2748 202348.3083 8256650.232
2749 202366.7435 8256657.146
2750 202382.2085 8256663.0245
2751 202387.531 8256665.06
2752 202404.113 8256671.373
2753 202421.5525 8256678.2586
2754 202422.2667 8256678.5406
2755 202075.6095 8256544.073
2756 202076.1688 8256542.468
2757 202080.2124 8256544.378
2758 202099.6132 8256552.235
2759 204404.4436 8254419.0819
2760 204406.0029 8254417.2328
2761 203887.4998 8253995.0948
2762 203889.9498 8253992.4648
2763 200846.3768 8252397.8372
2764 200260.1363 8252410.157
2765 201037.5369 8252473.5617
2766 200715.5667 8252343.5071
2767 202356.3072 8253957.629
2768 202356.3072 8253961.5932
2769 202326.778 8257030.053
2770 202335.708 8257033.617
2771 202396.5859 8254216.979
2772 202016.7168 8254461.1948
2773 202016.7468 8254458.3193
2774 202193.4571 8253957.589
2775 202203.4269 8253957.6156
2776 201807.2867 8254202.549
2777 201794.1567 8254202.179
2778 201794.0467 8254246.669
2779 201925.8067 8254502.1593
2780 201925.7867 8254498.9093
2781 202015.9668 8254499.4893
2782 202018.4668 8254499.4793
2783 201796.6066 8254589.0293
2784 201846.8066 8254593.7793
2785 201747.0565 8254584.4492
2786 202131.364 8256952.715
2787 202148.487 8256959.666
2788 202153.397 8256961.281
2789 202171.661 8256968.839
2790 202082.249 8256933.492
2791 202083.15 8256933.932
2792 202084.043 8256934.215
2793 202092.636 8256937.577
2794 202287.129 8257014.33
2795 202287.702 8257014.614
2796 202306.292 8257022.14
2797 202249.64 8256999.004
2798 202266.525 8257005.713
2799 202211.04 8256984.023
2800 202230.971 8256991.973
2801 202189.233 8256975.49
2802 202195.473 8256977.949
2803 202194.4073 8253439.3886
2804 201882.0859 8253667.4456
2805 201885.6042 8253671.0854
2806 201910.744 8255640.0
2807 201917.0762 8255630.3701
2810 201773.6267 8254202.779
2811 201735.5967 8254202.5489
2812 201786.2267 8254202.799
2813 201785.6767 8254240.879
2814 201711.3759 8254240.7317
2815 201923.3481 8253478.8051
2816 201923.7858 8253477.8087
2817 202304.2907 8255954.0451
2818 202303.66 8255956.42
2819 202299.571 8255968.106
2820 202298.971 8255969.888
2821 202293.229 8255987.063
2822 202285.947 8256005.717
2823 202276.524 8256030.615
2824 202274.238 8256037.111
2825 202271.68 8256042.982
2826 202270.576 8256045.842
2827 202267.0 8256054.482
2828 202265.758 8256057.935
2829 202259.739 8256071.505
2830 202257.451 8256077.062
2831 202253.509 8256086.771
2832 202252.811 8256088.498
2833 202249.978 8256095.741
2834 202248.201 8256100.337
2835 202245.138 8256108.173
2836 202239.474 8256123.247
2837 202233.783 8256135.807
2838 202228.789 8256149.652
2839 202222.511 8256164.178
2840 202221.956 8256165.477
2841 202217.55 8256169.739
2842 202211.768 8256175.267
2843 202204.839 8256180.805
2844 202201.604 8256184.101
2845 202199.521 8256189.005
2846 202196.718 8256199.243
2847 202191.701 8256214.432
2848 202183.172 8256236.682
2849 202172.899 8256257.631
2850 202165.996 8256277.958
2851 202157.359 8256297.881
2852 202144.85 8256326.79
2853 202137.357 8256349.658
2854 202107.165 8256431.161
2855 202101.254 8256447.074
2856 202093.34 8256472.486
2857 202079.091 8256505.099
2858 202069.8427 8256525.726
2859 202097.985 8256939.5642
2860 202102.143 8256941.109
2861 202119.349 8256947.69
2862 202079.735 8256925.269
2863 202079.024 8256926.727
2864 202077.9231 8256931.7451
2865 202917.432 8257330.988
2866 203022.4303 8257353.576
2867 203004.3385 8257348.655
2868 202985.4052 8257343.152
2869 203046.6468 8257387.257
2870 203037.45 8257411.722
2871 203030.385 8257429.774
2872 203169.3579 8257674.857
2873 203180.0654 8257678.7589
2874 203194.4825 8257684.1801
2875 203202.6424 8257687.6506
2876 204128.1631 8257186.1967
2877 204132.0461 8257188.3926
2878 204141.9045 8257191.7569
2879 204153.77 8257196.1993
2880 204164.9242 8257203.3203
2881 204187.0907 8257215.946
2882 204199.886 8257222.444
2883 204210.7778 8257227.3155
2884 204219.1708 8257228.4329
2885 204225.3845 8257228.3362
2886 204244.6129 8257226.5964
2887 204032.8831 8257494.6651
2888 204044.9598 8257493.064
2889 204059.0218 8257487.536
2890 204112.9186 8257203.6958
2891 204113.28 8257203.559
2892 204112.8724 8257202.2751
2893 204117.6966 8257214.3892
2894 203815.2961 8256469.6221
2895 203799.6147 8256463.9799
2896 203579.1036 8256909.3345
2897 203616.2108 8256921.7723
2898 203651.3641 8256936.2471
2899 203711.8569 8256786.7103
2900 203696.3167 8256827.7719
2901 203688.5531 8256847.6252
2902 204078.4681 8257219.4031
2903 204084.179 8257215.821
2904 204096.355 8257208.703
2905 203812.0559 8256523.2868
2906 203810.5062 8256547.7537
2907 203806.6803 8256560.673
2908 204112.4493 8257200.4909
2914 204110.118 8257193.7305
2915 204109.8681 8257192.8751
2916 204109.8121 8257192.2821
2917 204107.0331 8257186.3851
2918 204044.3611 8257056.2851
2919 204038.1471 8257041.4701
2920 204031.6611 8257024.6151
2921 204039.3781 8257021.9531
2922 204031.6881 8257002.8391
2923 204023.5241 8256983.2311
2924 203815.2731 8256468.8801
2925 203796.6731 8256729.0011
2926 203789.5371 8256748.1261
2927 203782.0331 8256768.1671
2928 203831.0613 8256519.9914
2929 203834.8051 8256529.6201
2930 203842.2351 8256548.5421
2931 203845.5586 8256556.6753
2932 203817.9611 8256452.3891
2933 205167.3817 8259453.7131
2934 205118.5095 8259734.304
2935 202178.0478 8253717.2417
2936 202160.364 8253717.7587
2937 202107.0607 8253613.3919
2938 202156.0072 8253611.3887
2939 202056.1249 8253778.4644
2940 202041.6671 8253778.5488
2941 202153.2172 8253582.2686
2942 202147.4573 8253514.8686
2943 202044.4885 8253614.8585
2944 201938.6402 8255653.4795
2945 201948.098 8255657.223
2946 204857.5268 8257788.5796
2947 202040.872 8253269.993
2948 202032.673 8253284.065
2949 202065.733 8253229.0329
2950 202045.665 8253261.91
2951 202045.6569 8253261.9236
2952 201981.167 8253796.9687
2953 201925.847 8253820.2046
2954 201920.107 8253822.7387
2955 201908.847 8253797.2187
2956 201859.4469 8253942.1888
2957 201861.6669 8253946.3488
2958 201898.8369 8253925.5188
2959 201903.1909 8254060.5526
2960 201788.714 8254030.444
2961 201800.049 8254030.344
2962 201819.599 8254030.238
2963 201846.575 8254030.164
2964 201748.3 8254030.116
2965 201729.82 8254030.426
2966 201709.326 8254030.588
2967 201759.842 8254030.211
2968 201911.1665 8254247.2081
2969 201882.7168 8254246.849
2970 201882.4167 8254288.9091
2971 201710.0466 8254253.109
2972 201711.1082 8254247.7199
2973 201882.4167 8254329.5391
2974 201881.9967 8254371.0091
2975 201848.2267 8254328.9191
2976 201839.6867 8254328.6891
2977 201839.7067 8254370.6891
2978 201775.0766 8254328.5391
2979 201775.2766 8254328.5391
2980 201789.8067 8254328.5391
2981 201849.8567 8254370.6391
2982 201789.7766 8254369.9291
2983 201749.7166 8254328.369
2984 200810.7527 8253357.6825
2985 200805.4326 8253374.2492
2986 200748.124 8253356.5087
2987 200946.4443 8253417.4813
2988 202136.9733 8254665.2838
2989 202132.5358 8254664.9601
2990 202670.1873 8254443.4895
2991 202151.5545 8254692.2825
2992 202072.0466 8254908.3996
2993 202071.3166 8254908.2196
2994 202324.32 8255154.151
2995 202320.4923 8255154.9114
2996 202315.2567 8255159.7399
2997 202315.1467 8255160.2899
2998 202086.2084 8255105.5679
2999 202083.872 8255105.25
3000 202346.667 8254417.7461
3001 202224.197 8254370.3293
3002 202224.7169 8254417.5793
3003 202659.62 8254713.261
3004 202682.904 8254721.065
3005 202809.0973 8254732.7498
3006 202531.3372 8254444.0595
3007 202435.6671 8254434.2194
3008 202435.6671 8254394.1694
3009 202345.937 8254499.0694
3010 202662.2672 8254628.0697
3011 202662.2372 8254634.4297
3012 202096.1667 8254765.7195
3013 202065.2367 8254760.5495
3014 202133.793 8254683.475
3015 202133.7919 8254683.475
3016 202110.3569 8254681.6253
3017 202447.8871 8254434.7294
3018 202575.157 8254935.2699
3019 202570.907 8254940.8299
3020 202557.427 8254981.1999
3021 202518.7069 8254975.1199
3022 202202.8567 8254962.9097
3023 202276.1168 8254974.7898
3024 202199.3867 8254981.2497
3025 202622.6272 8254434.6095
3026 202614.1273 8254395.0395
3027 202623.7972 8254439.2895
3028 202662.4972 8254571.5596
3029 202662.5272 8254570.1796
3030 202613.9853 8254732.1103
3031 202656.349 8254738.048
3032 202653.6073 8254432.4295
3033 202647.2472 8254507.3596
3034 202647.8972 8254486.1595
3035 202654.1586 8254434.5972
3036 202647.4472 8254529.7396
3037 202670.6972 8254507.3396
3038 202634.3672 8254634.4897
3039 202634.6472 8254613.4196
3040 202634.3672 8254655.4197
3041 202670.7372 8254570.2696
3042 202103.9067 8254719.9295
3043 202069.4667 8254715.6795
3044 202089.2667 8254805.9296
3045 202045.1467 8254800.4695
3046 202187.6767 8254918.8697
3047 202307.8268 8254938.7597
3048 202409.712 8254711.866
3049 202530.6671 8254703.9997
3050 202552.6571 8254705.8897
3051 202574.9071 8254613.1296
3052 202574.9771 8254571.3896
3053 202574.5472 8254528.7095
3054 202532.3772 8254444.0495
3055 202088.3768 8254457.5793
3056 202109.0374 8254457.5164
3057 202531.5771 8254499.6595
3058 202195.401 8254508.845
3059 202224.4269 8254503.2694
3060 202111.1268 8254498.0993
3061 202067.5568 8254499.3593
3062 202337.5269 8254757.1496
3063 202216.7368 8254731.6696
3064 202329.9869 8254804.1597
3065 202208.8268 8254782.0996
3066 202201.2868 8254832.0596
3067 202346.4849 8254704.3692
3068 202193.2167 8254878.5897
3069 202380.182 8254709.042
3070 202076.7678 8254879.7096
3071 202068.8166 8254919.6096
3072 202354.7235 8254945.9034
3073 202348.0068 8254945.0098
3074 202473.877 8254799.5897
3075 202403.5669 8254788.8397
3076 202509.647 8254805.4397
3077 202580.607 8254816.8498
3078 202467.007 8254840.3497
3079 202502.247 8254847.0998
3080 202397.4569 8254829.0597
3081 202564.677 8254857.9598
3082 202394.9037 8254844.8632
3083 202539.177 8254921.9598
3084 202533.947 8254935.0698
3085 202549.527 8254896.2098
3086 202347.537 8254503.9761
3087 202346.527 8254549.8628
3088 202377.164 8254503.745
3089 202389.1136 8254503.6589
3090 202393.815 8254503.625
3091 202320.757 8254417.5894
3092 202256.517 8254417.4593
3093 202224.8169 8254456.5993
3094 202305.557 8254505.8294
3095 202305.207 8254548.5694
3096 202265.9269 8254505.5494
3097 202266.3769 8254548.4594
3098 202305.347 8254457.1694
3099 202266.267 8254456.9094
3100 202345.747 8254457.5194
3101 202221.763 8254658.377
3102 202224.8669 8254632.9695
3103 202346.457 8254587.7595
3104 202225.9869 8254548.7594
3105 202225.4569 8254587.4694
3106 202254.8769 8254587.3795
3107 202315.9902 8254587.4595
3108 202254.2369 8254633.0595
3109 202316.2569 8254633.0695
3110 202253.7969 8254633.0595
3111 202346.1569 8254633.2695
3112 202397.1952 8254433.7771
3113 202416.6271 8254484.5894
3114 202509.5671 8254485.7795
3115 202416.6271 8254508.0095
3116 202416.617 8254529.3495
3117 202408.85 8254574.073
3118 202484.4471 8254571.5995
3119 202420.957 8254613.5095
3120 202421.517 8254656.5196
3121 202507.5071 8254655.3396
3122 202420.657 8254632.9896
3123 202396.031 8254634.249
3124 202416.133 8254634.108
3125 202398.497 8254687.799
3126 202508.5771 8254529.1895
3127 202484.7671 8254529.1195
3128 202531.0271 8254655.6896
3129 202530.0271 8254613.5696
3130 202529.8271 8254628.6396
3131 202544.6971 8254528.9195
3132 202409.2568 8255000.4098
3133 202415.8869 8254958.1698
3134 202440.1669 8255005.6099
3135 202447.7169 8254963.4598
3136 202187.3367 8255053.3698
3137 202366.4768 8255015.2598
3138 202353.56 8255016.414
3139 201746.0291 8254815.0808
3140 201705.5291 8254815.4008
3141 201889.2365 8254880.2495
3142 201881.7767 8254411.2592
3143 201814.5766 8254458.0759
3144 201814.4366 8254498.4092
3145 201843.7466 8254498.4792
3146 201792.8366 8254498.3542
3147 201904.292 8254638.604
3148 201914.947 8254640.444
3149 201903.0649 8254638.5021
3150 201904.7066 8254618.6993
3151 201968.1366 8254792.1695
3152 201991.9366 8254794.5695
3153 201934.3366 8254700.4094
3154 201996.4866 8254752.3495
3155 201703.4046 8254637.762
3156 202067.4068 8254458.1993
3157 201707.7065 8254457.9491
3158 201749.0664 8254792.2094
3159 201749.0865 8254749.2094
3160 201749.0264 8254815.0294
3161 201899.6265 8254843.7395
3162 201899.8765 8254784.4095
3163 201899.6566 8254741.8894
3164 201903.5792 8254696.8618
3165 201904.022 8254680.565
3166 201904.3023 8254660.8392
3167 201898.6565 8254926.0996
3168 201898.8938 8254929.2091
3169 201902.6251 8254981.1885
3170 201707.8265 8254622.2893
3171 201707.6313 8254626.3092
3172 201707.5279 8254628.4395
3173 201970.3267 8254458.4042
3174 201930.0699 8254745.0394
3175 201853.0165 8254881.3295
3176 201888.3765 8254881.6995
3177 201854.7265 8254793.0894
3178 201851.9165 8254849.0295
3179 201855.5465 8254744.1394
3180 201813.0365 8254792.5994
3181 201748.7965 8254698.3193
3182 201749.0288 8254813.6694
3183 201702.4864 8254815.4394
3184 201905.926 8254618.457
3185 201907.5208 8254604.0399
3186 201908.0456 8254599.2953
3187 201877.231 8254636.449
3188 201896.797 8254637.988
3189 202021.2448 8254608.0148
3190 201973.464 8254609.459
3191 201972.94 8254589.166
3192 201968.5267 8254499.2993
3193 201747.0266 8254498.3392
3194 201708.2565 8254498.2792
3195 202152.243 8254040.079
3196 202151.628 8254039.197
3197 202140.82 8254019.215
3198 202133.434 8254002.715
3199 202127.047 8253989.244
3200 202117.582 8253970.809
3201 202182.181 8254357.822
3202 202182.055 8254376.54
3203 202181.924 8254397.302
3204 202182.047 8254421.89
3205 202181.921 8254442.531
3206 202181.406 8254462.298
3207 202182.0272 8253717.1788
3208 202187.1372 8253813.6988
3209 202109.798 8253954.704
3210 202100.867 8253936.125
3211 202090.348 8253915.16
3212 202081.071 8253896.181
3213 202072.913 8253880.472
3214 202169.961 8254040.755
3215 202152.64 8254040.84
3216 202184.446 8254033.17
3217 202183.777 8254041.412
3218 201845.2157 8253722.4664
3219 201861.4328 8253707.6955
3220 201869.918 8253699.967
3221 201885.7351 8253713.2903
3222 201917.847 8253673.536
3223 201912.915 8253678.186
3224 201903.211 8253686.818
3225 201891.8806 8253676.5257
3226 201997.27 8253735.728
3227 201987.997 8253717.327
3228 201979.67 8253701.096
3229 201965.629 8253674.515
3230 201956.6281 8253657.782
3231 201999.398 8253742.773
3232 201998.684 8253743.097
3233 201749.5367 8254246.759
3234 202154.749 8254640.543
3235 202154.641 8254636.415
3236 202154.533 8254632.287
3237 202154.22 8254632.023
3238 202143.762 8254919.797
3239 202147.17 8254897.954
3240 202150.149 8254879.536
3241 202155.79 8254847.11
3242 202159.513 8254821.501
3243 202165.995 8254780.747
3244 202167.6325 8254769.3205
3245 202169.27 8254757.894
3246 202122.281 8255117.7685
3247 202118.1798 8255116.8908
3248 202117.494 8255116.744
3249 202122.278 8255053.178
3250 202125.746 8255031.928
3251 202130.872 8254998.688
3252 202133.54 8254982.495
3253 202136.335 8254964.899
3254 202353.675 8254951.784
3255 202351.118 8254967.852
3256 202347.58 8254991.417
3257 202185.285 8254509.187
3258 202181.634 8254509.215
3259 202356.251 8254937.336
3260 202354.963 8254944.56
3261 202357.17 8254931.514
3262 202190.813 8254508.943
3263 202117.377 8254924.718
3264 202120.502 8254904.186
3265 202124.533 8254879.842
3266 202127.931 8254858.81
3267 202131.764 8254836.944
3268 202135.097 8254813.207
3269 202139.32 8254787.493
3270 202144.025 8254759.975
3271 202147.222 8254738.812
3272 202149.629 8254719.884
3273 202385.181 8254759.969
3274 202388.332 8254739.999
3275 202391.839 8254717.683
3276 202372.07 8254840.694
3277 202374.273 8254826.842
3278 202376.91 8254810.192
3279 202380.286 8254789.472
3280 202364.311 8254887.216
3281 202367.835 8254864.743
3282 202356.934 8254937.322
3283 202358.324 8254924.31
3284 202359.478 8254917.106
3285 202360.613 8254909.858
3286 202345.8283 8254686.0302
3287 202228.011 8254672.283
3288 202384.152 8254686.391
3289 202394.169 8254655.828
3290 202396.534 8254676.002
3291 202395.956 8254590.897
3292 202179.731 8254566.407
3293 202181.551 8254530.519
3294 202181.204 8254643.685
3295 202180.903 8254623.425
3296 202064.333 8255260.692
3297 202061.145 8255280.201
3298 202057.262 8255305.84
3299 202087.7788 8255111.8037
3300 202088.5568 8255105.8834
3301 201903.2068 8254060.6931
3302 201904.7744 8254069.8249
3303 201905.8566 8254069.9925
3304 205357.763 8258426.805
3305 205358.79 8258427.345
3306 205475.4747 8257585.232
3307 205355.5966 8258435.9872
3308 205355.108 8258437.471
3309 205064.606 8257885.0506
3310 205022.0587 8257870.3969
3311 204967.3004 8257838.7042
3312 204971.3162 8257840.0282
3313 204950.8913 8257836.014
3314 204908.081 8257821.0128
3315 205096.3195 8257448.0966
3316 205073.2903 8257443.2564
3317 205074.2849 8257440.5322
3318 205191.6416 8257506.1721
3319 205176.0636 8257920.973
3320 205192.0754 8257873.3338
3321 205301.7993 8257542.2912
3322 205401.5432 8257574.9957
3323 205263.1802 8257483.5646
3324 205367.5653 8257519.6084
3325 205212.1228 8257465.7585
3326 205208.3132 8257479.4459
3327 205196.1601 8257491.4897
3328 205155.252 8257461.4516
3329 205097.3167 8257460.7934
3330 205155.5912 8257460.511
3331 205128.0547 8257451.1118
3332 205129.5447 8257446.7639
3333 205095.8217 8257436.1069
3334 205086.8789 8257432.1362
3335 205093.123 8257472.962
3336 205410.5822 8257049.5098
3337 205406.9906 8257059.6356
3338 205206.4453 8257076.2862
3339 205202.8631 8257086.6706
3340 205149.0134 8256769.2507
3341 205227.6134 8256853.301
3342 205235.777 8256860.3556
3343 205240.8494 8256865.5725
3344 205246.4853 8256872.0583
3345 205255.1275 8256882.8826
3346 205257.8981 8256888.5549
3347 205260.0116 8256899.1295
3348 205260.857 8256908.0123
3349 205260.2132 8256916.0993
3350 205286.0596 8256866.5782
3351 205295.2678 8256874.273
3352 205270.9676 8256867.0686
3353 205165.5377 8257043.2542
3354 205213.6407 8257060.1982
3355 205153.526 8257038.7566
3356 205127.3919 8257048.448
3357 205112.7225 8257012.1579
3358 205071.1422 8256997.8074
3359 205086.7852 8256951.5146
3360 205110.5586 8256881.6345
3361 205096.9884 8257057.3763
3362 204994.8068 8257018.4814
3363 204965.7913 8256963.3661
3364 204974.1893 8256940.0322
3365 205023.2716 8256793.3767
3366 205052.9595 8256703.6149
3367 205062.4126 8256675.4457
3368 204900.7965 8256986.1823
3369 204910.5752 8256956.2536
3370 204904.4463 8256974.2379
3371 204894.3998 8256970.5278
3372 204794.4849 8256935.7328
3373 204809.002 8256940.8033
3374 204806.4245 8256902.8973
3375 204801.2741 8256919.4129
3376 205046.8639 8257434.2653
3377 204924.3668 8257772.381
3378 205038.6648 8257434.3889
3379 205031.4287 8257430.1958
3380 205036.2028 8257433.5533
3381 205043.432 8257435.897
3382 204977.4381 8257411.9197
3383 204930.0325 8257395.8932
3384 204872.564 8257376.5568
3385 204882.1705 8257349.1201
3386 204831.3408 8257362.974
3387 204768.4731 8257341.2811
3388 204787.6188 8256956.9481
3389 204753.727 8257058.3003
3390 204679.6687 8257278.4636
3391 204728.1003 8257327.4543
3392 204698.4338 8257317.2514
3393 204675.7499 8257311.3367
3394 204823.2792 8257386.0442
3395 204924.883 8257410.4195
3396 204828.4495 8257696.0322
3397 204651.9176 8257725.6633
3398 204654.4526 8257717.6559
3399 204595.854 8257715.3294
3400 204548.4358 8257699.4698
3401 204944.8301 8257851.2828
3402 204930.1194 8257846.1769
3403 204840.2343 8257816.2709
3404 204835.616 8257829.8112
3405 204735.4824 8257795.7304
3406 204626.8893 8257758.501
3407 204630.8844 8257746.4364
3408 204532.7166 8257712.4021
3409 204558.3409 8257721.2604
3410 204605.5841 8257737.6648
3411 204763.8734 8256699.8643
3412 204774.5144 8256703.0473
3413 204843.9051 8256726.3365
3414 204730.7064 8256689.943
3415 204698.4449 8257162.8966
3416 204718.9407 8257108.4073
3417 204828.0261 8256775.3965
3418 204536.7704 8257109.2676
3419 204617.1997 8256935.9668
3420 204615.3713 8257135.9306
3421 204492.0954 8257207.8394
3422 204663.1023 8257266.5362
3423 204650.588 8257262.0253
3424 204660.7232 8257273.6494
3425 204650.0301 8257305.6084
3426 204646.1776 8257316.9725
3427 204630.0315 8257365.381
3428 204448.491 8257303.9282
3429 204492.8332 8257319.2048
3430 204594.644 8257469.733
3431 204401.6904 8257403.4247
3432 204457.681 8257423.1847
3433 204356.2504 8257505.5521
3434 204410.5837 8257522.8563
3435 204520.3553 8257560.4517
3436 204548.179 8257567.99
3437 204563.465 8257559.385
3438 204357.6773 8257502.3526
3439 204377.9252 8257457.3255
3440 204350.4738 8257518.5817
3441 204255.6033 8257796.2397
3442 204247.422 8257820.9708
3443 204305.0148 8257840.7488
3444 204227.8952 8257813.3809
3445 204227.8672 8257813.37
3446 204608.2923 8258175.2865
3447 205001.9738 8258286.5438
3448 205128.1769 8257905.4707
3449 205246.263 8258389.945
3450 205223.693 8258383.62
3451 205203.56 8258376.099
3452 205194.601 8258399.644
3453 205200.417 8258384.877
3454 205138.897 8258383.195
3455 205158.591 8258390.103
3456 205179.868 8258396.245
3457 205118.1343 8258321.859
3458 205131.7221 8258327.7563
3459 205200.2203 8258351.0525
3460 205110.6764 8258310.322
3461 205108.0662 8258318.232
3462 205095.5306 8258314.339
3463 204946.127 8258319.912
3464 204965.481 8258326.431
3465 204983.18 8258332.758
3466 205005.343 8258340.29
3467 205026.878 8258346.833
3468 204946.6005 8258268.9538
3469 204931.9866 8258271.2933
3470 204893.7447 8258258.5947
3471 204925.995 8258304.008
3472 205213.4122 8257931.851
3473 204963.2514 8257850.2702
3474 204966.7729 8257851.5792
3475 204831.1158 8258230.0793
3476 204816.389 8258233.2673
3477 204829.4376 8258194.4605
3478 204820.9196 8257874.819
3479 204724.716 8258159.4634
3480 204711.335 8258198.9767
3481 204849.529 8258267.068
3482 204834.727 8258261.848
3483 204819.279 8258256.593
3484 204804.3821 8258251.7
3485 204884.9969 8258256.1827
3486 204852.6319 8258245.3972
3487 204724.4456 8258215.9874
3488 204764.979 8258228.781
3489 204779.391 8258233.754
3490 204783.099 8258235.411
3491 204793.317 8258239.951
3492 204790.073 8258249.407
3493 204707.6147 8258209.9918
3494 204569.475 8258162.3506
3495 204566.5672 8258175.6361
3496 204499.6687 8258138.2483
3497 204436.8435 8258117.7328
3498 204483.137 8258132.5055
3499 204436.8435 8258129.7328
3500 204343.9598 8258068.1747
3501 204241.7126 8258029.3549
3502 204232.7852 8258047.2536
3503 204273.377 8258060.8202
3504 204320.1458 8258077.6575
3505 204336.2032 8258083.2459
3506 204338.9699 8258074.6817
3507 204223.0854 8258055.5636
3508 204225.008 8258044.6543
3509 204236.4884 8258036.6835
3510 204917.112 8258330.84
3511 204911.348 8258348.283
3512 204906.804 8258360.942
3513 204899.993 8258381.509
3514 204890.054 8258410.545
3515 204883.601 8258429.846
3516 204877.176 8258449.301
3517 204869.522 8258472.395
3518 204862.652 8258492.994
3519 204854.497 8258517.558
3520 204848.481 8258534.661
3521 204842.327 8258552.938
3522 204834.987 8258574.668
3523 204826.922 8258598.609
3524 204820.329 8258618.357
3525 204813.213 8258639.2
3526 204806.654 8258657.443
3527 204842.736 8258288.113
3528 204836.373 8258306.911
3529 204828.886 8258329.218
3530 204821.98 8258349.944
3531 204814.938 8258371.184
3532 204808.35 8258390.58
3533 204801.231 8258411.347
3534 204794.072 8258433.111
3535 204786.441 8258455.506
3536 204778.902 8258477.486
3537 204772.583 8258497.151
3538 204765.329 8258519.0
3539 204757.887 8258540.347
3540 204751.731 8258559.583
3541 204745.077 8258578.636
3542 204738.031 8258598.926
3543 204731.169 8258619.579
3544 204727.417 8258630.551
3545 204788.49 8258651.66
3546 204761.596 8258642.41
3547 204746.742 8258637.665
3548 204350.4108 8258221.2008
3549 204393.8288 8258426.3579
3550 204643.3455 8258187.1302
3551 204606.4251 8258298.5737
3552 204598.91 8258296.4848
3553 204566.9066 8258416.4244
3554 204645.8457 8258444.5503
3555 204559.776 8258413.7946
3556 204566.0127 8258391.078
3557 204495.3266 8258405.2872
3558 204403.3116 8258477.6893
3559 204400.7308 8258491.7679
3560 204332.3788 8258562.4143
3561 204246.1455 8258597.5065
3562 204896.788 8258958.085
3563 204901.399 8258941.211
3564 204907.305 8258919.165
3565 204913.367 8258898.39
3566 204676.264 8258579.188
3567 204671.48 8258584.823
3568 204667.418 8258589.91
3569 204661.436 8258596.762
3570 204657.227 8258602.22
3571 204650.647 8258606.381
3572 204654.128 8258604.673
3573 204564.671 8258632.302
3574 204563.528 8258644.434
3575 204563.651 8258661.265
3576 204565.423 8258675.304
3577 204570.992 8258696.587
3578 204578.666 8258717.526
3579 204585.614 8258733.418
3580 204594.037 8258752.822
3581 204602.446 8258775.629
3582 204609.236 8258794.36
3583 204614.552 8258811.746
3584 204614.587 8258812.24
3585 204653.43 8258912.759
3586 204657.945 8258911.98
3587 204671.262 8258908.445
3588 204688.39 8258904.339
3589 204711.819 8258898.349
3590 204726.551 8258894.583
3591 204752.482 8258887.626
3592 204770.046 8258882.919
3593 204787.552 8258878.115
3594 204808.599 8258872.233
3595 204650.278 8258913.445
3596 204641.4 8258915.967
3597 204676.666 8259013.452
3598 204672.008 8258991.846
3599 204668.161 8258974.206
3600 204658.749 8258937.046
3601 204654.269 8258916.788
3602 204881.485 8258960.596
3603 204859.811 8258966.82
3604 204839.152 8258972.005
3605 204816.048 8258977.947
3606 204792.101 8258983.772
3607 204771.493 8258988.967
3608 204751.257 8258994.47
3609 204728.038 8259000.306
3610 204707.822 8259005.746
3611 204684.932 8259012.048
3612 204890.078 8258983.901
3613 204884.114 8259006.024
3614 204878.005 8259028.147
3615 204873.669 8259044.831
3616 204870.419 8259063.855
3617 205095.412 8259039.865
3618 205087.254 8259037.72
3619 205073.779 8259034.092
3620 205050.022 8259027.177
3621 205031.76 8259022.295
3622 205009.497 8259015.835
3623 204988.791 8259009.684
3624 204969.211 8259004.058
3625 204949.749 8258998.611
3626 204927.427 8258992.643
3627 204911.501 8258988.624
3628 204151.0101 8258021.101
3629 204158.771 8257994.923
3630 204165.918 8257974.154
3631 204173.3895 8257951.233
3632 204179.3754 8257932.753
3633 204186.2189 8257912.792
3634 204194.1633 8257888.261
3635 204200.981 8257868.201
3636 204207.5296 8257849.831
3637 204213.95 8257831.236
3638 204220.2922 8257811.083
3639 204147.0308 8258029.402
3640 204134.3701 8258062.2506
3641 204165.426 8258026.94
3642 204237.0661 8258550.9468
3643 204189.5394 8258325.8049
3644 204135.7622 8258077.6083
3645 204133.4519 8258067.4932
3646 204133.2325 8258066.338
3647 204893.2648 8259080.2732
3648 204647.4208 8259218.2556
3649 204662.494 8259141.326
3650 204665.575 8259122.389
3651 204680.553 8259034.335
3652 204686.259 8259057.267
3653 204691.323 8259078.333
3654 204694.579 8259089.945
3655 204709.334 8259099.129
3656 204717.432 8259097.783
3657 204709.5307 8259099.0963
3658 204719.579 8259106.64
3659 204739.653 8259101.761
3660 204854.627 8259074.004
3661 204844.8875 8259072.9706
3662 204868.868 8259074.93
3663 204868.861 8259075.68
3664 204896.435 8259072.296
3665 204923.553 8259080.068
3666 204941.513 8259085.807
3667 204961.854 8259092.324
3668 204981.494 8259097.833
3669 204996.24 8259101.695
3670 205015.265 8259105.099
3671 205036.991 8259108.178
3672 205054.187 8259110.133
3673 205074.119 8259112.359
3674 205076.404 8259112.29
3675 205006.4919 8259113.3189
3676 205208.8284 8259229.9185
3677 205054.5661 8259469.7596
3678 204289.9877 8257164.069
3679 204314.4533 8257175.252
3680 204249.8584 8257124.912
3681 204242.4381 8257141.035
3682 204249.1027 8257144.156
3683 204275.6269 8257069.129
3684 204280.7313 8257057.19
3685 204033.126 8256931.175
3686 204037.2774 8256920.971
3687 204070.4661 8256947.703
3688 204053.6971 8256940.141
3689 203996.5561 8256834.589
3690 204002.3001 8256846.302
3691 204010.8472 8256865.537
3692 204020.6168 8256886.719
3693 204028.359 8256904.0537
3694 204030.126 8256908.01
3695 204179.9108 8256997.973
3696 204166.1237 8256991.476
3697 204147.3968 8256982.777
3698 204125.7694 8256972.896
3699 204106.542 8256964.175
3700 204199.0339 8257006.58
3701 204213.2588 8257013.039
3702 204233.4202 8257022.346
3703 204321.1985 8256686.8668
3704 204311.4604 8256709.832
3705 204300.7401 8256732.763
3706 204290.8847 8256753.538
3707 204281.3538 8256774.546
3708 204272.302 8256794.175
3709 204262.1906 8256816.196
3710 204252.6114 8256837.619
3711 204243.9699 8256855.903
3712 204234.8146 8256875.958
3713 204227.0603 8256892.77
3714 204214.2391 8256920.059
3715 204202.2414 8256946.581
3716 204194.7156 8256962.355
3717 204186.7047 8256980.223
3718 204280.0317 8257413.3752
3719 204276.001 8257363.8076
3720 204382.075 8257279.0484
3721 204382.0417 8257272.1919
3722 204345.8225 8257357.4204
3723 204326.6444 8256998.5271
3724 204347.1956 8256952.9458
3725 204367.6991 8256907.3431
3726 204387.8906 8256861.6013
3727 204409.2074 8256816.3731
3728 204429.7529 8256770.7892
3729 204450.7358 8256725.405
3730 204470.9758 8256679.6848
3731 204491.4464 8256634.0673
3732 204494.9752 8256626.4443
3733 204250.0475 8257199.6469
3734 204246.779 8257208.1841
3735 204244.9661 8257216.7361
3736 204244.7244 8257220.6669
3737 204244.9693 8257226.5687
3738 204267.3313 8257162.2528
3739 204245.1701 8257152.889
3740 204065.9958 8257002.6734
3741 204067.4609 8257008.8755
3742 204091.9808 8257067.5668
3743 204149.5611 8256806.223
3744 204126.7592 8256797.966
3745 204098.1315 8256787.973
3746 202931.2647 8256290.9273
3747 202936.3575 8256292.6746
3748 202896.611 8256306.8905
3749 202876.4208 8256269.3252
3750 202837.4266 8256261.541
3751 202793.3034 8256233.876
3752 202818.1508 8256246.6809
3753 202708.3171 8256201.838
3754 202728.0001 8256209.353
3755 202750.3139 8256217.434
3756 202779.1733 8256228.723
3757 202586.7865 8256157.2308
3758 202644.3658 8256179.0768
3759 202584.9665 8256156.5408
3760 202572.7645 8256179.1254
3761 202573.3584 8256179.3543
3762 202569.4041 8256177.4682
3763 203023.9156 8256356.3376
3764 203089.8867 8256382.1505
3765 202427.067 8256097.6622
3766 202577.9641 8256153.2821
3767 202586.6294 8256184.3182
3768 202691.727 8256195.354
3769 203542.324 8256369.1979
3770 203295.0792 8256538.0466
3771 203303.5458 8256515.8025
3772 203316.1299 8256483.8498
3773 203324.7941 8256460.9022
3774 203330.3631 8256550.2599
3775 203348.2482 8256503.5682
3776 203372.7016 8256566.0994
3777 203382.457 8256541.0385
3778 203402.5169 8256489.0958
3779 203245.0645 8256566.7196
3780 203323.1368 8256594.2982
3781 203345.3941 8256643.4928
3782 203355.2992 8256617.6667
3783 203367.7842 8256585.2256
3784 203374.8381 8256566.9045
3785 203408.6988 8256579.8387
3786 203413.7965 8256566.7709
3787 203422.5724 8256543.9416
3788 203432.2907 8256518.7223
3789 203438.3534 8256502.8741
3790 203382.092 8256656.4123
3791 203389.219 8256638.2873
3792 203399.7674 8256611.0154
3793 203411.3894 8256580.8762
3794 203444.9617 8256593.9775
3795 203451.7561 8256576.5826
3796 203459.9204 8256555.4397
3797 203467.8796 8256534.4319
3798 203366.2753 8256651.0459
3799 203416.6348 8256669.4459
3800 203410.9735 8256667.0711
3801 203397.8771 8256661.7678
3802 203455.8949 8256685.3391
3803 203441.4931 8256679.3091
3804 203432.4022 8256676.0601
3805 203445.5758 8256594.2409
3806 203436.0282 8256618.6443
3807 203418.4352 8256664.8371
3808 203856.8391 8256583.3381
3809 203864.8171 8256603.0221
3810 203872.5231 8256621.1281
3811 203880.7951 8256640.9741
3812 203889.2381 8256661.8471
3813 203894.8652 8256675.0816
3814 203898.0101 8256682.4781
3815 203906.3191 8256702.3441
3816 203913.8671 8256720.6211
3817 203918.4429 8256731.5315
3818 203811.9121 8256690.4271
3819 203803.5111 8256710.3701
3820 203827.9821 8256649.3731
3821 203819.0851 8256672.1721
3822 203829.4571 8256697.1501
3823 203850.1401 8256705.3121
3824 203868.2061 8256712.3821
3825 203890.1071 8256721.0491
3826 203904.3921 8256726.0741
3827 203850.3951 8256596.0561
3828 203842.0011 8256614.1341
3829 203841.0171 8256616.5901
3830 203847.6451 8256656.8501
3831 203866.7911 8256664.6351
3832 203877.1011 8256668.6111
3833 203549.196 8256591.9016
3834 203549.1122 8256588.9305
3835 203548.1957 8256549.9401
3836 203549.8024 8256632.9469
3837 203550.0946 8256623.7592
3838 203553.4183 8256466.4404
3839 203560.6799 8256469.0186
3840 203580.0939 8256476.1857
3841 203737.4764 8256535.1131
3842 203759.8544 8256543.3263
3843 203704.287 8256523.0351
3844 203731.3538 8256532.8659
3845 203551.9644 8256683.9083
3846 203564.5707 8256688.2238
3847 203616.7808 8256707.9034
3848 203639.2578 8256715.9984
3849 203671.6843 8256726.1896
3850 203687.6095 8256731.3469
3851 203704.2324 8256737.4382
3852 203734.608 8256749.8328
3853 203304.4926 8256366.786
3854 203322.1381 8256372.4379
3855 203347.5598 8256381.0455
3856 203363.4215 8256386.734
3857 203383.1544 8256394.6062
3858 203404.7411 8256403.3128
3859 203429.5239 8256413.6111
3860 203444.2028 8256419.9916
3861 203464.9906 8256427.2349
3862 203490.6954 8256436.4731
3863 203512.1401 8256444.4794
3864 203532.5913 8256453.5673
3865 203543.2441 8256458.0106
3866 203296.5683 8256407.1051
3867 203320.1643 8256416.5856
3868 203333.6472 8256421.9004
3869 203371.4405 8256435.3917
3870 203392.2512 8256443.5589
3871 203413.934 8256452.0174
3872 203428.9631 8256457.9696
3873 203452.9214 8256466.4222
3874 203479.6109 8256476.2829
3875 203527.9359 8256493.8149
3876 203254.0294 8256433.5645
3877 203267.2937 8256399.2232
3878 203180.7237 8256632.1986
3879 203185.314 8256617.503
3880 203193.3897 8256591.75
3881 203196.2846 8256582.6472
3882 203207.1294 8256550.6292
3883 203210.1817 8256542.6866
3884 203220.5204 8256517.1159
3885 203224.0801 8256504.2888
3886 203225.8997 8256498.496
3887 203228.381 8256492.1241
3888 203233.1592 8256480.4869
3889 203241.122 8256462.3876
3890 203097.3421 8256602.3819
3891 203115.7783 8256610.2396
3892 203130.82 8256615.1672
3893 203148.036 8256621.038
3894 203162.2304 8256627.2738
3895 203196.5291 8256474.2306
3896 203190.3047 8256494.3965
3897 203171.062 8256551.0468
3898 203162.6461 8256575.8232
3899 203159.8144 8256584.1596
3900 203152.7747 8256408.3824
3901 203103.1301 8256561.9651
3902 203910.7988 8257769.2701
3903 203927.0859 8257717.1813
3904 203939.4649 8257678.358
3905 203953.6442 8257632.3876
3906 203966.1336 8257594.5467
3907 203985.3918 8257533.919
3908 203947.5993 8257782.0731
3909 203949.2786 8257777.4591
3910 203963.6423 8257736.6031
3911 203977.6317 8257693.6105
3912 203995.6102 8257639.6135
3913 204007.8734 8257600.9931
3914 204024.1808 8257551.296
3915 203987.629 8257799.0415
3916 203990.5746 8257788.7773
3917 204001.2728 8257755.2289
3918 204047.0486 8257610.2485
3919 204060.3299 8257568.1953
3920 204063.4837 8257558.6291
3921 204071.33 8257528.179
3922 204027.0845 8257813.4987
3923 204043.6407 8257763.0714
3924 204086.0298 8257628.9689
3925 204102.8651 8257575.4826
3926 204105.5053 8257564.6628
3927 204107.1922 8257555.9358
3928 204111.2985 8257535.6084
3929 204069.6008 8257817.6956
3930 204082.4042 8257778.7032
3931 204096.7128 8257732.5997
3932 204111.5918 8257686.6794
3933 204127.059 8257637.3988
3934 204138.6935 8257599.2825
3935 204146.8093 8257568.7791
3936 204152.0187 8257543.3745
3937 204191.4486 8257549.7674
3938 204195.8726 8257551.1661
3939 204200.2966 8257552.5648
3940 204216.665 8257554.91
3941 204169.044 8257773.263
3942 204173.974 8257758.829
3943 204182.104 8257740.248
3944 204190.128 8257720.833
3945 204198.718 8257701.89
3946 204206.101 8257686.29
3947 204214.343 8257668.798
3948 204223.855 8257648.359
3949 204231.945 8257628.941
3950 204234.908 8257620.391
3951 204237.209 8257612.524
3952 204241.541 8257596.635
3953 204244.248 8257585.479
3954 204244.745 8257583.027
3955 204245.33 8257572.733
3956 204244.851 8257567.873
3957 204244.52 8257560.813
3958 204225.135 8257487.003
3959 204217.621 8257489.18
3960 203612.8231 8257052.2541
3961 203623.1981 8257055.0281
3962 203638.3261 8257060.3401
3963 203659.6331 8257065.7611
3964 203678.7841 8257072.4031
3965 203693.9321 8257076.7831
3966 203714.6151 8257082.4601
3967 203733.6111 8257088.8271
3968 203751.7951 8257093.2061
3969 203772.0061 8257099.5511
3970 203791.6911 8257105.3321
3971 203811.0301 8257111.2421
3972 203828.5011 8257116.2231
3973 203847.8731 8257122.1191
3974 203865.1891 8257127.0381
3975 203884.1281 8257132.4341
3976 203903.2361 8257138.3751
3977 203919.8641 8257143.5031
3978 203940.7481 8257149.9361
3979 203957.1521 8257156.4191
3980 203975.8541 8257160.6831
3981 203997.3731 8257166.6331
3982 204017.7591 8257172.3861
3983 204034.4641 8257176.8881
3984 204053.8231 8257181.7921
3985 204072.3921 8257187.0411
3986 203329.3966 8257260.1019
3987 203311.3238 8257304.6788
3988 203292.6687 8257351.0684
3989 203256.1471 8257444.1217
3990 203237.4961 8257490.521
3991 203219.4772 8257537.2435
3992 203207.6489 8257557.2239
3993 203206.7979 8257558.8343
3994 203206.0167 8257560.6279
3995 203202.2197 8257570.6102
3996 203608.3242 8257841.7981
3997 203598.3616 8257870.6076
3998 203259.7747 8257245.744
3999 203258.8977 8257247.9096
4000 203354.9094 8256991.6984
4001 203351.5673 8257000.7364
4002 203345.3745 8257017.7433
4003 203341.4253 8257028.4479
4004 203332.7067 8257046.8559
4005 203329.3114 8257059.956
4006 203323.6918 8257070.2733
4007 203315.1175 8257086.7712
4008 203306.3707 8257107.3297
4009 203298.2239 8257126.9595
4010 203290.355 8257144.303
4011 203284.6609 8257159.5325
4012 203280.8178 8257170.3565
4013 203263.642 8257233.8463
4014 203165.367 8256943.5864
4015 203167.105 8256944.247
4016 203133.6347 8256934.3166
4017 203152.987 8256938.8813
4018 203314.6742 8256978.0457
4019 203314.7664 8256977.7835
4020 203229.9709 8257191.5887
4021 203234.8474 8257186.603
4022 203237.8554 8257181.6917
4023 203240.3885 8257173.6121
4024 203246.454 8257155.2816
4025 203253.2295 8257136.5205
4026 203259.6379 8257120.0647
4027 203266.7804 8257102.5215
4028 203273.1888 8257086.5497
4029 203274.8903 8257082.5593
4030 203286.498 8257057.1496
4031 203293.0042 8257042.3843
4032 203301.2263 8257022.9036
4033 203303.9979 8257013.1052
4034 203308.3508 8256996.0445
4035 203170.9875 8256922.514
4036 203657.3771 8256940.1261
4037 203666.5641 8256943.8781
4038 203685.4521 8256949.6161
4039 203704.7791 8256955.4101
4040 203723.7511 8256960.9221
4041 203741.8171 8256965.1531
4042 203762.3571 8256969.1771
4043 203779.1181 8256973.8261
4044 203797.9711 8256978.6711
4045 203815.8981 8256984.9471
4046 203834.1021 8256989.3381
4047 203849.7661 8256993.7811
4048 203870.4671 8256998.6961
4049 203891.1071 8257002.8161
4050 203910.9941 8257005.7831
4051 203932.2951 8257009.4511
4052 203952.2001 8257013.9121
4053 203971.3501 8257017.5841
4054 203990.1051 8257021.9731
4055 204010.7641 8257025.3251
4056 204029.4545 8257024.6901
4057 204023.1921 8257053.6081
4058 204005.0181 8257050.1001
4059 203985.0931 8257046.9591
4060 203965.9221 8257042.5181
4061 203946.1371 8257039.0811
4062 203938.1101 8257036.8171
4063 204062.8891 8257103.4841
4064 204055.3941 8257087.3751
4065 204050.1971 8257073.4931
4066 204082.0991 8257151.7681
4067 204071.5091 8257126.6621
4068 204064.1181 8257107.3181
4069 204044.4228 8257249.8475
4070 204046.1769 8257249.8181
4071 203848.9871 8257176.8475
4072 203862.909 8257182.4758
4073 203895.4407 8257195.8279
4074 203936.6179 8257212.4735
4075 203981.4739 8257230.1551
4076 204006.2539 8257239.8194
4077 204022.5199 8257246.1806
4078 204034.1148 8257248.266
4079 204038.2237 8257247.6787
4080 204040.6851 8257242.1361
4081 203598.6367 8257086.3045
4082 203600.6323 8257085.452
4083 203625.6664 8257094.4806
4084 203647.1424 8257103.3821
4085 203670.9007 8257113.1734
4086 203680.9398 8257116.6068
4087 203701.9075 8257122.3291
4088 203704.0678 8257122.8377
4089 203739.2682 8257135.8084
4090 203760.8713 8257143.311
4091 203787.6782 8257152.597
4092 203796.0653 8257155.5217
4093 203832.4093 8257170.1455
4094 203642.7992 8257104.5325
4095 203678.2551 8257118.1183
4096 203700.8608 8257124.0729
4097 203728.1289 8257133.1477
4098 203840.3597 8257175.6247
4099 203848.0859 8257178.7474
4100 203475.9818 8257036.9256
4101 203559.6069 8257070.1951
4102 203577.3401 8257077.6821
4103 204048.6191 8257237.3291
4104 204052.4391 8257234.8951
4105 204058.4641 8257232.2031
4106 204065.7451 8257226.3821
4107 204044.2779 8257220.7787
4108 204027.0581 8257216.7721
4109 204008.2771 8257211.2911
4110 203546.7093 8256894.2088
4111 203554.1159 8256898.615
4112 203564.1436 8256903.8254
4113 203576.4855 8256908.4569
4114 203562.9892 8256949.4709
4115 203643.9231 8256975.1931
4116 203647.6551 8256966.1091
4117 203641.0391 8256982.9141
4118 203642.1091 8256980.3101
4119 203586.0863 8256959.1439
4120 203632.6139 8256972.5311
4121 203448.2445 8256858.4556
4122 203474.1983 8256868.4966
4123 203499.222 8256877.8156
4124 203515.3118 8256885.3655
4125 203526.7055 8256887.8308
4126 203535.0199 8256891.2206
4127 203080.1894 8256723.002
4128 203107.9171 8256733.7949
4129 203131.7537 8256742.1772
4130 203148.582 8256747.9424
4131 203165.6846 8256752.7924
4132 203194.8624 8256762.0343
4133 203222.2998 8256771.0937
4134 203271.5963 8256789.4832
4135 203316.1653 8256806.3918
4136 203333.7469 8256813.2128
4137 203362.8437 8256826.0059
4138 203380.8581 8256832.4773
4139 203429.7801 8256851.3121
4140 203446.6172 8256988.9321
4141 203474.0867 8257000.0332
4142 203511.3841 8257015.0152
4143 203537.9291 8257025.2567
4144 203563.4604 8257036.8259
4145 203594.7191 8257045.5681
4146 203432.4918 8257015.029
4147 203440.0143 8256997.4394
4148 203612.0031 8257407.0489
4149 203553.067 8257385.1692
4150 203555.288 8257377.0018
4151 203560.6916 8257363.8285
4152 203565.2142 8257352.1023
4153 203537.8264 8257425.2272
4154 203539.6482 8257420.4702
4155 203552.3527 8257386.9637
4156 203603.0329 8257403.7224
4157 203576.9099 8257394.0214
4158 203596.7023 8257446.2661
4159 203596.5562 8257446.6406
4160 203523.5017 8257462.6309
4161 203572.3081 8257437.4697
4162 203582.0055 8257484.1654
4163 203592.3014 8257457.5459
4164 203581.873 8257484.5079
4165 203508.1759 8257502.474
4166 203564.5729 8257477.865
4167 203565.4163 8257527.1087
4168 203566.2925 8257524.8032
4169 203493.2548 8257541.1924
4170 203494.107 8257538.9976
4171 203507.474 8257504.2988
4172 203551.6052 8257563.4512
4173 203550.7288 8257565.7573
4174 203479.2651 8257577.1848
4175 203480.4799 8257574.0925
4176 203460.6224 8257626.186
4177 203461.0364 8257625.19
4178 203468.0415 8257605.7537
4179 203537.7088 8257599.9834
4180 203545.3665 8257579.8678
4181 203536.9349 8257602.0163
4182 203518.0092 8257648.0658
4183 203519.9442 8257643.2256
4184 203502.4902 8257686.9777
4185 203509.6046 8257670.7105
4186 203517.7967 8257648.5973
4187 203445.5285 8257662.495
4188 203625.6065 8257550.1939
4189 203596.8701 8257625.1759
4190 203603.5017 8257608.1308
4191 203610.7717 8257588.7376
4192 203528.6885 8257621.3535
4193 203535.8362 8257604.9023
4194 203564.93 8257708.7285
4195 203569.5176 8257697.1654
4196 203576.8673 8257677.1921
4197 203580.9372 8257666.4044
4198 203604.8435 8257724.2738
4199 203608.1683 8257715.6222
4200 203615.6797 8257695.3487
4201 203628.2648 8257663.2694
4202 203644.3599 8257621.366
4203 203658.5513 8257584.649
4204 203675.3359 8257541.5276
4205 203695.0614 8257489.7509
4206 203716.1697 8257435.5524
4207 203725.1702 8257413.2637
4208 203644.6602 8257739.5108
4209 203648.8563 8257729.5415
4210 203654.7085 8257714.8872
4211 203666.3868 8257682.9789
4212 203683.4871 8257637.8658
4213 203690.2639 8257620.5841
4214 203697.0436 8257604.8406
4215 203706.225 8257579.2459
4216 203720.2095 8257541.6133
4217 203738.3537 8257498.0808
4218 203748.6333 8257471.3879
4219 203757.5961 8257452.5749
4220 203766.3289 8257428.0502
4221 203685.4102 8257755.4725
4222 203689.3767 8257745.5025
4223 203696.1883 8257727.4942
4224 203714.0046 8257682.2459
4225 203728.9575 8257643.8212
4226 203750.511 8257588.0075
4227 203771.9241 8257533.0102
4228 203792.9377 8257478.565
4229 203806.2631 8257444.3478
4230 203724.1782 8257770.4662
4231 203729.4363 8257757.8834
4232 203739.1544 8257731.4829
4233 203751.4414 8257702.2266
4234 203757.3582 8257687.8811
4235 203770.3307 8257656.9116
4236 203777.8405 8257635.1657
4237 203798.3254 8257579.8214
4238 203814.8186 8257537.1092
4239 203829.0395 8257502.7169
4240 203766.7543 8257781.0251
4241 203779.3006 8257748.6363
4242 203797.8117 8257701.4712
4243 203816.9413 8257652.8274
4244 203835.7032 8257605.2883
4245 203856.3102 8257552.8206
4246 203876.9213 8257499.71
4247 203936.7074 8257497.0671
4248 203949.0008 8257502.1794
4249 203810.3631 8257789.9101
4250 203821.444 8257760.5009
4251 203833.1494 8257730.5474
4252 203840.0079 8257714.5022
4253 203855.5594 8257670.8269
4254 203877.1246 8257616.1218
4255 203899.5251 8257558.3904
4256 203915.2363 8257517.5576
4257 203850.5897 8257816.6472
4258 203524.538 8257737.4562
4259 203556.5278 8257749.8845
4260 203571.036 8257755.4746
4261 203495.471 8257721.1128
4262 203498.9304 8257722.8975
4263 203500.7205 8257800.3106
4264 203500.046 8257800.0532
4265 203546.1166 8257817.6318
4266 203502.5739 8257794.5981
4267 203508.3503 8257779.803
4268 203518.9059 8257751.8128
4269 203579.2746 8257830.2834
4270 203612.5603 8257771.4743
4271 203765.2435 8257898.7539
4272 203746.653 8257892.0944
4273 203755.9209 8257823.297
4274 203789.992 8257839.8748
4275 203727.3257 8257812.712
4276 203742.2542 8257818.313
4277 203731.8832 8257886.554
4278 203724.8919 8257883.907
4279 203724.2599 8257883.6677
4280 203718.5318 8257881.499
4281 203716.1495 8257880.597
4282 203724.8831 8257858.845
4283 203733.4901 8257838.995
4284 203697.7662 8257873.654
4285 203686.576 8257869.402
4286 203653.7689 8257787.3169
4287 203697.8207 8257804.2238
4288 203698.8077 8257804.6026
4289 203679.474 8257866.648
4290 203672.7672 8257864.4798
4291 203662.3281 8257861.105
4292 203630.7897 8257849.1458
4293 203630.3864 8257778.3429
4294 203248.3388 8257587.1697
4295 203241.0275 8257584.4127
4296 203210.7502 8257573.1915
4297 203188.0294 8257724.3148
4298 203172.2384 8257782.7051
4299 203170.006 8257788.4032
4300 203208.503 8257689.9631
4301 203220.0842 8257693.7709
4302 203235.03 8257699.6666
4303 203193.16 8257699.397
4304 203195.251 8257700.223
4305 203198.5954 8257701.5487
4306 203199.8109 8257694.2963
4307 204014.1101 8256984.0721
4308 203997.2641 8256984.5221
4309 203976.3701 8256982.4921
4310 203956.8831 8256980.7051
4311 203938.0471 8256978.4351
4312 203917.9001 8256976.4971
4313 203913.0535 8256975.8688
4314 203723.2201 8256791.3341
4315 203717.5645 8256808.1797
4316 203711.5451 8256823.1451
4317 203723.7161 8256790.4581
4318 203748.6711 8256798.7981
4319 203768.0881 8256805.8311
4320 203781.1801 8256810.9411
4321 203800.4691 8256818.4001
4322 203819.3891 8256825.5141
4323 203837.5351 8256831.9301
4324 203858.0201 8256839.4551
4325 203874.0521 8256845.6131
4326 203892.6391 8256853.1241
4327 203911.6481 8256859.7351
4328 203931.0181 8256864.6641
4329 203774.4021 8256788.1891
4330 203799.9091 8256774.6691
4331 203820.3321 8256782.7401
4332 203839.9811 8256789.7271
4333 203858.2141 8256796.8171
4334 203878.4211 8256804.6521
4335 203896.5521 8256811.8681
4336 203913.7341 8256818.4921
4337 203932.4871 8256825.3051
4338 203947.6601 8256831.1621
4339 203815.5301 8256736.0181
4340 203829.6511 8256740.9951
4341 203848.5381 8256749.4321
4342 203867.9991 8256756.5571
4343 203882.3431 8256762.1701
4344 203897.0431 8256768.0451
4345 203913.7391 8256774.9491
4346 203747.728 8256714.0417
4347 203746.8914 8256716.2899
4348 203676.3048 8256773.7106
4349 203705.6411 8256784.1811
4350 203554.0536 8256729.248
4351 203553.8796 8256725.6493
4352 203555.6588 8256762.4408
4353 203637.9949 8256760.0194
4354 203589.9231 8256742.4326
4355 203663.5452 8256810.1622
4356 203555.3104 8256808.1847
4357 203560.8092 8256810.439
4358 203601.1251 8256829.2005
4359 203616.2452 8256835.381
4360 203640.1881 8256845.0639
4361 203564.0246 8256773.6704
4362 203556.684 8256819.886
4363 203556.425 8256825.3097
4364 203554.3802 8256840.1163
4365 203552.7025 8256852.4283
4366 203554.9336 8256789.0335
4367 203555.0093 8256800.3753
4368 203555.2874 8256806.9739
4369 203552.4536 8256854.0402
4370 203551.7046 8256858.6208
4371 203549.5303 8256871.0455
4372 203555.9255 8256855.2981
4373 203562.1168 8256857.5412
4374 203576.1046 8256862.6075
4375 203606.5945 8256876.4422
4376 203642.7598 8256889.5769
4377 203651.5604 8256892.7116
4378 203659.5262 8256896.3683
4379 203675.9731 8256903.1241
4380 203086.721 8256639.6812
4381 203118.006 8256652.2028
4382 203140.9489 8256661.1641
4383 203160.0178 8256667.7231
4384 203196.7563 8256679.7516
4385 203240.753 8256693.7609
4386 203259.5309 8256699.5427
4387 203296.2168 8256712.0615
4388 203317.553 8256719.2829
4389 203325.4619 8256721.8098
4390 203340.3493 8256727.8611
4391 203357.8142 8256735.1402
4392 203380.275 8256744.558
4393 203393.3244 8256749.9397
4394 203416.3521 8256758.1693
4395 203422.1254 8256759.9896
4396 203440.3155 8256767.508
4397 203450.5849 8256772.5636
4398 203478.1863 8256783.8017
4399 203488.5468 8256788.0755
4400 203508.4731 8256795.0693
4401 203525.7705 8256800.8833
4402 203548.5425 8256805.1626
4403 203082.9562 8256682.175
4404 203110.7874 8256693.8494
4405 203118.8156 8256697.1696
4406 203132.2397 8256701.4665
4407 203141.2181 8256705.2928
4408 203148.617 8256706.3741
4409 203159.84 8256709.0359
4410 203179.792 8256716.6053
4411 203204.9915 8256725.9269
4412 203237.9954 8256737.9879
4413 203255.3716 8256744.8754
4414 203260.609 8256746.9549
4415 203285.0503 8256755.1065
4416 203309.9986 8256763.4099
4417 203325.7108 8256768.7334
4418 203346.1616 8256776.5522
4419 203381.7482 8256789.6913
4420 203407.1039 8256799.3401
4421 203423.1054 8256805.9241
4422 203440.7955 8256812.9324
4423 203459.9671 8256820.2965
4424 203478.1173 8256826.6908
4425 203491.2082 8256831.1426
4426 203512.5794 8256839.6854
4427 203532.3405 8256844.9057
4428 203543.8007 8256849.0881
4429 203327.6511 8257851.4606
4430 203345.101 8257858.5567
4431 203354.6649 8257862.2657
4432 203338.0753 8257906.2405
4433 203285.5136 8257834.3708
4434 203291.2534 8257836.6594
4435 203320.4896 8257848.5484
4436 203282.5289 8257833.1807
4437 203243.3898 8257817.7173
4438 203255.7765 8257822.5138
4439 203302.3729 8257896.2221
4440 203261.8579 8257884.7199
4441 203222.4885 8257869.401
4442 203204.9604 8257802.8362
4443 203491.0085 8257718.8105
4444 203486.8423 8257729.2049
4445 203478.492 8257750.5187
4446 203471.3228 8257768.7457
4447 203464.6816 8257782.4297
4448 203507.5244 8257688.8484
4449 203509.6887 8257689.6527
4450 203520.9826 8257693.9238
4451 203533.887 8257697.1237
4452 203787.9224 8257844.759
4453 203774.0044 8257876.2562
4454 203772.113 8257880.8344
4455 203501.6077 8257687.5287
4456 203498.1529 8257697.3439
4457 203494.6181 8257708.3859
4458 203480.4573 8257677.4355
4459 203488.6298 8257681.8769
4460 203364.7354 8257633.9216
4461 203365.2381 8257632.6826
4462 203332.6957 8257714.4395
4463 203342.15 8257690.3818
4464 203353.6423 8257661.6001
4465 203206.6352 8257682.4166
4466 203217.8366 8257686.704
4467 203234.4366 8257693.0228
4468 203245.506 8257697.238
4469 203264.994 8257705.072
4470 203284.983 8257712.742
4471 203298.274 8257718.054
4472 203313.435 8257724.0
4473 203339.624 8257707.252
4474 203330.1902 8257730.1252
4475 203364.1813 8257865.9563
4476 203403.0289 8257880.775
4477 203442.1729 8257779.0004
4478 203432.5358 8257775.3651
4479 203402.5961 8257764.0681
4480 203393.9841 8257760.8319
4481 203401.2277 8257741.0357
4482 203417.0029 8257700.1835
4483 203365.915 8257750.3301
4484 203355.0625 8257778.3744
4485 203341.2628 8257813.5901
4486 203324.4607 8257734.6569
4487 203319.1548 8257748.0063
4488 203308.62 8257774.2175
4489 203283.1968 8257717.9978
4490 203304.842 8257726.8169
4491 203275.9883 8257736.1242
4492 203268.032 8257755.7251
4493 203254.2018 8257790.0862
4494 203244.606 8257702.6525
4495 203235.9683 8257724.2207
4496 203223.3484 8257755.6957
4497 203212.6157 8257782.9855
4498 203213.897 8257675.7054
4499 203223.0331 8257651.6356
4500 203240.2197 8257607.7667
4501 203808.748 8257213.0525
4502 203874.7145 8257238.33
4503 203952.9373 8257268.6225
4504 204007.4841 8257292.5091
4505 203693.9133 8257216.4611
4506 203693.9135 8257216.4611
4507 203694.9277 8257217.3683
4508 203711.9117 8257224.2532
4509 203726.7194 8257228.1722
4510 203767.4009 8257244.4152
4511 203822.4686 8257265.5922
4512 203881.0531 8257288.1032
4513 203947.1892 8257313.6757
4514 203996.5691 8257332.5411
4515 204011.2626 8257338.3831
4516 203679.0615 8257255.8701
4517 203680.9278 8257256.5076
4518 203689.4463 8257260.5135
4519 203724.1326 8257272.2388
4520 203770.3353 8257289.8418
4521 203823.7966 8257310.6789
4522 203880.41 8257332.4854
4523 203945.7631 8257357.3612
4524 203991.537 8257374.4423
4525 203995.9647 8257376.1613
4526 203665.0455 8257291.9701
4527 203692.0237 8257297.2353
4528 203741.4662 8257320.3263
4529 203790.4442 8257340.6681
4530 203854.2904 8257366.1567
4531 203930.5845 8257395.0615
4532 203954.2909 8257404.3074
4533 203982.8964 8257414.1259
4534 203323.224 8257210.0288
4535 203323.9166 8257210.3119
4536 203366.7434 8257227.7425
4537 203413.1035 8257245.9263
4538 203461.6559 8257264.6758
4539 203517.9195 8257286.3965
4540 203570.0 8257306.6715
4541 203627.8815 8257331.4445
4542 203639.973 8257336.4081
4543 203645.4625 8257337.3401
4544 203436.4979 8257065.573
4545 203450.7718 8257073.848
4546 203460.5124 8257076.6064
4547 203471.8735 8257080.9564
4548 203490.0295 8257086.3298
4549 203501.4144 8257088.7267
4550 203515.0168 8257094.1584
4551 203537.5494 8257101.4636
4552 203540.5267 8257103.1574
4553 203549.9258 8257110.1078
4554 203552.6697 8257112.8529
4555 203560.9053 8257116.4744
4556 203574.1845 8257119.2565
4557 203591.6631 8257127.4326
4558 203602.3319 8257130.8392
4559 203612.5523 8257133.9331
4560 203625.1139 8257138.4664
4561 203644.2653 8257148.8724
4562 203687.0615 8257166.1853
4563 203403.7484 8257102.6958
4564 203446.604 8257118.8036
4565 203486.901 8257135.0125
4566 203508.7339 8257143.858
4567 203544.2113 8257157.3879
4568 203586.3771 8257173.7167
4569 203634.9809 8257192.8778
4570 203662.3432 8257203.9438
4571 203675.9539 8257209.0753
4572 203687.3514 8257213.8126
4573 203497.4502 8257807.6204
4574 203497.2356 8257808.3089
4575 203489.2771 8257833.7369
4576 203477.3277 8257869.8116
4577 203471.4264 8257887.9607
4578 203462.3822 8257788.1198
4579 203457.4097 8257801.6245
4580 203438.0029 8257852.769
4581 203438.0007 8257852.7746
4582 203432.2901 8257867.2585
4583 203430.007 8257872.3023
4584 203324.6812 8256980.6875
4585 203351.9125 8256990.6067
4586 203155.0534 8256937.5676
4587 203159.5205 8256919.6544
4588 203471.3251 8257785.2728
4589 203470.3127 8257784.8395
4590 203405.8125 8257647.4251
4591 203366.0657 8257632.0554
4592 203324.698 8257615.7975
4593 203286.3446 8257600.5405
4594 203248.8311 8257586.0707
4595 203203.9552 8257568.8548
4596 203215.1266 8257573.2366
4597 203188.9792 8257703.3965
4598 204025.1479 8257298.2911
4599 204032.2251 8257280.3961
4600 204038.3021 8257263.1801
4601 204018.3671 8257317.0451
4602 203703.2936 8257171.8883
4603 203672.6558 8257252.5609
4604 203675.9098 8257243.8658
4605 203685.1643 8257220.4846
4606 203659.0553 8257287.0717
4607 203666.9187 8257267.3372
4608 203666.9199 8257267.3344
4609 203671.4998 8257255.6499
4610 203671.5002 8257255.649
4611 203354.3106 8257129.0819
4612 203396.3061 8257145.6359
4613 203453.9619 8257167.8319
4614 203527.8222 8257196.0349
4615 203597.4001 8257222.9088
4616 203657.2571 8257246.4471
4617 203670.9854 8257251.7947
4618 203655.4034 8257295.5111
4619 203658.0892 8257289.3042
4620 203337.8414 8257171.0945
4621 203368.5956 8257182.73
4622 203399.6504 8257194.4042
4623 203420.9183 8257202.3436
4624 203449.7666 8257213.8446
4625 203490.2248 8257229.9641
4626 203551.3668 8257253.5399
4627 203604.1264 8257273.675
4628 203635.6843 8257288.0801
4629 203650.321 8257293.3345
4630 203624.4722 8257374.4349
4631 203627.9471 8257366.3858
4632 203633.54 8257352.2479
4633 203641.5997 8257329.8581
4634 203685.7903 8257396.9122
4635 203572.1386 8257354.8956
4636 203588.5237 8257360.9801
4637 203609.1566 8257368.7328
4638 203621.7719 8257373.5303
4639 203522.9997 8257335.4057
4640 203533.3244 8257339.5807
4641 203552.5337 8257347.0955
4642 203488.2045 8257319.9513
4643 203498.2582 8257323.9332
4644 203508.0661 8257329.8631
4645 203444.8216 8257302.9179
4646 203450.9041 8257305.644
4647 203406.8152 8257287.8065
4648 203418.8043 8257292.9292
4649 203368.9547 8257272.7102
4650 203334.698 8257259.9472
4651 203365.475 8257642.017
4652 203360.91 8257653.469
4653 203353.905 8257672.068
4654 203346.057 8257690.988
4655 203147.5027 8257412.3059
4656 203237.9006 8256972.4169
4657 203260.813 8256982.6947
4658 203208.3076 8256959.8538
4659 203204.6671 8256970.7797
4660 203202.9691 8256978.2369
4661 203199.8562 8256987.0157
4662 203193.1324 8256999.4664
4663 203181.1749 8257025.184
4664 203174.3931 8257040.7217
4665 203167.9734 8257060.1892
4666 203153.3359 8257100.9114
4667 203143.3416 8257125.5574
4668 203136.1286 8257155.4537
4669 203137.521 8257165.3202
4670 203184.0932 8256950.7035
4671 203202.9608 8256957.584
4672 203083.7885 8257152.865
4673 203097.1961 8257153.6771
4674 203119.3201 8257159.5138
4675 203130.9855 8257164.3441
4676 203092.3208 8257137.8172
4677 203101.0908 8257122.3613
4678 203104.1654 8257115.0826
4679 203105.1619 8257100.923
4680 203116.5863 8257070.4272
4681 203126.4957 8257051.9044
4682 203135.4699 8257024.0205
4683 203139.7703 8257012.9816
4684 203146.8752 8257003.6266
4685 203156.7843 8256982.6767
4686 203166.1328 8256954.9859
4687 203090.6559 8256922.9389
4688 203096.7764 8256924.5151
4689 203132.0502 8256933.9428
4690 203044.088 8257434.149
4691 203062.571 8257439.947
4692 203084.43 8257445.65
4693 203086.244 8257440.701
4694 203091.914 8257426.738
4695 203090.325 8257447.301
4696 203105.6 8257451.059
4697 203123.941 8257455.911
4698 203139.54 8257554.449
4699 203141.4738 8257549.5418
4700 203146.284 8257537.335
4701 203152.006 8257521.797
4702 203156.422 8257509.345
4703 203068.743 8257483.977
4704 203064.159 8257503.536
4705 203059.871 8257523.209
4706 203052.225 8257543.639
4707 203046.043 8257558.455
4708 203117.792 8257498.171
4709 203115.863 8257503.587
4710 203108.924 8257521.128
4711 203100.697 8257544.22
4712 203095.051 8257560.924
4713 203091.564 8257572.284
4714 203124.052 8257500.268
4715 203139.655 8257504.65
4716 203151.838 8257508.035
4717 203129.951 8257462.857
4718 203123.064 8257482.813
4719 203017.634 8257462.076
4720 203046.649 8257470.91
4721 203061.654 8257475.905
4722 203067.621 8257482.36
4723 203000.431 8257507.234
4724 202991.722 8257504.438
4725 202970.961 8257498.943
4726 202947.666 8257492.45
4727 202938.849 8257490.148
4728 203083.136 8257637.647
4729 203105.543 8257645.367
4730 203087.023 8257627.981
4731 203009.34 8257614.549
4732 203035.697 8257623.009
4733 203001.656 8257644.547
4734 202993.752 8257687.736
4735 202994.597 8257685.186
4736 202997.771 8257670.563
4737 202910.553 8257292.765
4738 203144.628 8257370.38
4739 203167.7995 8257376.9181
4740 203205.6741 8257387.562
4741 203136.395 8257375.4083
4742 203136.556 8257374.741
4743 203132.24 8257367.123
4744 203116.1601 8257362.5166
4745 203106.2097 8257359.42
4746 203088.3593 8257354.4218
4747 203082.4368 8257353.0177
4748 203074.18 8257351.5432
4749 203071.4209 8257359.8857
4750 203070.2258 8257363.9194
4751 203066.896 8257372.607
4752 202457.452 8256701.439
4753 202452.1494 8256715.8286
4754 202446.4478 8256728.9591
4755 202426.9836 8256779.0587
4756 202421.9303 8256790.8135
4757 202385.7936 8256879.4366
4758 202383.8018 8256885.8128
4759 202346.9364 8256864.2088
4760 202364.4022 8256825.7628
4761 202386.0972 8256780.7202
4762 202388.8086 8256773.2585
4763 202393.1479 8256752.0822
4764 202411.7456 8256702.3216
4765 202344.8404 8256869.8704
4766 202322.5485 8256932.336
4767 202344.146 8256871.5812
4768 202291.451 8257004.835
4769 202269.6749 8256832.3752
4770 202300.1389 8256759.7497
4771 202313.5658 8256721.9402
4772 202229.3106 8256819.7254
4773 202163.911 8256866.9494
4774 202186.3759 8256810.1211
4775 202147.7885 8256912.0725
4776 202132.944 8256949.046
4777 202267.126 8256839.8512
4778 202200.453 8256804.9468
4779 202225.7772 8256734.0751
4780 202235.2727 8256705.9498
4781 202241.7954 8256680.6737
4782 202248.6648 8256654.5623
4783 202257.678 8256631.7783
4784 202295.3088 8256652.159
4785 202286.3871 8256678.2077
4786 202268.8399 8256725.6095
4787 202253.0466 8256766.2487
4788 202199.3511 8256804.5285
4789 202199.0884 8256805.3893
4790 202189.0425 8256801.8533
4791 202186.7663 8256808.9996
4792 202151.1651 8256787.5162
4793 202923.323 8257097.655
4794 202872.391 8257228.046
4795 202889.6878 8257198.5166
4796 202899.5041 8257165.6891
4797 202912.9613 8257120.6522
4798 202916.919 8257103.836
4799 203139.7854 8256909.8986
4800 203123.6442 8256906.2272
4801 203094.7271 8256896.9268
4802 203064.6691 8256886.505
4803 203042.1112 8256878.2848
4804 203010.9481 8256866.7956
4805 203036.0879 8257333.293
4806 203043.9793 8257313.8586
4807 203054.007 8257289.645
4808 203063.145 8257267.397
4809 203073.311 8257242.655
4810 203083.021 8257219.143
4811 203087.9512 8257207.1109
4812 203047.136 8257195.786
4813 203072.664 8257201.577
4814 203082.8765 8257205.1458
4815 203006.8347 8257183.7208
4816 203031.082 8257191.021
4817 202968.274 8257173.731
4818 202972.087 8257173.792
4819 202992.766 8257179.316
4820 202947.0888 8257332.731
4821 202964.2543 8257337.4986
4822 202955.4945 8257310.635
4823 202967.209 8257280.264
4824 202974.486 8257261.882
4825 202982.104 8257243.335
4826 202989.706 8257225.047
4827 202998.768 8257202.463
4828 203006.845 8257183.719
4829 202924.676 8257280.058
4830 202933.6846 8257254.5699
4831 202939.8886 8257238.3565
4832 202948.063 8257217.463
4833 202955.9561 8257197.8056
4834 202962.4705 8257181.1982
4835 202965.4864 8257175.8269
4836 202920.661 8257292.829
4837 202918.591 8257299.13
4838 202911.925 8257322.032
4839 202913.863 8257322.537
4840 202929.9963 8257328.378
4841 202083.404 8256926.591
4842 203024.6518 8256788.5009
4843 203027.74 8256777.5411
4844 203030.4189 8256768.9627
4845 203033.5264 8256759.0976
4846 203013.3826 8256823.991
4847 203017.0274 8256811.0731
4848 203019.2982 8256803.8354
4849 203023.1796 8256792.3847
4850 202949.279 8257162.7653
4851 203240.8574 8257240.6341
4852 203256.7106 8257244.6476
4853 202939.8459 8257185.9173
4854 202936.5894 8257184.6347
4855 202900.5885 8257170.2407
4856 202929.5315 8257181.8128
4857 203003.3383 8256903.07
4858 203015.1085 8256901.1241
4859 203025.1918 8256903.9492
4860 203055.7645 8256910.4875
4861 203083.2025 8256917.6343
4862 203095.8066 8256921.0398
4863 203119.3763 8256928.4815
4864 203133.1223 8256932.3963
4865 203150.8941 8256936.1802
4866 202905.401 8257281.198
4867 202907.636 8257282.11
4868 202910.196 8257283.058
4869 202912.756 8257284.006
4870 202913.425 8257284.2675
4871 202914.094 8257284.529
4872 202801.6873 8256842.1811
4873 202789.8491 8256872.9565
4874 202783.6826 8256884.6124
4875 202769.2909 8256919.2417
4876 202756.6213 8256949.748
4877 202751.021 8256963.6987
4878 202744.3977 8256982.8966
4879 202734.4586 8257010.553
4880 202726.926 8257024.1572
4881 202724.8705 8257042.2124
4882 202720.1392 8257053.2204
4883 202711.4733 8257068.31
4884 202703.7013 8257088.3549
4885 202701.4484 8257094.8904
4886 202694.5832 8257120.7906
4887 202678.87 8257159.068
4888 202634.311 8257147.749
4889 202642.3682 8257134.0774
4890 202646.4558 8257125.7649
4891 202649.5554 8257116.5991
4892 202654.8635 8257100.935
4893 202662.2476 8257083.7823
4894 202665.5446 8257076.9238
4895 202671.3463 8257058.7156
4896 202675.3019 8257048.4286
4897 202684.9275 8257028.505
4898 202686.246 8257025.3384
4899 202690.494 8257010.0915
4900 202696.6388 8256996.5187
4901 202704.0825 8256977.4512
4902 202711.1076 8256955.8422
4903 202716.3113 8256944.647
4904 202721.907 8256926.4287
4905 202729.8426 8256909.7663
4906 202737.9075 8256891.1463
4907 202740.5093 8256883.9866
4908 202753.5175 8256856.8996
4909 202756.7698 8256849.3494
4910 202761.8393 8256834.8915
4911 202809.3278 8257048.8088
4912 202811.4163 8257041.4778
4913 202816.4007 8257028.5514
4914 202825.8606 8257002.0727
4915 202840.3124 8256965.2305
4916 202854.3664 8256930.0563
4917 202861.3974 8256910.9968
4918 202870.9786 8256893.605
4919 202875.8364 8256881.453
4920 202883.1145 8256854.2902
4921 202847.0887 8257063.4695
4922 202944.3947 8257143.1226
4923 202900.24 8257171.4227
4924 202923.0623 8257219.1532
4925 202872.717 8257243.727
4926 202882.375 8257247.095
4927 202886.227 8257248.239
4928 202904.273 8257255.235
4929 202593.4802 8256728.858
4930 202600.1344 8256709.9974
4931 202602.7385 8256690.1676
4932 203048.9132 8257143.6521
4933 203080.7485 8257152.5044
4934 203055.8264 8257127.6417
4935 203064.846 8257106.1971
4936 203069.724 8257092.8933
4937 203074.8699 8257073.7671
4938 203081.9396 8257059.0916
4939 203087.1109 8257050.0106
4940 203091.3316 8257032.379
4941 203102.732 8256999.0173
4942 203104.6264 8256994.6888
4943 203116.9721 8256974.5232
4944 203127.7313 8256950.6574
4945 203012.8116 8256903.6178
4946 203021.1408 8256905.9568
4947 203044.3982 8256912.4879
4948 203053.3172 8256913.6707
4949 202936.0465 8257102.5639
4950 202948.2372 8257072.593
4951 202966.3786 8257022.0187
4952 202978.8218 8256991.0962
4953 202989.0137 8256969.6369
4954 203005.208 8256924.6185
4955 202842.8434 8256844.329
4956 203056.0991 8256914.0397
4957 203006.6635 8257129.7543
4958 203013.0456 8257113.4212
4959 203027.1386 8257079.0028
4960 203041.2315 8257045.7554
4961 203048.4458 8257028.4622
4962 203063.7196 8256994.8848
4963 203067.0751 8256985.6505
4964 203077.3094 8256964.4958
4965 203087.3773 8256936.1184
4966 202913.433 8257257.569
4967 202913.085 8257258.595
4968 202911.473 8257262.964
4969 202908.006 8257273.895
4970 202617.043 8256754.5413
4971 202621.7866 8256755.3124
4972 202653.7865 8256767.5551
4973 202575.9052 8256737.1596
4974 202969.6518 8256720.6737
4975 202967.6058 8256727.0381
4976 202749.8809 8256681.6528
4977 202874.0878 8256736.6872
4978 202879.2498 8256741.346
4979 202898.113 8256697.4032
4980 202881.953 8256733.4792
4981 202880.6111 8256737.3845
4982 202933.032 8257075.383
4983 202938.617 8257060.355
4984 202945.971 8257039.477
4985 202953.598 8257019.855
4986 202961.427 8256997.72
4987 202969.269 8256978.154
4988 202978.235 8256955.499
4989 202986.079 8256933.536
4990 202991.574 8256916.362
4991 202998.853 8256902.181
4992 202969.8299 8257116.3133
4993 202979.4623 8257095.4412
4994 202991.0166 8257068.7189
4995 203009.1348 8257025.0209
4996 203020.463 8256992.5001
4997 203035.206 8256953.5402
4998 202875.2832 8256752.7979
4999 202868.6923 8256774.139
5000 202867.8875 8256776.6774
5001 202682.9629 8256699.9454
5002 202796.3441 8256768.384
5003 202789.729 8257210.996
5004 202807.689 8257217.953
5005 202812.568 8257219.967
5006 202751.17 8257196.302
5007 202771.138 8257204.256
5008 202444.123 8257076.112
5009 202464.131 8257084.413
5010 202405.571 8257060.776
5011 202422.092 8257067.303
5012 202386.926 8257053.224
5013 202188.9529 8256588.7291
5014 202177.953 8256616.4922
5015 202161.1437 8256656.2049
5016 202147.8025 8256690.7068
5017 202129.8192 8256732.0792
5018 202108.5038 8256786.8103
5019 202083.4736 8256859.7269
5020 202062.292 8256913.642
5021 202023.847 8256899.163
5022 202043.1988 8256846.3474
5023 202058.3244 8256806.2037
5024 202075.9288 8256757.6389
5025 202095.4633 8256709.2568
5026 202116.9186 8256653.2257
5027 202143.8322 8256581.6783
5028 201984.017 8256881.411
5029 201991.0026 8256852.8724
5030 202007.7813 8256810.303
5031 202019.1488 8256779.5187
5032 202028.417 8256754.4197
5033 202058.2203 8256687.5763
5034 202076.3803 8256635.153
5035 202100.1715 8256571.667
5036 202953.1195 8256767.3379
5037 202990.736 8256776.8758
5038 203022.0391 8256784.8129
5039 202882.9019 8256742.5741
5040 202886.054 8256743.6341
5041 202895.0887 8256746.9136
5042 202916.3422 8256755.5428
5043 202929.933 8256838.5261
5044 202938.4067 8256813.1009
5045 202231.895 8256603.612
5046 202261.4258 8256615.905
5047 202279.4118 8256622.555
5048 202303.3451 8256632.179
5049 202064.203 8256536.9697
5050 202071.9858 8256540.5459
5051 202071.9886 8256540.5472
5052 202078.9199 8256543.785
5053 202080.1824 8256544.378
5054 203020.809 8256291.0754
5055 203033.8266 8256256.0551
5056 203037.767 8256246.7161
5057 203045.8389 8256220.1952
5058 202956.8974 8256665.3382
5059 202958.2445 8256660.8357
5060 202064.1901 8256537.003
5061 202064.1348 8256537.2785
5062 202063.5998 8256539.9427
5063 202062.2355 8256546.7375
5064 202061.3668 8256549.0434
5065 202070.2351 8256540.0911
5066 202076.0182 8256543.0454
5067 202079.5585 8256544.854
5068 202086.6204 8256547.651
5069 202101.9573 8256554.427
5070 202075.341 8256544.695
5071 202072.5552 8256534.7295
5072 202070.4536 8256539.8369
5073 202452.6263 8256311.3309
5074 202495.4126 8256329.6801
5075 202506.3076 8256333.5875
5076 202508.0053 8256334.3882
5077 202450.5963 8256310.5509
5078 203032.3619 8256535.1115
5079 202990.1277 8256519.0965
5080 203046.1067 8256500.4617
5081 203072.6355 8256428.6437
5082 202985.3597 8256464.4524
5083 203009.4399 8256397.051
5084 202644.6334 8256385.0507
5085 202676.6329 8256397.4023
5086 202392.5294 8256055.9487
5087 202405.9147 8256024.5199
5088 202429.727 8255965.356
5089 202435.9 8255948.634
5090 202441.709 8255934.0
5091 202463.2621 8256070.8992
5092 202478.2695 8256031.6782
5093 202496.493 8255986.649
5094 202500.953 8255975.389
5095 202506.781 8255960.973
5096 202513.2927 8256336.8823
5097 202524.3573 8256340.7751
5098 202576.8054 8256359.008
5099 202515.8973 8256329.867
5100 202520.0914 8256319.044
5101 202534.4485 8256279.0233
5102 202554.5101 8256225.5513
5103 202566.0009 8256197.6351
5104 202571.2705 8256184.0135
5105 203047.1948 8256710.2827
5106 203058.736 8256674.5768
5107 202915.8176 8256650.9438
5108 202790.354 8256593.33
5109 202793.653 8256595.059
5110 202804.739 8256599.564
5111 202767.8883 8256642.0556
5112 202775.755 8256628.552
5113 202782.191 8256612.306
5114 202786.207 8256601.801
5115 202592.0577 8256520.8358
5116 202596.5122 8256522.6239
5117 202617.8258 8256533.7081
5118 202654.9374 8256544.0619
5119 202769.707 8256585.309
5120 202775.3055 8256587.5215
5121 202780.904 8256589.734
5122 202785.8761 8256591.626
5123 202521.5333 8256492.8748
5124 202546.922 8256502.7168
5125 202573.389 8256566.6379
5126 202647.1055 8256597.0209
5127 202764.3828 8256640.7486
5128 202568.8621 8256564.7721
5129 202590.1183 8256324.7506
5130 202608.4972 8256274.5603
5131 202625.539 8256229.5568
5132 202662.8525 8256135.3265
5133 202680.3286 8256095.2366
5134 202692.0466 8256058.1982
5135 202703.9107 8256019.8054
5136 202706.428 8256011.6595
5137 202382.9223 8256284.37
5138 202393.7145 8256255.9442
5139 202412.7154 8256204.9508
5140 202336.3421 8256203.5794
5141 202367.1785 8256127.1966
5142 202144.8123 8256347.8823
5143 202157.2691 8256313.3468
5144 202302.1269 8256357.4195
5145 202341.6273 8256373.6987
5146 202374.9331 8256386.1004
5147 202409.3167 8256395.5321
5148 202264.0367 8256398.6767
5149 202269.305 8256400.1202
5150 202310.5627 8256417.2844
5151 202324.8381 8256422.4311
5152 202380.8438 8256441.7505
5153 202391.1248 8256445.6294
5154 202144.3464 8256349.1431
5155 202164.1516 8256357.7225
5156 202175.0235 8256362.9747
5157 202206.6081 8256376.0114
5158 202256.325 8256396.5636
5159 202408.7788 8256397.0435
5160 202126.9901 8256395.2586
5161 202133.2149 8256379.9778
5162 202126.1181 8256397.4408
5163 202119.9268 8256412.5979
5164 202372.8555 8256491.5852
5165 202373.2879 8256490.4786
5166 202358.3131 8256528.802
5167 202160.1238 8256410.2712
5168 202197.8127 8256425.5754
5169 202240.0533 8256441.0619
5170 202257.6778 8256449.763
5171 202300.9591 8256466.557
5172 202099.0477 8256461.4592
5173 202105.7791 8256444.7106
5174 202330.1233 8256604.971
5175 202143.3521 8256489.1271
5176 202191.8076 8256508.8047
5177 202522.9726 8256488.3625
5178 202705.3702 8256416.5542
5179 202698.8072 8256437.475
5180 202695.1367 8256447.0704
5181 202679.9922 8256487.2473
5182 202597.4149 8256469.1659
5183 202651.9043 8256494.5403
5184 202667.3677 8256500.4663
5185 202669.0238 8256501.1333
5186 202508.0819 8256535.0451
5187 202578.4389 8256152.0436
5188 202596.8395 8256105.5526
5189 202613.9875 8256058.9527
5190 202627.019 8256025.1282
5191 202920.156 8256083.201
5192 202666.7055 8256326.0147
5193 202410.7783 8256391.425
5194 202394.4258 8256437.3631
5195 202375.8564 8256483.9054
5196 202376.6017 8256481.9982
5197 202410.5566 8256505.0061
5198 202448.321 8256518.1912
5199 202485.7598 8256532.2748
5200 202411.2118 8256558.9795
5201 202467.7793 8256578.9825
5202 202473.0206 8256633.6258
5203 202358.74 8256588.8567
5204 202414.7203 8256610.4489
5205 202465.1337 8256660.0376
5206 203061.6012 8256666.7776
5207 203072.3806 8256637.3127
5208 202260.5978 8256207.6588
5209 202276.5381 8256162.4984
5210 202305.957 8256091.299
5211 202175.1691 8256267.9087
5212 202155.4259 8256575.1425
5213 202165.8227 8256578.8407
5214 202183.9641 8256586.3881
5215 203004.8988 8256612.7777
5216 202996.8129 8256634.9492
5217 202960.368 8256621.3487
5218 203015.2486 8256582.0617
5219 202674.9577 8256653.6078
5220 202464.3788 8256419.5964
5221 202520.1692 8256441.6745
5222 202120.9243 8255340.1935
5223 202084.5964 8255562.2201
5224 202165.0265 8255354.9
5225 202165.6065 8255350.64
5226 202013.9095 8255526.9435
5227 202020.564 8255527.95
5228 202150.4142 8254454.8702
5229 202423.0869 8254917.1498
5230 202430.6569 8254874.7497
5231 202380.5269 8254910.1998
5232 202391.0369 8254868.0897
5233 202317.41 8255121.51
5234 203102.4967 8256563.6613
5235 203054.5997 8256693.978
5236 203046.9466 8256714.7714
5237 203152.6568 8256409.9912
5238 203148.8368 8256439.5612
5239 203161.4169 8256290.4211
5240 203002.3824 8256899.618
5241 202989.261 8256895.7
5242 203001.6139 8256901.613
5243 202989.447 8256894.878
5244 202995.3865 8256866.7215
5245 203013.0665 8256818.0215
5246 203033.7466 8256752.8814
5247 203001.645 8256903.175
5248 202074.4502 8255329.5969
5249 202045.146 8255552.25
5250 202090.0565 8255240.3499
5251 202073.6961 8255329.4778
5252 202114.9315 8255338.6457
5253 201932.6616 8255650.9738
5254 201927.973 8255648.79
5255 201909.943 8255641.893
5256 201883.857 8255632.241
5257 202017.382 8255548.176
5258 202015.421 8255554.411
5259 202012.339 8255578.535
5260 202009.021 8255599.666
5261 202003.334 8255633.787
5262 201997.373 8255668.97
5263 201930.7972 8255655.8958
5264 202092.6464 8255564.2401
5265 202099.3964 8255601.0102
5266 202092.4563 8255623.6302
5267 202234.3364 8255681.0303
5268 201781.4266 8254369.9491
5269 202248.3574 8253499.5686
5270 202204.8873 8253502.0786
5271 202456.2457 8253352.2477
5272 202384.1874 8253647.2588
5273 202378.9074 8253538.4887
5274 202426.9174 8253648.2288
5275 202422.6775 8253560.462
5276 202268.0871 8254124.4791
5277 202268.1171 8254152.8391
5278 202436.4573 8254003.5291
5279 202456.5168 8255134.73
5280 202125.7065 8255299.2699
5281 201456.9425 8253574.9997
5282 201229.0864 8253504.1381
5283 201632.6868 8253764.3486
5284 202051.5665 8255058.5197
5285 201985.0764 8254860.757
5286 201995.8366 8254863.0796
5308 205836.5505 8255085.1135
5309 205972.9852 8255398.2983
5310 205770.1436 8254934.7178
5311 205754.4448 8254898.6607
5312 205825.4237 8254807.4685
5313 205920.0983 8255727.2145
5314 205690.0984 8255190.3242
5315 205995.6172 8255693.8542
5316 205989.9027 8255679.5536
5317 205988.7192 8255676.7693
5318 206075.049 8255640.1901
5319 205866.8392 8255750.17
5320 205874.8432 8255769.1736
5321 205748.76 8255893.978
5322 205765.997 8255883.367
5323 205784.235 8255872.036
5324 204011.29 8256479.253
5325 204034.992 8256488.088
5326 204051.678 8256494.215
5327 204068.368 8256500.09
5328 204088.205 8256507.021
5329 204107.247 8256513.816
5330 204192.156 8256537.427
5331 204212.138 8256540.186
5332 204232.242 8256543.482
5333 205503.2091 8255269.6113
5334 205676.6727 8254951.6062
5335 205819.438 8255849.457
5336 206073.8783 8255637.4925
5337 202447.8957 8254437.0485
5338 202389.1199 8254506.6429
5339 201707.9427 8254253.1163
5340 201907.574 8255081.771
5341 201906.7124 8255084.4793
5342 202088.326 8254459.4188
5343 201741.0753 8255267.5491
5344 201739.4553 8255267.7151
5345 202183.368 8254334.797
5346 203399.3614 8257000.5266
5347 203405.7114 8257002.9079
5348 203395.8685 8256999.2111
5349 202153.2065 8255348.45
5350 202153.2765 8255347.91
5351 202183.326 8254146.84
5352 202183.101 8254171.956
5353 202183.115 8254177.5295
5354 202067.891 8255238.162
5355 202067.893 8255238.149
5356 202070.423 8255221.798
5357 202073.491 8255199.691
5358 202077.223 8255175.425
5359 202080.753 8255155.756
5360 202084.364 8255133.854
5361 202167.5128 8255124.3509
5362 202166.6159 8255127.8127
5363 203179.1083 8257867.5646
5364 202329.41 8257022.367
5365 202367.3411 8256934.3085
5366 202383.126 8256887.5413
5367 202225.8159 8256829.1712
5368 202173.214 8256963.949
5369 202214.159 8256976.655
5370 202249.6397 8256885.6575
5371 202266.486 8256841.5412
5372 202561.202 8257114.262
5373 202578.1131 8257081.2264
5374 202583.4412 8257069.1217
5375 202590.951 8257047.028
5376 202598.9861 8257023.061
5377 202604.2393 8257002.1004
5378 202609.1242 8256988.7204
5379 202613.1179 8256977.1637
5380 202620.9601 8256961.1278
5381 202623.8583 8256953.6216
5382 202632.5529 8256927.8616
5383 202640.7275 8256907.5731
5384 202647.2058 8256893.5843
5385 202657.4347 8256876.866
5386 202664.4217 8256861.681
5387 202675.844 8256832.5091
5388 202692.4841 8256789.8915
5389 202598.781 8257130.191
5390 202604.9534 8257120.7038
5391 202609.1583 8257109.7585
5392 202612.7563 8257097.7319
5393 202621.1763 8257077.3569
5394 202629.7886 8257055.4869
5395 202636.8359 8257036.955
5396 202648.319 8257004.3224
5397 202653.215 8256995.435
5398 202657.1958 8256985.3235
5399 202660.4111 8256973.6798
5400 202669.6019 8256954.2226
5401 202671.7454 8256949.32
5402 202682.7692 8256913.3169
5403 202689.6607 8256897.3843
5404 202696.8567 8256887.2727
5405 202707.5743 8256861.0747
5406 202716.6112 8256835.0368
5407 202722.1231 8256817.7247
5408 202725.0321 8256803.6297
5409 202954.7433 8256899.4189
5410 202941.0047 8256929.8854
5411 202936.4418 8256939.9541
5412 202932.0227 8256953.7938
5413 202923.6754 8256969.4351
5414 202917.5892 8256986.1844
5415 202913.8247 8257002.5627
5416 202901.8767 8257028.6041
5417 202895.9812 8257050.8781
5418 202887.9612 8257075.2818
5419 202878.3046 8257101.3232
5420 202868.4723 8257128.6678
5421 202862.0891 8257145.865
5422 202846.0485 8257180.9188
5423 202831.186 8257218.477
5424 202793.006 8257202.323
5425 202809.2052 8257169.425
5426 202815.4778 8257148.4463
5427 202819.3681 8257137.6337
5428 202824.555 8257124.7667
5429 202836.2224 8257094.9175
5430 202842.323 8257075.6384
5431 202754.276 8257187.828
5432 202758.2155 8257181.0068
5433 202765.3681 8257163.9915
5434 202770.8641 8257148.8969
5435 202774.827 8257137.2566
5436 202782.6561 8257117.9723
5437 202792.3717 8257095.8428
5438 202796.3317 8257087.5276
5439 202803.3627 8257069.7473
5440 202901.241 8257265.031
5441 202901.04 8257267.446
5442 202895.743 8257281.74
5443 202523.029 8257098.454
5444 202527.7945 8257085.7612
5445 202533.4979 8257072.9015
5446 202542.6597 8257050.8822
5447 202548.6369 8257034.5801
5448 202551.2057 8257026.2406
5449 202559.4097 8257009.9386
5450 202568.4357 8256987.4189
5451 202577.3429 8256961.4999
5452 202584.4922 8256951.4138
5453 202589.0871 8256934.3822
5454 202600.2927 8256910.0
5455 202603.5527 8256903.3492
5456 202610.9796 8256872.1868
5457 202619.9677 8256852.8922
5458 202629.8703 8256833.9862
5459 202642.7693 8256798.1355
5460 202484.324 8257084.568
5461 202492.4013 8257071.2469
5462 202498.4247 8257058.4515
5463 202503.4301 8257047.5987
5464 202512.6968 8257021.8227
5465 202523.0641 8256993.1673
5466 202533.2461 8256969.0577
5467 202542.4161 8256943.8394
5468 202548.9028 8256925.3882
5469 202559.8455 8256899.8767
5470 202573.0129 8256867.2566
5471 202587.4662 8256829.8913
5472 202600.2655 8256796.8928
5473 202614.8196 8256760.5477
5474 202532.125 8256734.739
5475 202531.4849 8256745.972
5476 202517.5622 8256782.6581
5477 202497.3763 8256833.0163
5478 202467.8055 8256907.5623
5479 202449.0412 8256954.7907
5480 202427.1546 8257014.2464
5481 202408.946 8257052.471
5482 202369.931 8257038.227
5483 202391.8869 8256990.6467
5484 202400.9904 8256964.1811
5485 202409.969 8256941.4131
5486 202425.2135 8256898.3324
5487 202431.7323 8256883.0717
5488 202435.057 8256870.999
5489 202442.0678 8256860.7842
5490 202451.4154 8256833.8318
5491 202456.6945 8256814.397
5492 202465.0325 8256792.8554
5493 202475.6342 8256766.0092
5494 202479.2726 8256757.6656
5495 202490.7942 8256736.2756
5496 202493.949 8256719.234
5497 202733.798 8257189.237
5498 202735.053 8257189.933
5499 202609.053 8257141.777
5500 202615.449 8257144.433
5501 202633.15 8257150.995
5502 200764.2273 8253281.7564
5503 200764.267 8253281.75
5504 201104.5137 8253238.7329
5505 201357.2542 8253205.6334
5506 201450.7391 8253181.9931
5507 204789.8529 8256489.5156
5508 204796.1932 8256502.4786
5509 202552.4836 8254707.6789
5510 202142.2164 8255489.3601
5511 202145.4065 8255489.8623
5512 202167.9218 8255122.7624
5513 202053.3967 8255021.4302
5514 202140.5467 8254910.9997
5515 202061.7373 8254966.8185
5516 202091.301 8255089.838
5517 202095.565 8255060.505
5518 202099.218 8255038.474
5519 202102.617 8255017.368
5520 202106.264 8254994.281
5521 202109.574 8254972.981
5522 202114.042 8254946.499
5523 202070.2266 8254907.9296
5524 202147.1267 8254871.7796
5525 202181.839 8254702.082
5526 202184.196 8254689.846
5527 201916.2563 8255328.4699
5528 201960.4364 8255335.7799
5529 202006.5864 8255303.5299
5530 202067.0667 8254617.3994
5531 202109.1068 8254620.9194
5532 201980.78 8254610.203
5533 201999.39 8254612.3
5534 202020.9345 8254612.0453
5535 202374.0968 8254950.8298
5536 202376.6475 8254934.028
5537 202476.6573 8253952.8791
5538 202476.7674 8253911.289
5539 201858.9269 8253802.8887
5540 201892.139 8253868.4429
5541 201915.1369 8253967.4888
5542 201933.4469 8254011.5989
5543 202041.537 8253914.0889
5544 201710.544 8253971.294
5545 201711.23 8253971.425
5546 201709.613 8254013.551
5547 201709.785 8253986.688
5548 201709.622 8253971.366
5549 202435.4726 8253463.1521
5550 202435.472 8253463.149
5551 202440.69 8253490.731
5552 202439.993 8253485.384
5553 202438.603 8253478.756
5554 202404.113 8253486.577
5555 202423.903 8253485.466
5556 202456.755 8253489.287
5557 202399.556 8253494.849
5558 202423.202 8253492.419
5559 202334.591 8253500.793
5560 202362.571 8253498.1706
5561 202334.8736 8253502.5095
5562 202339.4474 8253567.0287
5563 202337.6874 8253541.3087
5564 202293.0874 8253545.2887
5565 202213.9573 8253676.5887
5566 202207.7773 8253551.7586
5567 202466.0175 8253558.8888
5568 202104.343 8253127.61
5569 202112.014 8253131.141
5570 202198.9007 8253006.1294
5571 202134.8343 8253110.8729
5572 202121.5171 8253131.1827
5573 202345.6975 8253244.3285
5574 202212.2575 8253186.0684
5575 202273.116 8253230.492
5576 202202.1674 8253403.7285
5577 202184.9646 8253379.0668
5578 202278.5274 8253329.1185
5579 202302.7974 8253451.0286
5580 202174.4674 8253285.0884
5581 203161.5524 8256288.4925
5582 203162.0669 8256281.1711
5583 203162.3688 8256259.308
5584 203166.744 8256216.326
5585 205728.867 8255906.267
5586 202322.1766 8255474.6902
5587 201809.1262 8255451.8999
5588 202278.4033 8255583.0813
5589 201905.347 8253787.2187
5590 201903.457 8253766.9487
5591 201834.748 8253993.885
5592 201827.147 8253994.236
5593 201806.961 8253994.155
5594 201790.636 8253993.983
5595 201807.148 8254074.627
5596 202364.783 8254932.54
5597 202190.9766 8255178.1899
5598 202146.9766 8255168.9099
5599 202263.7667 8255046.1998
5600 202261.8967 8255060.4898
5601 202006.2466 8254796.1995
5602 204152.9086 8257301.3457
5603 204165.6353 8257332.811
5604 204185.8032 8257384.6389
5605 204189.0752 8257393.7552
5606 203433.688 8256894.7748
5607 203585.9968 8257652.9936
5608 203589.2618 8257834.2565
5609 203037.8037 8257216.8757
5610 203030.4508 8257234.3172
5611 203020.6958 8257257.8603
5612 203013.0767 8257276.321
5613 203004.9396 8257295.5362
5614 202998.5824 8257311.0652
5615 202993.4703 8257322.485
5616 202694.6016 8256784.4684
5617 202726.866 8256797.1906
5618 202988.0687 8257123.6125
5619 202867.95 8257239.759
5620 202881.754 8257245.302
5621 202902.628 8257253.438
5622 205047.687 8258354.071
5623 205068.103 8258360.622
5624 205086.904 8258366.658
5625 205109.286 8258373.442
5626 205128.658 8258379.477
5627 202940.7494 8256806.0717
5628 204317.0912 8258494.7125
5629 205355.9923 8258434.7851
5630 203646.6734 8257317.6406
5631 204686.919 8258624.977
5632 202921.6562 8257097.0874
5633 202919.894 8257096.282
5634 205753.8794 8255820.5625
5635 205595.6895 8257624.587
5636 205561.3051 8257612.885
5637 205540.9836 8257606.465
5638 205518.1094 8257598.814
5639 205510.7079 8257596.905
5640 205492.6429 8257590.094
5641 205607.4562 8257655.788
5642 205599.5153 8257680.612
5643 205591.1129 8257706.2
5644 205579.8718 8257738.183
5645 205571.8669 8257761.957
5646 205563.7888 8257785.652
5647 205556.8032 8257808.57
5648 205547.6913 8257834.438
5649 205540.4179 8257855.585
5650 205532.1708 8257879.883
5651 205525.9585 8257898.999
5652 205514.4102 8257934.795
5653 205506.1229 8257957.999
5654 205498.6032 8257981.357
5655 205490.1234 8258005.3
5656 205487.3602 8258014.231
5657 205383.3667 8257978.941
5658 205391.1406 8257954.782
5659 205398.8562 8257931.485
5660 205407.6046 8257905.536
5661 205415.2539 8257882.615
5662 205423.1 8257860.426
5663 205429.0883 8257842.559
5664 205437.6702 8257817.047
5665 205444.961 8257795.435
5666 205452.585 8257772.515
5667 205460.6577 8257747.764
5668 205468.0206 8257726.649
5669 205474.7409 8257707.002
5670 205481.7847 8257686.292
5671 205489.9702 8257661.01
5672 205496.8281 8257639.216
5673 205503.8064 8257617.973
5674 205446.1236 8258000.503
5675 205446.0966 8258000.494
5676 205422.4614 8257992.804
5677 205397.9654 8257984.024
5678 205369.9863 8257974.156
5679 205348.7641 8257967.178
5680 205328.232 8257959.706
5681 205470.4912 8258063.944
5682 205461.9817 8258088.694
5683 205453.5646 8258113.521
5684 205444.7869 8258138.995
5685 205435.0323 8258167.003
5686 205429.2295 8258185.129
5687 205421.9046 8258208.802
5688 205415.2043 8258229.043
5689 205406.9645 8258253.862
5690 205400.4619 8258272.036
5691 205393.577 8258293.347
5692 205386.9404 8258312.976
5693 205377.8774 8258342.192
5694 205369.9316 8258364.297
5695 205361.6585 8258389.839
5696 205353.1528 8258412.69
5697 204292.835 8257048.9602
5698 204244.1048 8257000.204
5699 204252.2078 8256982.065
5700 204260.644 8256964.158
5701 204269.3889 8256943.957
5702 204279.3617 8256922.921
5703 204287.574 8256903.678
5704 204298.663 8256880.602
5705 204306.3763 8256863.47
5706 204314.2505 8256845.748
5707 204325.9465 8256822.376
5708 204334.3804 8256803.091
5709 204344.6252 8256781.158
5710 204354.8435 8256758.485
5711 204367.1311 8256732.413
5712 204376.0499 8256712.253
5713 204385.3445 8256693.323
5714 204388.9461 8256685.254
5715 204268.7728 8257038.506
5716 204247.4076 8257028.624
5717 204303.4733 8257054.692
5718 204310.798 8257057.857
5719 204329.8214 8257066.77
5720 204348.4259 8257075.22
5721 204367.0647 8257083.627
5722 204281.701 8257054.6775
5723 204304.2421 8257053.144
5724 204377.3737 8257061.364
5725 204386.8212 8257040.445
5726 204396.2207 8257019.355
5727 204409.2264 8256992.259
5728 204419.5403 8256969.436
5729 204430.6116 8256944.988
5730 204440.5347 8256923.285
5731 204452.1529 8256897.702
5732 204461.7328 8256876.791
5733 204470.6254 8256857.003
5734 204481.9341 8256832.035
5735 204489.8382 8256815.184
5736 204498.5446 8256796.219
5737 204506.1533 8256779.913
5738 204515.143 8256761.157
5739 204524.6194 8256742.159
5740 204432.5398 8257114.061
5741 204413.2525 8257104.594
5742 204389.9786 8257093.817
5743 204586.1055 8256779.146
5744 204576.4415 8256799.986
5745 204567.2982 8256820.46
5746 204556.8114 8256843.091
5747 204548.917 8256860.35
5748 204540.6566 8256878.631
5749 204528.4832 8256904.506
5750 204516.4022 8256931.115
5751 204506.926 8256952.277
5752 204497.3459 8256973.199
5753 204486.1179 8256997.262
5754 204476.6893 8257017.853
5755 204467.1822 8257039.055
5756 204456.1816 8257063.019
5757 204445.3205 8257086.163
5758 205313.1782 8258399.422
5759 205325.5114 8258403.231
5760 205345.0992 8258410.027
5761 205209.6068 8258364.149
5762 205224.2182 8258369.782
5763 205249.3548 8258378.568
5764 205270.8268 8258385.644
5765 205293.2264 8258392.642
5766 204245.2049 8257207.493
5767 204243.8934 8257216.6077
5768 204243.899 8257220.8173
5769 204231.1964 8257136.454
5770 204225.3371 8257149.272
5771 204217.2554 8257167.656
5772 204206.7756 8257190.768
5773 204197.2625 8257210.975
5774 204195.8253 8257214.522
5775 204193.7898 8257120.011
5776 204213.3023 8257128.51
5777 204133.7649 8257023.138
5778 204231.659 8257067.981
5779 204215.78 8257489.675
5780 204217.448 8257492.308
5781 204222.727 8257506.577
5782 204227.166 8257517.8115
5783 204229.603 8257523.979
5784 204229.8643 8257528.323
5785 204077.7951 8257524.5151
5786 204098.5235 8257527.913
5787 204125.566 8257533.301
5788 204147.7437 8257537.636
5789 204169.7676 8257541.707
5790 204190.6328 8257545.801
5791 204210.8635 8257549.969
5792 204234.4795 8257554.203
5793 204236.6846 8257553.961
5794 204238.151 8257553.182
5795 205317.6311 8258385.608
5796 205326.4815 8258358.147
5797 205334.1104 8258334.345
5798 205341.9267 8258311.935
5799 205349.3624 8258291.051
5800 205357.3859 8258266.227
5801 205365.1167 8258241.931
5802 205373.6295 8258217.756
5803 205379.8208 8258197.679
5804 205387.7839 8258175.224
5805 205395.864 8258153.444
5806 205404.3735 8258126.228
5807 205410.7091 8258105.355
5808 205417.8024 8258085.949
5809 205424.5427 8258064.62
5810 205433.3495 8258037.86
5811 205440.6728 8258016.45
5812 205443.0779 8258009.502
5813 205339.0071 8257974.607
5814 205333.3207 8257990.63
5815 205324.3617 8258016.506
5816 205313.4674 8258049.639
5817 205305.2628 8258074.608
5818 205296.3019 8258100.711
5819 205288.5978 8258123.111
5820 205281.2134 8258145.604
5821 205273.2167 8258168.96
5822 205264.1005 8258196.698
5823 205256.7663 8258218.802
5824 205249.7036 8258239.967
5825 205242.8311 8258260.385
5826 205232.5515 8258289.853
5827 205227.6398 8258306.679
5828 205221.7776 8258322.571
5829 205214.3018 8258345.311
5830 205116.6554 8258291.371
5831 205124.3213 8258268.36
5832 205131.9421 8258245.871
5833 205140.0091 8258221.708
5834 205147.5147 8258198.995
5835 205154.5139 8258177.814
5836 205163.8045 8258150.011
5837 205170.6696 8258129.126
5838 205178.2895 8258107.829
5839 205185.5494 8258085.973
5840 205192.8512 8258064.01
5841 205199.031 8258045.482
5842 205205.7713 8258024.939
5843 205213.5159 8258002.957
5844 205219.8906 8257983.959
5845 205227.5573 8257960.469
5846 205234.5559 8257939.21
5847 205130.1786 8258316.632
5848 205152.3431 8258324.21
5849 205184.3904 8258335.052
5850 205238.082 8258799.068
5851 205242.097 8258784.566
5852 205247.939 8258766.739
5853 205256.819 8258739.776
5854 205264.26 8258717.442
5855 205273.458 8258691.193
5856 205286.517 8258654.279
5857 205293.61 8258635.282
5858 205302.027 8258610.97
5859 205309.887 8258585.086
5860 205318.799 8258557.039
5861 205326.838 8258534.385
5862 205335.566 8258507.004
5863 205341.222 8258490.144
5864 205349.416 8258465.658
5865 205356.256 8258448.918
5866 205224.692 8258796.703
5867 205229.707 8258783.009
5868 205236.213 8258763.862
5869 205246.071 8258733.253
5870 205253.294 8258711.593
5871 205265.456 8258675.094
5872 205272.904 8258652.277
5873 205281.982 8258626.436
5874 205289.321 8258603.075
5875 205297.254 8258579.866
5876 205305.431 8258555.118
5877 205314.934 8258527.756
5878 205322.0 8258506.043
5879 205329.366 8258484.206
5880 205337.06 8258460.69
5881 205341.375 8258442.543
5882 205345.623 8258433.9
5883 205120.087 8258762.585
5884 205151.684 8258773.422
5885 205166.128 8258778.362
5886 205186.203 8258785.272
5887 205204.011 8258790.688
5888 205021.807 8258730.041
5889 205038.631 8258735.463
5890 205057.207 8258741.504
5891 205078.526 8258748.52
5892 205099.321 8258755.691
5893 204995.516 8258720.701
5894 204974.025 8258713.641
5895 204947.968 8258704.519
5896 204927.139 8258697.627
5897 204910.452 8258691.96
5898 204091.9036 8256801.1369
5899 204089.0011 8256807.272
5900 204081.3333 8256824.211
5901 204072.2681 8256843.869
5902 204063.7888 8256862.304
5903 204056.6464 8256878.114
5904 204045.8618 8256902.102
5905 204025.8223 8256769.123
5906 204020.0965 8256783.118
5907 204007.7517 8256810.128
5908 203820.2172 8257885.7441
5909 203820.2092 8257885.77
5910 203792.3236 8257969.23
5911 201666.5967 8254126.6289
5912 202346.2677 8252843.0082
5913 202911.766 8257287.175
5914 202912.5549 8257287.3519
5915 202226.4526 8256827.6243
5916 204636.82 8258898.16
5917 204631.5 8258876.221
5918 204625.64 8258853.109
5919 204620.142 8258830.681
5920 204616.244 8258817.149
5921 203301.7366 8256276.9516
5922 203243.5359 8256254.494
5923 203170.073 8256221.1428
5924 203010.4439 8256828.2123
5925 203021.2658 8256794.5328
5926 203030.7149 8256764.3638
5927 203044.1039 8256724.7536
5928 203066.0278 8256661.532
5929 203078.9692 8256624.6562
5930 203092.0718 8256588.9972
5931 205329.76 8256950.3112
5932 204230.382 8257500.362
5933 204237.481 8257519.638
5934 204244.871 8257540.279
5935 204248.572 8257549.8
5936 204252.519 8257561.734
5937 204234.084 8257558.223
5938 203333.2545 8257041.6284
5939 203314.9095 8257088.1277
5940 203295.8681 8257134.345
5941 203278.7276 8257181.204
5942 203260.34 8257230.1371
5943 203258.724 8257234.5875
5944 203265.0065 8257235.8855
5945 203020.5784 8256827.3855
5946 203052.87 8256841.3407
5947 203060.6387 8256844.3378
5948 203091.6199 8256855.0149
5949 203115.5802 8256863.1701
5950 203130.3674 8256867.9458
5951 203155.4494 8256878.6211
5952 203176.1361 8256887.5144
5953 203207.3016 8256897.5342
5954 203223.7054 8256904.1514
5955 203279.4963 8256926.7454
5956 203341.3774 8256951.4933
5957 203372.1999 8256963.6868
5958 203392.3705 8256970.4458
5959 203055.143 8257561.151
5960 203021.625 8257551.97
5961 202998.3 8257545.719
5962 202987.359 8257542.713
5963 203006.034 8257491.579
5964 203011.476 8257478.332
5965 202993.787 8257522.986
5966 203024.548 8257444.83
5967 203068.308 8257564.657
5968 203084.283 8257701.304
5969 203079.371 8257714.864
5970 203076.798 8257720.802
5971 203103.078 8257651.689
5972 203093.246 8257677.78
5973 203036.79 8257616.676
5974 203042.782 8257595.181
5975 203050.857 8257574.175
5976 202216.682 8256616.149
5977 202206.0567 8256654.709
5978 202188.0664 8256701.3604
5979 202168.946 8256747.5602
5980 204087.8035 8256783.836
5981 204068.6778 8256774.532
5982 204062.5149 8256772.9493
5983 204060.119 8256772.334
5984 204051.9369 8256770.909
5985 204038.4946 8256769.811
5986 203168.9069 8256216.0511
5987 203170.5945 8256216.9096
5988 203172.4367 8256217.8476
5989 203167.4841 8256215.3377
5990 204898.8028 8256495.145
5991 202013.851 8251883.014
5992 201930.3822 8251849.7238
5993 201891.9403 8251812.689
5994 201902.9647 8251827.7208
5995 201914.9322 8251839.9723
5996 201922.5851 8251845.2222
5997 201882.4678 8251788.6822
5998 202081.736 8251918.0277
5999 202048.6164 8251899.1101
6000 203483.3212 8256610.4279
6001 202186.7906 8252004.8199
6002 202145.1097 8251961.7612
6003 202125.2322 8251945.9109
6004 202113.1145 8251937.2044
6005 202252.7376 8252079.9931
6006 202239.5964 8252063.5992
6007 202227.4653 8252049.7556
6008 202276.75 8252115.5404
6009 202264.9574 8252095.2574
6010 202263.4357 8252093.1364
6011 202111.6569 8254295.7892
6012 202112.043 8253724.0861
6013 202106.6672 8253604.6486
6014 202106.3764 8253723.1984
6015 202089.1399 8253711.5558
6016 202170.5957 8253822.4845
6017 202162.4622 8253823.8701
6018 202124.9481 8253832.8741
6019 202072.5039 8253843.6429
6020 202171.302 8253816.2242
6021 202168.5843 8253769.1526
6022 202467.0071 8254394.1594
6023 202558.5172 8254394.4594
6024 202435.4972 8254310.2393
6025 202435.4271 8254349.0194
6026 202436.0172 8254266.6693
6027 202436.0172 8254251.7793
6028 202341.5674 8253446.4186
6029 202320.9275 8253340.1285
6030 202319.7577 8253320.6099
6031 202319.6675 8253320.6285
6032 202318.9375 8253316.6585
6033 202310.6675 8253280.2985
6034 202295.6773 8253587.1587
6035 202470.9675 8253646.1388
6036 202286.5973 8253718.2188
6037 202344.3377 8252835.0382
6038 202338.9777 8252835.0982
6039 202329.4977 8252829.5782
6040 202325.9377 8252827.3581
6041 202324.2177 8252824.9781
6042 202323.0377 8252822.4781
6043 202321.8577 8252818.4181
6044 202317.6377 8252808.5581
6045 202311.4577 8252794.3581
6046 202305.2577 8252781.5981
6047 202298.4177 8252768.3181
6048 202290.5177 8252754.3781
6049 202276.4177 8252731.3781
6050 202261.6777 8252709.938
6051 202251.6777 8252693.618
6052 202254.1977 8252689.938
6053 202255.8177 8252688.898
6054 202384.7079 8252455.8879
6055 202365.0279 8252459.4579
6056 202343.4577 8252831.3382
6057 202429.1778 8252813.6982
6058 202070.6386 8253839.8134
6059 202042.3378 8253698.9298
6060 202045.388 8253698.8396
6061 202047.3207 8253698.8054
6062 202049.3471 8253698.7687
6063 202063.4192 8253698.4462
6064 202112.0369 8254268.7892
6065 202068.2868 8254396.2492
6066 202154.027 8254055.579
6067 202436.5572 8254154.8892
6068 202436.5261 8254214.979
6069 202351.4272 8254124.5291
6070 202319.937 8254370.3493
6071 202256.497 8254370.3193
6072 202225.157 8254301.4492
6073 202350.9871 8254280.6993
6074 202350.9471 8254303.0793
6075 202098.5273 8253411.3585
6076 202134.4773 8253375.7285
6077 202145.0073 8253364.2985
6078 202156.4974 8253333.1385
6079 202058.579 8253279.898
6080 202058.5375 8253279.8748
6081 202143.5773 8253468.2986
6082 202379.427 8253515.377
6083 202462.6475 8253531.3187
6084 202420.5275 8253535.372
6085 202369.0474 8253566.7487
6086 202296.9073 8253647.5988
6087 202253.1473 8253650.9587
6088 202247.9073 8253548.9487
6089 202247.6773 8253548.9687
6090 202101.8572 8253569.4686
6091 202099.3272 8253517.4586
6092 202533.3573 8254154.8192
6093 202436.5972 8254103.4692
6094 202085.797 8253996.4389
6095 202596.568 8254289.758
6096 202592.012 8254268.014
6097 202351.4372 8254085.3591
6098 202224.2071 8254085.3691
6099 202259.3771 8254085.3791
6100 202224.2471 8254040.249
6101 202320.2772 8254085.3591
6102 202259.3371 8254040.229
6103 202320.2472 8254040.2291
6104 202351.5172 8254040.2291
6105 202351.4772 8253957.639
6106 202224.0871 8254029.709
6107 202203.046 8254029.312
6108 202382.7073 8253911.169
6109 202383.1473 8253865.249
6110 201468.0073 8253207.3763
6111 202267.9572 8253911.0689
6112 202265.5572 8253865.1889
6113 202269.5972 8253950.449
6114 201470.8278 8253206.9706
6115 201905.1169 8254071.8389
6116 201167.2672 8253378.5749
6117 200999.6057 8253329.4519
6118 202046.8771 8253675.6587
6119 201788.9567 8254118.9989
6120 201570.1536 8253444.7493
6121 201489.3916 8253533.4614
6122 201690.9972 8253311.3058
6123 201692.5818 8253308.4683
6124 201688.4762 8253296.5211
6125 201460.078 8253568.9338
6126 201467.0058 8253557.9368
6127 201473.9337 8253548.7475
6128 201479.6672 8253542.8756
6129 201483.2506 8253539.2896
6130 201958.8069 8254126.389
6131 201653.0968 8253684.5685
6132 201642.9468 8253673.8185
6133 201755.7569 8253641.0585
6134 201766.1291 8253623.2449
6135 201607.2068 8253727.8485
6136 201742.5669 8253750.2486
6137 201695.6893 8253704.5211
6138 201691.9268 8253700.9785
6139 201779.0869 8253718.8486
6140 201731.0311 8253671.0228
6141 201806.7569 8253692.9386
6142 201759.5144 8253644.8809
6143 201684.0869 8253655.3485
6144 201855.987 8253690.0386
6145 201828.6369 8253716.4786
6146 201767.532 8253874.974
6147 201751.533 8253876.647
6148 201750.226 8253884.907
6149 201748.86 8253896.521
6150 201748.82 8253911.369
6151 201748.757 8253931.314
6152 201748.793 8253952.705
6153 201748.779 8253971.374
6154 201748.688 8253994.212
6155 202000.127 8253836.4088
6156 201858.594 8253733.635
6157 201661.7268 8253806.2386
6158 201725.2468 8253767.3486
6159 201727.0368 8253769.3486
6160 201883.477 8253760.4687
6161 201771.944 8253808.489
6162 201779.0342 8253802.2476
6163 201779.1288 8253802.1643
6164 201780.49 8253800.966
6165 201780.6961 8253800.7702
6166 201796.072 8253786.125
6167 201811.547 8253772.167
6168 201824.395 8253760.669
6169 201841.994 8253743.872
6170 201703.7368 8253843.5487
6171 201874.147 8253674.4386
6172 201861.617 8253585.8185
6173 201899.717 8253626.4986
6174 201879.517 8253567.7185
6175 201889.0671 8253558.7885
6176 201929.1171 8253599.5486
6177 201960.3771 8253569.1786
6178 202041.0871 8253733.6487
6179 202020.0371 8253733.6587
6180 202012.4171 8253680.6887
6181 201992.1271 8253680.6887
6182 202012.5871 8253698.0087
6183 202047.3171 8253698.0087
6184 202043.7772 8253595.9386
6185 202018.2671 8253596.9686
6186 201687.7968 8253843.9187
6187 201748.583 8254011.016
6188 201771.968 8253994.071
6189 201842.926 8254009.088
6190 201791.336 8253917.088
6191 201797.891 8253928.974
6192 201807.992 8253946.914
6193 201817.648 8253963.598
6194 201826.084 8253979.004
6195 201790.869 8253936.045
6196 201790.559 8253956.661
6197 201790.653 8253970.659
6198 201770.28 8253879.877
6199 201779.49 8253896.063
6200 201789.87 8253914.384
6201 201744.613 8253834.098
6202 201750.001 8253844.158
6203 201757.839 8253857.716
6204 201765.187 8253870.605
6205 201757.894 8253821.541
6206 201709.77 8253950.065
6207 201709.734 8253930.605
6208 201709.643 8253915.198
6209 201709.721 8253895.038
6210 201709.596 8253873.972
6211 201709.6 8253873.42
6212 201709.115 8253867.042
6213 201717.712 8253858.57
6214 201732.19 8253845.541
6215 201785.814 8253831.692
6216 201803.2569 8253833.3987
6217 201821.0669 8253823.3887
6218 201940.257 8253861.2788
6219 201951.097 8253857.2088
6220 202015.907 8253829.4388
6221 201992.5968 8254380.9392
6222 202038.5268 8254338.1892
6223 201787.556 8254072.065
6224 201788.471 8254049.66
6225 201788.463 8254049.315
6226 201787.6168 8254074.1889
6227 202005.4069 8254115.229
6228 201848.2267 8254288.3491
6229 201775.4367 8254287.859
6230 201749.5366 8254287.669
6231 202463.9068 8255235.22
6232 202113.3769 8255345.535
6233 202246.5166 8255189.2299
6234 202093.9465 8255226.9399
6235 202664.3323 8254628.0603
6236 202660.343 8254692.666
6237 202625.622 8254733.882
6238 202257.7668 8254888.4397
6239 202251.5368 8254929.1697
6240 202381.265 8254842.395
6241 202408.0006 8254764.4297
6242 202396.549 8254762.175
6243 202252.9665 8255537.2602
6244 202246.0626 8255192.0169
6245 202367.6168 8255015.4398
6246 202353.4566 8255389.1101
6247 202354.0366 8255386.5701
6248 202125.8765 8255298.2499
6249 202252.8567 8254986.6298
6250 202273.1367 8254993.6698
6251 202287.3767 8255064.4198
6252 202286.5367 8255070.5898
6253 202417.7168 8255224.29
6254 202356.5521 8255390.0231
6255 202186.9798 8255395.2467
6256 202159.3465 8255389.75
6257 202152.0465 8255433.4201
6258 202141.5164 8255493.3301
6259 202409.654 8255360.517
6260 202400.512 8255385.009
6261 202395.613 8255395.771
6262 202378.143 8255391.871
6263 202340.7166 8255427.6001
6264 202270.8467 8255009.0698
6265 202197.1267 8254997.0297
6266 202190.5967 8255035.9698
6267 202188.3367 8255048.2998
6268 202369.7668 8254994.0798
6269 202430.4668 8255045.6399
6270 202423.4568 8255087.9599
6271 202396.6768 8255083.6999
6272 202180.5265 8255309.16
6273 202411.351 8255357.203
6274 202412.41 8255354.215
6275 202365.9467 8255346.7001
6276 202268.7266 8255327.21
6277 202355.5368 8255077.2399
6278 202349.5767 8255118.2099
6279 202394.807 8255352.652
6280 202288.9166 8255299.57
6281 202271.4966 8255329.39
6282 202392.976 8255356.738
6283 202177.8865 8255438.5968
6284 204569.2769 8256615.6573
6285 204532.4117 8256622.0337
6286 202282.9333 8255460.3501
6287 202213.5265 8255521.2502
6288 202240.9265 8255451.7801
6289 202207.9165 8255444.8601
6290 202163.4064 8255500.4001
6291 202163.7665 8255496.7101
6292 204948.3208 8256515.6182
6293 204976.8467 8256584.1582
6294 204886.0425 8256862.2444
6295 204925.2497 8256742.0733
6296 204972.2157 8256598.16
6297 204368.8789 8256676.099
6298 204328.1391 8256671.0485
6299 204506.1654 8256625.9627
6300 204665.8461 8256599.8515
6301 204572.1281 8256633.1514
6302 203449.9125 8256507.3514
6303 203425.9556 8256498.072
6304 203355.9859 8256472.5656
6305 203378.3631 8256480.4523
6306 203401.1766 8256488.5824
6307 203289.3893 8256447.8134
6308 203299.6742 8256451.5375
6309 203322.9861 8256460.2261
6310 203258.9226 8256435.8399
6311 203283.6111 8256445.7212
6312 203441.361 8256592.4334
6313 203389.1735 8256572.3096
6314 203301.6284 8256540.7639
6315 203307.2794 8256543.1085
6316 203323.8411 8256547.8497
6317 203280.3308 8256531.9275
6318 203260.6168 8256525.3814
6319 203237.7368 8256604.2614
6320 203268.7161 8256614.9735
6321 203272.6558 8256616.3734
6322 203291.3817 8256623.0275
6323 203316.5977 8256632.306
6324 203340.5157 8256641.7282
6325 203223.2598 8256644.2807
6326 203230.3381 8256646.0409
6327 203286.902 8256666.0887
6328 203306.278 8256673.3276
6329 203328.6478 8256680.4832
6330 203331.3353 8256681.2721
6331 203342.2869 8256684.4867
6332 203367.8546 8256693.7356
6333 203385.4394 8256699.8726
6334 203404.3292 8256707.5045
6335 203416.1251 8256712.2703
6336 203441.2332 8256722.3161
6337 203449.3902 8256725.5797
6338 203487.4891 8256738.6438
6339 203498.0497 8256742.3303
6340 203201.7168 8256637.8851
6341 203214.6844 8256642.1483
6342 203251.4185 8256546.2492
6343 203257.677 8256526.8349
6344 203263.1512 8256511.6496
6345 203279.8926 8256470.9421
6346 203226.5506 8256632.5175
6347 203232.3397 8256611.3809
6348 203237.0336 8256596.6635
6349 203243.4485 8256571.9259
6350 203548.1762 8256549.111
6351 203481.7149 8256609.7391
6352 203487.5893 8256596.5156
6353 203494.3782 8256581.2544
6354 203503.3335 8256558.409
6355 203497.0624 8256702.4676
6356 203485.4866 8256697.729
6357 203525.0497 8256626.3022
6358 203501.6893 8256618.2141
6359 203489.2111 8256612.9538
6360 203536.2624 8256630.1845
6361 203520.1159 8256639.9764
6362 203509.724 8256668.4205
6363 203499.6207 8256696.014
6364 203526.6355 8256714.5739
6365 203751.9191 8256496.5834
6366 203747.046 8256509.4836
6367 203757.4527 8256481.2751
6368 203724.8577 8256469.1189
6369 203663.4024 8256507.2193
6370 203687.0142 8256516.6019
6371 203718.1423 8256486.5531
6372 203709.3952 8256510.0115
6373 203683.5305 8256453.641
6374 203705.9752 8256461.955
6375 203618.6557 8256490.4336
6376 203643.9158 8256499.6562
6377 203659.6855 8256505.7423
6378 203673.3382 8256480.3545
6379 203651.2586 8256441.6636
6380 203591.3662 8256480.347
6381 203615.8843 8256489.4217
6382 203630.0241 8256459.6271
6383 203592.1671 8256443.7153
6384 203585.3143 8256462.0531
6385 203806.3241 8256561.8758
6386 203792.0508 8256595.012
6387 203791.8292 8256595.7126
6388 203546.8556 8256507.0299
6389 203546.6624 8256500.8752
6390 203545.6643 8256476.2802
6391 203778.7978 8256636.9195
6392 203561.5847 8256511.3641
6393 203586.0306 8256519.2183
6394 203621.4918 8256530.7242
6395 203638.9138 8256536.7871
6396 203654.2394 8256542.5462
6397 203687.4308 8256556.7408
6398 203718.4185 8256569.2816
6399 203733.1538 8256574.945
6400 203751.4709 8256581.8355
6401 203775.297 8256590.3798
6402 203777.7775 8256640.1458
6403 203769.2221 8256661.1551
6404 203763.9659 8256671.9593
6405 203557.6339 8256553.1912
6406 203588.8057 8256566.2791
6407 203599.7386 8256570.9022
6408 203632.1985 8256582.8584
6409 203652.9899 8256590.8339
6410 203671.0091 8256597.9425
6411 203702.0229 8256608.1719
6412 203725.2545 8256616.3524
6413 203761.5003 8256677.0273
6414 203563.7671 8256598.4682
6415 203583.574 8256606.6663
6416 203609.3228 8256615.3147
6417 203625.1366 8256621.8036
6418 203641.5121 8256627.869
6419 203651.8262 8256631.6354
6420 203669.4866 8256638.4305
6421 203696.1041 8256648.7165
6422 203715.9288 8256656.6109
6423 203739.7929 8256665.2438
6424 203745.9425 8256667.2643
6425 203550.0079 8256638.6606
6426 203572.848 8256647.284
6427 203629.5393 8256668.7005
6428 203663.6359 8256682.1579
6429 203707.5712 8256698.3824
6430 203552.3432 8256692.6422
6431 201755.0018 8254813.6609
6432 201752.6613 8255439.7448
6433 201756.4885 8255431.5462
6434 201741.373 8255044.898
6435 203123.2821 8256395.0988
6436 201966.7184 8255296.0094
6437 201700.9262 8255175.7497
6438 201924.5559 8255289.167
6439 201991.7784 8255000.0032
6440 201956.3247 8254990.2674
6441 201965.0935 8254943.8658
6442 202001.0127 8254951.3506
6443 201740.5662 8255260.0765
6444 201740.7962 8255263.5998
6445 201992.4368 8254397.5792
6446 202036.4766 8254871.4296
6447 201853.8165 8254841.6895
6448 201805.8063 8255228.7198
6449 201740.3962 8255218.2264
6450 201992.4768 8254413.0692
6451 202041.7568 8254413.2092
6452 201845.0795 8255421.5099
6453 201893.9063 8255441.12
6454 201812.3863 8255189.4864
6455 201297.5718 8256175.9131
6456 201296.4533 8256179.8211
6457 201294.8731 8256182.4707
6458 201291.789 8256185.9423
6459 201264.6333 8256217.7376
6460 201264.0314 8256218.3443
6461 201257.7618 8256222.4388
6462 201257.0921 8256222.9732
6463 201256.6459 8256223.4965
6464 201252.1799 8256231.848
6465 201347.778 8256134.611
6466 201339.32 8256109.584
6467 200354.4062 8255605.4226
6468 200352.325 8255603.224
6469 200352.988 8255605.5726
6470 200337.8364 8256135.8148
6471 200349.0751 8256135.5529
6472 199058.7097 8256169.3564
6473 199306.679 8255767.471
6474 199306.926 8255776.049
6475 199307.179 8255785.772
6476 199302.057 8255804.123
6477 199297.466 8255817.296
6478 199291.506 8255837.108
6479 199287.233 8255851.298
6480 199285.488 8255861.931
6481 199284.247 8255876.977
6482 199284.954 8255890.798
6483 199288.14 8255907.391
6484 199293.187 8255930.051
6485 199299.046 8255950.074
6486 199303.292 8255964.221
6490 205483.7462 8258023.133
6491 205493.8005 8258026.165
6492 205479.9874 8257118.5748
6493 205497.9666 8257137.4433
6494 205374.0755 8257500.5291
6495 205575.9959 8257263.6622
6496 205470.0003 8257583.0466
6497 205469.9912 8257583.043
6498 205459.432 8257581.6769
6499 205455.6877 8257592.8109
6500 205275.9188 8257955.4547
6501 205292.4846 8257907.5592
6502 205316.7421 8257831.1413
6503 205461.3895 8258015.699
6504 204913.5994 8256946.1985
6505 204246.9144 8257291.847
6506 204267.2763 8257289.7896
6507 204357.0932 8257343.1895
6508 204356.6639 8257346.816
6509 204356.0915 8257347.9612
6510 204354.5651 8257349.6313
6511 204352.4664 8257351.5877
6512 204350.4154 8257353.4486
6513 204347.804 8257355.7867
6514 204293.157 8257477.8082
6515 204323.977 8257408.7312
6516 204323.5192 8257404.377
6517 203944.3145 8257950.8481
6518 203962.6317 8257902.3089
6519 203991.6618 8257818.6841
6520 203997.4326 8257802.6817
6521 203979.47 8257954.8872
6522 204014.6401 8257860.4497
6523 204070.1316 8257832.1091
6524 204024.4268 8257957.1028
6525 204105.2841 8257843.7181
6526 203920.6435 8257869.178
6527 203945.0261 8257801.5057
6528 203950.9537 8257785.7455
6529 203918.4336 8257772.3607
6530 204106.7621 8257839.4725
6531 204121.3146 8257795.5284
6532 204133.8896 8257757.0198
6533 204149.6996 8257701.982
6534 204199.0568 8257419.4934
6535 203353.73 8256982.85
6536 203352.5967 8256988.6717
6537 203330.1886 8257258.3741
6538 203179.7679 8256924.5032
6539 203196.0861 8256930.0563
6540 203216.4631 8256938.5104
6541 203247.5462 8256951.0105
6542 203276.7122 8256962.5891
6543 203298.5806 8256971.3852
6544 203947.6192 8257506.4854
6545 203943.2923 8257518.4028
6546 203910.3741 8257616.7798
6547 203852.7947 8257810.3462
6548 203615.3777 8257397.6514
6549 203619.3436 8257387.278
6550 203619.3442 8257387.2772
6551 203621.6148 8257384.1898
6552 203622.935 8257381.5275
6553 203624.6855 8257378.522
6554 203626.201 8257375.2038
6555 203657.6161 8257468.6648
6556 203665.6592 8257448.4152
6557 203670.3168 8257437.3008
6558 203642.9537 8257507.2737
6559 203653.8398 8257478.1717
6560 203628.5828 8257542.1728
6561 203639.6893 8257516.0002
6562 203620.3374 8257563.3215
6563 205642.6015 8257621.018
6564 205652.0061 8257589.0043
6565 205687.4575 8257484.85
6566 205716.2074 8257399.8014
6567 204222.256 8257479.707
6568 203566.5709 8257524.0707
6569 203589.9056 8257832.5218
6570 203560.6681 8257884.7575
6571 203556.5754 8257897.3465
6572 203550.1805 8257915.5167
6573 203575.7565 8257839.5925
6574 203566.3553 8257867.2638
6575 203429.6822 8257873.0001
6576 203515.1819 8257870.6346
6577 203510.8252 8257904.2011
6578 203528.8571 8257910.172
6579 203478.2316 8257890.3338
6580 203493.4964 8257897.0352
6581 203506.1769 8257902.6619
6582 203469.3227 8257887.2271
6583 203259.6021 8256828.9304
6584 203272.5378 8256833.3406
6585 203291.6598 8256840.2142
6586 203310.1861 8256847.7278
6587 203334.3518 8256857.1156
6588 203359.7347 8256866.8357
6589 203375.4591 8256872.7663
6590 203398.107 8256881.1267
6591 203418.5445 8256888.3819
6592 203194.5865 8257685.9975
6593 203188.7288 8257701.533
6594 203189.3317 8257700.316
6595 203188.1095 8257702.6312
6596 203198.5941 8257580.533
6597 203195.2259 8257589.7088
6598 203190.2784 8257603.0502
6599 203186.9585 8257611.8365
6600 203180.8476 8257627.6117
6601 203173.7916 8257647.3962
6602 203250.368 8257268.526
6603 203247.696 8257276.127
6604 203238.238 8257301.987
6605 203228.441 8257327.0094
6606 203228.438 8257327.017
6607 203222.398 8257343.748
6608 203211.3616 8257372.4226
6609 203206.6013 8257385.0939
6610 203109.825 8257735.996
6611 203116.308 8257717.966
6612 203121.988 8257702.218
6613 203128.718 8257685.321
6614 203134.714 8257668.866
6615 203140.449 8257653.046
6616 203149.013 8257631.855
6617 203155.402 8257614.332
6618 203161.626 8257598.068
6619 203171.37 8257572.9877
6620 203174.4726 8257564.4264
6621 203188.655 8257527.602
6622 203194.791 8257511.35
6623 203201.487 8257492.573
6624 203208.468 8257476.509
6625 203213.769 8257462.58
6626 203219.826 8257448.211
6627 203226.824 8257430.359
6628 203233.591 8257412.11
6629 203242.032 8257388.057
6630 203252.606 8257359.137
6631 203259.557 8257340.78
6632 203265.954 8257323.794
6633 203271.254 8257310.27
6634 203277.96 8257293.223
6635 203283.582 8257278.37
6636 203629.6025 8257376.7141
6637 203632.6302 8257377.5392
6638 203646.9688 8257384.1489
6639 203167.6206 8257678.7832
6640 203143.006 8257737.3496
6641 203416.5318 8257619.4357
6642 203436.0178 8257569.5233
6643 203461.7797 8257503.8248
6644 203484.5605 8257443.7848
6645 203507.9728 8257383.5976
6646 203514.4685 8257359.1932
6647 203520.5232 8257343.0883
6648 203372.1067 8257615.82
6649 203374.2889 8257609.1056
6650 203381.2469 8257588.391
6651 203388.448 8257569.1759
6652 203400.4466 8257538.9316
6653 203411.2442 8257511.5282
6654 203418.225 8257493.9491
6655 203424.226 8257480.6296
6656 203434.3683 8257452.7879
6657 203445.0608 8257423.8609
6658 203454.6647 8257399.9544
6659 203467.9733 8257368.9459
6660 203479.7542 8257340.1204
6661 203327.6164 8257608.6222
6662 203330.7541 8257600.2255
6663 203336.6483 8257583.488
6664 203342.869 8257567.5493
6665 203349.0022 8257553.8405
6666 203358.0775 8257522.6721
6667 203359.7484 8257517.8048
6668 203365.6426 8257508.8781
6669 203370.342 8257503.4583
6670 203373.2116 8257495.1668
6671 203374.486 8257485.204
6672 203376.8755 8257475.9585
6673 203379.4197 8257470.46
6674 203388.4204 8257452.7661
6675 203393.5129 8257441.1337
6676 203401.1595 8257421.7661
6677 203413.1851 8257393.3117
6678 203421.7105 8257374.5061
6679 203428.3185 8257355.0512
6680 203431.5879 8257336.5631
6681 203434.774 8257325.6438
6682 203288.9664 8257594.0022
6683 203293.0157 8257583.8755
6684 203299.498 8257566.2336
6685 203313.574 8257530.7791
6686 203334.2743 8257478.4186
6687 203352.7697 8257430.6815
6688 203366.0802 8257395.3942
6689 203386.8244 8257340.5684
6690 203251.8845 8257578.2407
6691 203257.4318 8257563.6898
6692 203265.4097 8257541.3034
6693 203274.6331 8257515.4311
6694 203284.4481 8257487.9628
6695 203295.0987 8257458.6678
6696 203304.5745 8257432.3251
6697 203317.1527 8257401.1747
6698 203321.7663 8257388.6273
6699 203337.9794 8257345.8872
6700 203343.4211 8257332.0378
6701 203354.8975 8257306.1169
6702 203365.6626 8257281.0222
6703 203416.9412 8257882.9882
6704 203388.6289 8257917.9751
6705 203405.1026 8257648.3086
6706 203397.9253 8257666.2052
6707 203384.7888 8257700.1183
6708 203370.7626 8257736.56
6709 203378.1794 8257637.8109
6710 203397.3184 8257645.2165
6711 203324.1192 8257616.8958
6712 203314.4787 8257640.2892
6713 203306.4143 8257659.7753
6714 203295.4488 8257687.1929
6715 203284.0333 8257715.8946
6716 203284.4799 8257601.2085
6717 203298.634 8257606.7527
6718 203319.0676 8257614.8537
6719 203245.3124 8257700.8295
6720 203254.4889 8257677.1457
6721 203265.6451 8257648.862
6722 203279.531 8257613.2974
6723 203452.3854 8257784.0371
6724 203488.8112 8257681.5057
6725 203963.6749 8257458.3727
6726 203955.5732 8257476.9712
6727 203950.6914 8257494.35
6728 203692.3339 8257202.3444
6729 203699.0477 8257183.5492
6730 204095.0733 8257073.6512
6731 203193.9464 8257182.4202
6732 203205.3782 8257186.4448
6733 203212.4335 8257189.0672
6734 203225.0322 8257191.9922
6735 203164.9373 8257168.6817
6736 203179.0292 8257173.4218
6737 203271.307 8256985.4882
6738 203266.6495 8256999.197
6739 203261.0696 8257013.7568
6740 203258.2828 8257021.0315
6741 203251.982 8257034.126
6742 203240.3466 8257065.9029
6743 203235.2575 8257075.4813
6744 203230.2862 8257087.1186
6745 203219.7445 8257121.1886
6746 203212.4694 8257139.4783
6747 203205.0779 8257159.9688
6748 203201.4455 8257169.4207
6749 203147.638 8257166.8108
6750 203162.9793 8257168.1036
6751 203177.6747 8257134.3299
6752 203200.4456 8257074.0564
6753 203219.6662 8257022.5139
6754 203054.511 8257629.032
6755 203062.674 8257714.872
6756 203040.783 8257705.866
6757 203017.093 8257696.349
6758 202254.1351 8256075.9971
6759 202250.391 8256085.329
6760 202245.682 8256097.194
6761 202238.996 8256112.112
6762 202228.543 8256129.685
6763 202216.896 8256149.772
6764 202211.685 8256158.879
6765 201889.1666 8254597.6793
6766 202221.743 8254671.374
6767 202216.9847 8254670.964
6768 202214.78 8254670.774
6769 202207.817 8254670.174
6770 202207.4665 8254670.1405
6771 202207.116 8254670.107
6772 201921.8899 8254502.2001
6773 201890.1066 8254542.4893
6774 201926.0167 8254542.9693
6775 201888.4067 8254498.9192
6776 201950.566 8254607.574
6777 201967.35 8254608.952
6778 201924.5066 8254600.6593
6779 201903.1633 8254598.8293
6780 202269.7072 8253957.629
6781 202427.521 8252786.934
6782 202385.033 8252564.2884
6783 202058.056 8256924.636
6784 202067.359 8256927.881
6785 202074.758 8256930.552
6786 203013.219 8257357.823
6787 202985.852 8257350.095
6788 202957.987 8257342.361
6789 202945.828 8257338.957
6790 202937.466 8257336.564
6791 203059.856 8257370.614
6792 203053.5535 8257368.9546
6793 204134.2531 8257853.0993
6794 204020.429 8256962.37
6795 204022.366 8256967.39
6796 204029.791 8256985.313
6797 204037.087 8257002.353
6798 204044.332 8257019.883
6799 204051.159 8257036.772
6800 204058.518 8257054.455
6801 204065.776 8257071.843
6802 204072.985 8257088.418
6803 204080.701 8257106.908
6804 204087.572 8257124.54
6805 204094.522 8257141.89
6806 204102.896 8257158.464
6807 204108.157 8257166.95
6808 204115.619 8257175.854
6809 204121.7049 8257181.9679
6810 204125.7345 8257184.8233
6811 203688.4992 8256864.3266
6812 203923.8022 8257209.3496
6813 203972.8769 8257229.2408
6814 204001.5041 8257239.9836
6815 204025.6433 8257249.334
6816 203035.8479 8256792.5376
6817 203052.8835 8256800.2919
6818 203064.2192 8256805.489
6819 203085.0333 8256812.4743
6820 203098.9307 8256817.1525
6821 203125.7713 8256826.0598
6822 203147.0337 8256832.7887
6823 203157.6792 8256835.8701
6824 203173.5621 8256842.8555
6825 203184.5699 8256847.3495
6826 203212.1177 8256858.9446
6827 203226.0665 8256864.5054
6828 203237.9322 8256870.2682
6829 203257.8471 8256877.6974
6830 203287.2847 8256888.4852
6831 203335.3746 8256906.1618
6832 203364.9587 8256916.974
6833 203384.3419 8256922.4979
6834 203395.0149 8256926.0578
6835 203423.1082 8256936.86
6836 203460.6547 8256950.1244
6837 203480.6513 8256956.8758
6838 203511.4467 8256968.4156
6839 203545.9193 8256981.7957
6840 203565.9159 8256990.2656
6841 203578.5517 8257000.3315
6842 203594.6238 8257007.3249
6843 203608.8621 8257012.8161
6844 203686.8118 8256868.0068
6845 203691.3481 8256872.3631
6846 203805.1252 8256516.7421
6847 203807.0441 8256517.5415
6848 203808.9629 8256518.3409
6849 203810.8818 8256519.1404
6850 203811.2484 8256519.2931
6851 203811.502 8256519.7255
6852 203827.5071 8256510.8501
6853 203819.6521 8256490.1021
6854 204093.0211 8257191.1681
6855 204097.2961 8257191.4811
6856 204088.9401 8257169.9585
6857 203635.0011 8256997.9501
6858 203650.2041 8256985.7071
6859 203668.6291 8256991.4171
6860 203688.0011 8256997.3381
6861 203705.2911 8257002.3881
6862 203723.7411 8257007.7931
6863 203741.9601 8257013.1891
6864 203759.7581 8257018.0491
6865 203777.4351 8257022.8031
6866 203796.1251 8257027.5541
6867 203813.7641 8257033.1211
6868 203833.3981 8257039.1671
6869 203849.7081 8257044.6811
6870 203870.2791 8257049.8911
6871 203890.2381 8257055.6901
6872 203907.9831 8257060.9721
6873 203926.9621 8257066.6781
6874 203946.0181 8257071.6401
6875 203965.3281 8257077.7991
6876 203983.6131 8257083.5491
6877 204002.9031 8257089.9061
6878 204022.5101 8257095.1821
6879 204041.8711 8257100.9681
6880 203625.7741 8257019.7451
6881 203644.9081 8257025.0691
6882 203664.0201 8257030.6991
6883 203683.2771 8257036.9041
6884 203699.8001 8257041.7101
6885 203718.5391 8257047.1011
6886 203736.3071 8257052.5221
6887 203755.2961 8257058.0201
6888 203774.9821 8257063.7861
6889 203794.5951 8257069.4001
6890 203814.0121 8257074.7161
6891 203831.9861 8257079.9601
6892 203847.8991 8257085.1361
6893 203865.9201 8257090.4801
6894 203886.0871 8257096.0081
6895 203905.4891 8257101.5481
6896 203925.5281 8257107.5171
6897 203944.9181 8257113.2931
6898 203963.9441 8257119.2451
6899 203981.3121 8257124.7761
6900 204000.4371 8257130.6961
6901 204019.4701 8257136.1091
6902 204039.0051 8257141.4241
6903 204057.1861 8257147.0621
6904 204076.6071 8257151.7321
6905 203619.1061 8257036.2171
6906 203941.4971 8256786.9696
6907 203939.0811 8256781.1871
6908 203930.4401 8256760.7311
6909 203922.4991 8256741.2031
6910 203962.0671 8256836.7591
6911 203954.1522 8256818.1688
6912 203946.6741 8256799.3601
6913 203969.9041 8256855.5231
6914 203988.3431 8256899.6431
6915 203980.8731 8256881.4771
6916 203976.8061 8256871.7691
6917 204006.0191 8256941.1061
6918 203997.2091 8256920.0701
6919 204015.2581 8256963.2741
6920 203677.4147 8256903.7637
6921 203674.7611 8256909.7441
6922 203695.6011 8256915.1351
6923 203710.7691 8256920.6471
6924 203712.1471 8256878.6377
6925 203730.4161 8256882.4171
6926 203750.1057 8256885.4993
6927 203767.8091 8256888.9181
6928 203787.1011 8256893.6411
6929 203805.4751 8256898.3921
6930 203822.7671 8256903.3741
6931 203842.5941 8256906.2571
6932 203861.7051 8256909.7921
6933 203880.6161 8256912.6881
6934 203900.0261 8256914.8511
6935 203920.1411 8256915.7781
6936 203940.2321 8256916.1831
6937 203959.5741 8256913.8271
6938 203974.5001 8256910.5461
6939 203729.4661 8256829.8471
6940 203748.9841 8256836.8001
6941 203766.7351 8256844.1891
6942 203784.9431 8256850.5741
6943 203803.5521 8256857.1501
6944 203821.8181 8256863.2171
6945 203841.1111 8256870.2351
6946 203859.4031 8256877.7461
6947 203877.8491 8256884.0481
6948 203897.1561 8256888.2791
6949 203918.6311 8256891.7031
6950 203701.2471 8256846.1289
6951 202158.4372 8253653.8387
6952 202154.1105 8253653.8486
6953 202162.9472 8253769.5347
6954 202047.5371 8253733.6387
6955 202043.7072 8253571.1186
6956 202848.4722 8257059.9613
6957 202853.3037 8257051.3169
6958 202865.0066 8257019.9624
6959 202875.5436 8256994.1748
6960 202883.1569 8256970.8789
6961 202893.5794 8256942.1688
6962 202907.1008 8256908.8928
6963 202921.4496 8256873.2743
6964 202876.203 8257234.541
6965 203033.5206 8256749.3608
6966 203025.7224 8256774.4704
6967 203012.4689 8256817.655
6968 203021.9901 8256784.9812
6969 202976.3494 8256806.2276
6970 202976.3546 8256825.7484
6971 202967.7888 8256851.4464
6972 202792.2478 8256808.683
6973 202810.2808 8256820.4922
6974 202878.0904 8256846.2137
6975 202921.8237 8256863.3623
6976 202960.2344 8256878.5882
6977 202632.5043 8256744.0884
6978 202669.8274 8256758.4753
6979 202706.949 8256773.3746
6980 202743.9955 8256788.4597
6981 202756.8815 8256793.6422
6982 202765.3722 8256797.953
6983 202447.634 8257065.842
6984 202454.9033 8257057.0737
6985 202464.6375 8257032.7236
6986 202471.3901 8257014.6386
6987 202483.0034 8256984.63
6988 202494.8195 8256952.2382
6989 202502.2685 8256930.0842
6990 202508.326 8256915.5765
6991 202511.8027 8256906.5421
6992 202514.4839 8256893.7236
6993 202518.3567 8256880.7064
6994 202521.5355 8256872.6616
6995 202530.87 8256860.8368
6996 202533.7498 8256855.2721
6997 202540.3893 8256832.6578
6998 202554.1354 8256797.1201
6999 202566.2662 8256771.0884
7000 202572.8362 8256754.1225
7001 202498.85 8256708.938
7002 202536.577 8256722.313
7003 202935.4707 8256711.7001
7004 202952.1466 8256715.004
7005 202488.9639 8256686.8638
7006 202520.4101 8256701.2933
7007 202557.5886 8256716.05
7008 202842.0281 8256788.7059
7009 202861.5458 8256796.681
7010 202901.8807 8256814.6147
7011 202903.0563 8256826.8584
7012 202787.8212 8256790.45
7013 204808.74 8258235.242
7014 204830.9502 8258230.1203
7015 204852.475 8258258.444
7016 204795.011 8258239.692
7017 203575.5441 8257936.5903
7018 203552.7537 8258004.91
7019 203618.929 8258055.039
7020 203611.061 8258073.411
7021 203628.835 8258080.666
7022 203646.909 8258088.103
7023 203898.4753 8257931.3437
7024 203639.47 8258002.282
7025 203631.674 8258022.411
7026 203375.915 8257950.5843
7027 203386.1864 8257924.2525
7028 203453.1773 8257932.0816
7029 203435.534 8257983.3013
7030 203499.5468 8257936.2761
7031 203478.7206 8258000.4511
7032 203421.2564 8257891.0056
7033 203394.9817 8257959.6396
7034 204994.9357 8259460.7976
7035 204959.5535 8259670.6696
7036 204858.2198 8259572.6999
7037 203394.5948 8257959.7726
7038 203393.8685 8257959.7726
7039 203392.8309 8257959.6169
7040 203392.0006 8257959.4092
7041 203385.0484 8257956.3467
7042 203377.2142 8257952.5056
7043 203376.9029 8257952.2979
7044 203376.5398 8257951.8827
7045 203376.0728 8257951.1041
7046 204700.191 8259111.627
7047 204683.921 8259115.456
7048 204665.415 8259120.415
7049 204868.8205 8259076.4206
7050 204867.541 8259076.3882
7051 204869.132 8259071.911
7052 205077.683 8259107.379
7053 205081.95 8259092.881
7054 205088.293 8259071.686
7055 205092.201 8259057.396
7056 205095.148 8259045.007
7057 205228.1848 8259126.471
7058 205288.4997 8259129.6767
7059 202205.1478 8253504.9006
7060 202181.6865 8254196.565
7061 202269.655 8253953.6483
7062 202602.019 8254217.786
7063 202584.1389 8254220.7768
7064 201726.7376 8255043.6348
7065 203238.8273 8256251.7476
7066 203321.598 8256283.2182
7067 203209.0954 8256306.1401
7068 203765.0965 8256503.2408
7069 203785.7752 8256510.7651
7070 203553.1776 8256368.0205
7071 203525.1271 8256363.1713
7072 203415.1577 8256320.599
7073 203314.6944 8256281.1806
7074 205305.8294 8256903.3049
7075 203170.2427 8256219.6728
7076 203170.4307 8256218.1801
7077 203171.7338 8256207.9593
7078 205216.1928 8257050.6209
7079 204099.9434 8257915.9118
7080 204059.3076 8258005.7991
7081 204123.9611 8257186.2534
7082 204114.744 8257192.1803
7083 204205.1345 8257345.9613
7084 204199.8492 8257345.7451
7085 203797.8195 8257816.22
7086 204076.4217 8257528.9569
7087 205268.465 8258397.572
7088 205292.026 8258405.667
7089 205312.893 8258413.071
7090 205403.4327 8257996.471
7091 205376.3327 8257987.466
7092 205251.3211 8257944.91
7093 204917.473 8258280.253
7094 204898.352 8258273.796
7095 204878.093 8258267.043
7096 204857.307 8258260.111
7097 202339.4507 8256772.6604
7098 202359.5705 8256719.685
7099 202380.2246 8256667.847
7100 202095.768 8256931.401
7101 202113.8865 8256884.4742
7102 202131.3332 8256839.9681
7103 202148.1263 8256794.9175
7104 204869.3733 8259076.748
7105 202929.3 8257072.257
7106 202934.555 8257059.207
7107 202942.713 8257037.757
7108 202950.433 8257018.213
7109 202958.498 8256997.488
7110 202966.365 8256976.729
7111 202975.162 8256954.005
7112 202983.923 8256930.516
7113 202993.4248 8256907.254
7114 205633.2635 8257613.93
7115 205656.1239 8257549.0193
7116 205123.0593 8257354.4183
7117 205168.2417 8257220.4501
7118 205210.1507 8257096.1826
7119 205245.3531 8256996.1493
7120 205252.7402 8256991.0081
7121 205267.131 8256947.8939
7122 203220.8887 8257526.3942
7123 203241.2403 8257475.2828
7124 203276.1012 8257382.2403
7125 203298.0306 8257325.3944
7126 203316.2681 8257281.2748
7127 202651.929 8257158.047
7128 202656.068 8257158.923
7129 205707.2346 8255512.5072
7130 205706.2691 8255510.2416
7131 205699.7919 8255493.4794
7132 205596.8549 8255252.539
7133 205808.244 8255827.505
7134 205811.292 8255833.87
7135 205814.868 8255841.589
7136 202170.752 8254462.009
7137 202174.245 8254461.9545
7138 202177.738 8254461.9
7139 202576.8485 8254220.4939
7140 202577.0789 8254221.8522
7141 202524.6975 8253720.9889
7142 202085.3272 8253481.9385
7143 202182.7373 8253385.8385
7144 202618.431 8254213.575
7145 201658.627 8253455.802
7146 202256.4773 8253717.5288
7147 202188.9293 8253711.3107
7148 202394.9839 8254126.0592
7149 201899.186 8253503.2069
7150 201709.476 8254041.275
7151 202052.9872 8253448.4885
7152 202055.6372 8253441.0585
7153 202006.1972 8253410.1485
7154 202000.0404 8253421.0932
7155 201979.807 8253409.477
7156 200701.399 8253289.145
7157 200701.423 8253289.1444
7158 201709.9167 8254144.9189
7159 202552.8111 8254487.6596
7160 202637.175 8254711.248
7161 201980.356 8255298.3068
7162 200387.194 8255601.465
7163 200388.469 8255626.154
7164 200389.268 8255653.618
7165 200389.308 8255674.883
7166 200390.038 8255692.85
7167 200390.802 8255711.804
7168 200391.078 8255737.927
7169 200390.751 8255759.756
7170 200389.978 8255779.197
7171 200389.334 8255799.115
7172 200388.287 8255817.571
7173 200387.809 8255835.103
7174 200386.635 8255856.468
7175 200384.459 8255880.912
7176 200381.728 8255894.076
7177 200377.738 8255917.143
7178 200373.483 8255940.578
7179 200370.231 8255965.084
7180 200367.063 8255989.77
7181 200364.921 8256008.194
7182 200361.286 8256030.158
7183 200356.368 8256064.724
7184 201965.9066 8254809.8295
7185 201909.442 8254661.031
7186 201929.95 8254663.063
7187 201707.2265 8254630.4293
7188 201795.1662 8255329.0198
7191 200332.1306 8255605.731
7192 200313.643 8255608.606
7193 200294.794 8255611.318
7194 200258.0 8255616.566
7195 200235.25 8255620.281
7196 200215.548 8255623.385
7197 200199.306 8255625.406
7198 200180.624 8255627.722
7199 200160.0 8255630.043
7200 200128.92 8255633.82
7201 200112.877 8255636.369
7202 200086.823 8255640.282
7203 200066.524 8255643.233
7204 200046.228 8255645.743
7205 200027.421 8255648.559
7206 200005.774 8255651.799
7207 199979.908 8255655.484
7208 199956.144 8255659.018
7209 199935.945 8255661.877
7210 199914.188 8255665.007
7211 199890.996 8255668.502
7212 199860.47 8255672.891
7213 199841.243 8255675.956
7214 199819.56 8255678.769
7215 199798.732 8255682.274
7216 199778.084 8255685.17
7217 198994.9301 8255858.8371
7218 201670.216 8255571.7
7220 198704.577 8255932.895
7221 198701.421 8255939.694
7222 198695.439 8255954.241
7223 198688.362 8255973.217
7224 198681.041 8255986.802
7225 198673.521 8255998.548
7226 198661.357 8256025.74
7227 198661.19 8256048.535
7228 198663.681 8256058.358
7229 198668.129 8256079.186
7230 198669.777 8256090.618
7231 198671.439 8256112.321
7232 198673.588 8256130.243
7233 198677.055 8256143.281
7234 198696.149 8256161.983
7235 198710.699 8256165.296
7236 198729.882 8256168.377
7237 198747.506 8256169.921
7238 204826.2673 8258236.1433
7239 204641.1771 8258458.1734
7240 200728.0363 8253350.3579
7241 202099.0986 8253513.0022
7242 202098.7072 8253507.2986
7243 205804.872 8255821.017
7244 202256.6273 8253720.0788
7245 202409.6039 8253720.3359
7246 202525.2475 8253724.1289
7247 202540.6733 8253808.7134
7248 202567.4898 8253955.7552
7249 202188.706 8253380.4402
7251 202413.13 8253722.8963
7252 205454.9943 8255375.2148
7253 205452.199 8255368.8414
7254 205675.9298 8255883.7644
7255 205673.6658 8255884.735
7256 205973.9594 8255400.5516
7257 205537.6635 8255563.1874
7258 205764.443 8255845.7266
7259 205754.8305 8255822.8281
7260 205607.0293 8254995.0612
7262 202629.8687 8254247.9624
7263 202436.5172 8254219.3593
7264 202491.8343 8255196.0683
7265 202439.7668 8255184.34
7266 202127.4755 8254664.5653
7267 199306.394 8255759.0874
7275 199756.29 8255698.605
7276 199766.544 8255708.192
7277 199769.437 8255718.537
7278 199772.178 8255733.809
7279 199771.536 8255745.407
7280 199769.495 8255751.83
7281 199766.275 8255757.029
7282 199761.653 8255770.58
7283 199759.682 8255776.458
7284 199759.665 8255794.409
7285 199759.737 8255811.239
7286 199759.415 8255832.447
7287 199756.799 8255851.153
7288 199753.345 8255867.941
7289 199751.582 8255887.158
7290 199751.209 8255897.405
7291 199750.402 8255915.125
7292 199750.628 8255927.431
7293 199751.308 8255940.043
7294 199751.667 8255950.926
7296 201994.275 8253567.785
7297 202185.057 8254028.96
7298 202186.772 8254028.937
7299 202986.24 8257685.026
7300 202972.643 8257679.543
7301 202944.624 8257669.419
7302 202915.479 8257660.436
7303 202896.704 8257655.68
7304 202876.42 8257650.05
7305 202856.056 8257644.672
7306 202838.492 8257639.458
7307 202806.737 8257630.703
7308 202785.686 8257624.313
7309 205124.557 8258749.539
7310 205129.165 8258735.924
7311 205138.516 8258707.25
7312 205145.243 8258687.392
7313 205152.164 8258666.337
7314 205159.107 8258645.226
7315 205164.816 8258628.304
7316 205172.938 8258604.679
7317 205178.857 8258586.75
7318 205185.796 8258565.61
7319 205193.608 8258542.679
7320 205200.313 8258522.474
7321 205207.356 8258501.9
7322 205214.027 8258481.477
7323 205220.567 8258461.913
7324 205228.25 8258439.276
7325 205235.136 8258419.823
7326 205241.639 8258399.539
7327 205131.737 8258403.061
7328 205124.047 8258426.062
7329 205117.142 8258446.155
7330 205111.222 8258463.879
7331 205104.438 8258484.45
7332 205097.482 8258504.964
7333 205090.168 8258527.18
7334 205083.447 8258547.598
7335 205076.951 8258566.974
7336 205070.223 8258586.573
7337 205063.653 8258607.156
7338 205056.605 8258627.299
7339 205049.245 8258648.785
7340 205042.529 8258668.466
7341 205035.407 8258689.06
7342 205028.695 8258709.331
7343 205020.404 8258367.077
7344 205013.215 8258388.529
7345 205006.705 8258407.942
7346 205000.526 8258426.665
7347 204994.018 8258446.147
7348 204987.461 8258465.414
7349 204980.431 8258486.51
7350 204973.749 8258506.915
7351 204966.57 8258527.765
7352 204959.319 8258547.756
7353 204952.458 8258568.778
7354 204946.05 8258588.244
7355 204938.951 8258608.436
7356 204932.603 8258628.625
7357 204924.541 8258653.142
7358 204918.723 8258669.062
7359 204832.247 8258666.078
7360 204854.73 8258674.358
7361 204873.02 8258680.479
7362 204891.963 8258686.58
7363 201904.469 8255055.652
7364 203876.349 8256426.51
7365 203891.175 8256431.992
7366 203922.228 8256444.27
7367 203935.306 8256449.524
7368 203954.729 8256457.033
7369 203974.139 8256464.436
7370 203993.233 8256471.857
7371 205391.753 8256115.389
7372 205409.383 8256104.509
7373 205428.067 8256092.924
7374 205572.588 8256002.906
7375 205578.73 8255999.0
7376 205595.591 8255988.68
7377 205612.495 8255978.395
7378 205629.667 8255967.484
7379 205648.289 8255956.303
7380 205665.901 8255945.139
7381 205688.309 8255931.002
7382 205712.075 8255916.52
7383 205576.249 8256008.358
7384 205446.142 8256081.528
7385 205464.244 8256070.32
7386 205482.457 8256058.996
7387 205500.9 8256047.643
7388 205518.91 8256036.403
7389 205536.602 8256025.406
7390 205554.339 8256014.405
7391 203600.853 8256319.031
7392 203616.524 8256325.346
7393 203632.307 8256331.685
7394 203651.786 8256338.973
7395 203671.352 8256346.691
7396 203690.136 8256354.135
7397 203709.663 8256361.607
7398 203729.089 8256369.157
7399 203748.245 8256376.173
7400 203797.643 8256395.958
7401 203815.337 8256402.858
7402 203835.03 8256410.264
7403 203850.687 8256416.621
7404 203872.087 8256424.929
7405 203874.747 8256426.066
7409 202382.4164 8255887.565
7410 202023.04 8255687.075
7411 202021.38 8255692.873
7464 202184.1533 8254196.6984
7465 202183.9137 8254196.6849
7466 202183.4423 8254196.6606
7467 202177.8355 8254196.3555
7468 202171.1 8254195.989
7469 202217.1379 8253721.2028
7470 202217.1472 8253721.3788
7512 201889.1308 8255637.0287
7513 201890.2417 8255634.6031
7514 201811.6646 8253597.0614
7515 201811.137 8253596.5085
7516 201708.5565 8254580.7992
7517 201876.8862 8255668.6701
7518 201873.5905 8255628.1856
7519 201696.8668 8253866.7487
7520 201695.9468 8253867.5987
7521 201697.7868 8253865.8987
7522 201712.4968 8253851.8887
7523 201696.5861 8255544.25
7524 201867.6369 8253655.0916
7525 201922.934 8253669.002
7526 201929.439 8253662.86
7527 201937.4118 8253655.415
7528 201694.3706 8254126.6897
7529 201690.1164 8254825.9594
7530 201690.0989 8254827.8766
7531 201690.0783 8254829.8888
7532 201689.8461 8255555.23
7533 201714.1361 8255564.56
7534 201712.3661 8255563.87
7535 202050.878 8255344.663
7536 202047.71 8255363.259
7537 202043.988 8255387.779
7538 202040.456 8255408.412
7539 202036.453 8255432.328
7540 202034.212 8255445.734
7541 202031.971 8255459.14
7542 202028.992 8255476.117
7543 202025.789 8255497.359
7590 201700.3161 8255559.15
7591 201696.6177 8255557.7319
7607 201968.7468 8254219.9991
7608 202044.4882 8253614.8514
7609 202470.9975 8253646.6488
7610 202225.9969 8254548.2094
7612 200353.241 8255603.0971
7613 204649.132 8257734.4621
7614 204650.5473 8257729.9917
7615 205315.6349 8257966.835
7616 205281.9912 8257957.5619
7617 203199.7099 8257402.2544
7618 200717.9646 8253288.3223
7619 204802.408 8258251.067
7620 204801.537 8258250.857
7621 200565.4665 8252634.6473
7622 201931.785 8255656.318
7623 198713.673 8255912.316
7624 202913.8938 8257287.7692
7625 202911.365 8257288.123
7626 202911.653 8257287.477
7627 202713.7929 8256187.761
7628 202721.3074 8256167.537
7629 202729.1044 8256147.286
7630 202738.2644 8256123.178
7631 202747.8524 8256097.945
7632 202755.6096 8256077.59
7633 202762.9103 8256058.94
7634 202763.1679 8256058.0436
7635 202785.866 8256210.553
7636 202793.9537 8256189.456
7637 202802.0773 8256167.912
7638 202810.3828 8256146.666
7639 202821.1812 8256118.69
7640 202828.0982 8256100.08
7641 202764.6212 8256050.867
7642 202768.6869 8256034.7341
7643 202903.9838 8256076.698
7644 202876.7557 8256065.964
7645 202858.561 8256059.258
7646 202840.0996 8256053.475
7647 202814.4697 8256047.805
7648 202790.3801 8256040.901
7649 202765.2041 8256033.744
7650 202741.2468 8256026.294
7651 202723.7059 8256019.589
7652 202835.6589 8256080.746
7653 202847.6462 8256048.0956
7654 202783.4927 8256064.18
7655 202808.73 8256074.075
7656 202827.3195 8256081.873
7657 202834.3317 8256084.214
7658 202834.2223 8256084.481
7659 198993.0363 8255854.9482
7660 205826.094 8255846.959
7698 200316.6269 8255214.8858
7699 200352.1116 8255189.7172
7700 200279.5473 8255239.3947
7701 200262.7236 8255251.2465
7702 200249.8049 8255261.2322
7703 200224.6138 8255283.8785
7704 200509.0758 8255295.3336
7705 200629.1988 8255295.3061
7706 200650.8912 8255295.3011
7707 200492.1997 8255294.7281
7708 200473.7211 8255291.5285
7709 200461.4334 8255287.6825
7710 200451.056 8255282.4181
7711 200436.0115 8255272.8456
7712 200424.6097 8255264.1803
7713 200416.4248 8255256.866
7714 200411.7132 8255118.2158
7715 200580.3341 8254959.3594
7716 200580.3514 8254959.3425
7717 200580.3702 8254959.3594
7718 200619.3305 8254994.4902
7719 200496.9599 8255134.3854
7720 200499.9272 8255134.3997
7721 200496.9599 8255262.9835
7722 200496.9762 8255262.9837
7723 200513.5748 8255263.1427
7724 200521.1454 8255263.1427
7725 200522.5562 8255263.1427
7726 200513.5748 8255261.7092
7727 200650.9452 8255263.1427
7728 200936.6198 8255325.3968
7729 200650.8405 8255325.4083
7730 200650.9452 8255244.3017
7731 200650.9442 8255243.864
7732 200650.9431 8255128.6916
7733 200650.9431 8254994.4902
7734 200650.9431 8255227.9764
7735 200653.1652 8255227.9764
7736 200650.9431 8255243.4263
7737 200627.1813 8254997.8451
7738 200627.1813 8255327.9093
7739 200651.7998 8255194.6867
7740 200651.7998 8255325.0583
7741 200682.0764 8255128.6916
7742 200625.1937 8255263.1539
7743 200629.1537 8255263.1539
7744 200695.4951 8255244.3017
7745 200625.496 8254994.4919
7746 200621.536 8254994.4919
7747 200662.2463 8254984.3139
7748 200594.037 8254963.0015
7749 201269.8398 8255327.9093
7750 200936.0135 8254984.3139
7751 200797.7732 8255263.1427
7752 200805.3437 8255263.1427
7753 200806.7546 8255263.1427
7754 200798.503 8255139.1624
7755 200798.503 8255137.3225
7756 200759.062 8255263.1427
7757 200796.3623 8255263.1427
7758 200764.5434 8255139.1624
7759 200936.5144 8255263.1427
7760 200741.5256 8255155.747
7761 200744.606 8255155.747
7762 200741.5256 8255155.2855
7763 200695.4951 8255155.747
7764 200764.5434 8255134.159
7765 200744.606 8255139.1624
7766 200709.8972 8255155.747
7767 200713.8617 8255155.747
7768 201065.8726 8255137.7524
7769 201048.7418 8255137.7524
7770 200938.2687 8255149.6732
7771 200938.2687 8255142.8688
7772 200938.2763 8255138.3688
7773 200936.5817 8255300.5196
7774 200936.6248 8255324.483
7775 200933.8236 8255300.5196
7776 201403.6947 8255325.397
7777 200936.0135 8254984.7884
7778 201193.6894 8255294.5219
7779 200938.2686 8255294.5219
7780 201220.938 8255294.5455
7781 201193.6577 8255262.4716
7782 201081.9715 8255262.4716
7783 201065.8726 8255262.4716
7784 201048.7418 8255134.009
7785 201083.0035 8255137.7524
7786 201193.0582 8255262.4716
7787 201090.9529 8255262.4716
7788 201043.2604 8255262.4716
7789 201193.6577 8255259.2212
7790 201221.7896 8255193.3978
7791 201233.7526 8255193.3978
7792 201221.7896 8255292.6012
7793 201221.7896 8255325.0583
7794 201221.7896 8255296.5612
7795 200944.7103 8255149.6732
7796 200938.2687 8255244.494
7797 200938.2687 8255195.0173
7798 200938.2687 8255198.9768
7799 201269.8398 8255325.0583
7800 200937.4381 8255325.0583
7801 201635.0122 8255396.9529
7802 201627.8553 8255394.0672
7803 201501.8686 8255309.4641
7804 201501.888 8255294.5455
7805 201501.8906 8255292.5515
7806 201501.8906 8255287.6068
7807 201500.8522 8255287.6068
7808 201611.5008 8255173.379
7809 201608.8853 8255180.0314
7810 201631.0419 8255141.121
7811 201634.4405 8255133.7185
7812 201636.4486 8255129.5252
7813 201636.8502 8255124.9945
7814 201635.6002 8255133.9156
7815 201633.8532 8255138.5416
7816 201631.4008 8255143.1508
7817 201620.261 8255161.4725
7818 201612.5626 8255175.4071
7819 201611.295 8255179.2545
7820 201610.6624 8255184.1795
7821 201610.0901 8255257.7719
7822 201611.9526 8255264.8269
7823 201634.9984 8255301.6323
7824 201634.9984 8255387.8149
7825 201608.1975 8255184.2847
7826 201635.866 8255127.8379
7827 201635.866 8255008.0474
7828 201608.6468 8255258.0425
7829 201449.1756 8255330.1731
7830 201435.5358 8255327.7607
7831 201418.412 8255326.0082
7832 201477.3615 8255337.046
7833 201654.8497 8255396.9244
7834 201594.2447 8255380.5155
7835 201476.4967 8255333.4485
7836 201461.8627 8255329.5534
7837 201444.4872 8255326.4586
7838 201429.7896 8255325.0583
7839 201466.0453 8255293.7522
7840 201466.0453 8255294.5455
7841 201236.5777 8255293.7915
7842 201236.5777 8255294.5455
7843 201236.5777 8255293.26
7844 201466.0473 8255293.26
7845 201501.8906 8255263.143
7846 201609.8795 8255264.8772
7847 201633.5068 8255303.0506
7848 201589.4661 8255403.5758
7849 201589.4661 8255401.7856
7850 201589.4661 8255344.9161
7851 201634.0783 8255362.4978
7852 201599.6931 8255408.0321
7853 201599.6931 8255406.6822
7854 201599.6931 8255384.5964
7855 201591.3065 8255381.2411
7856 201587.6054 8255379.8326
7857 201349.555 8255139.8152
7858 201332.9401 8255139.8152
7859 201332.9401 8255136.0718
7860 201366.6135 8255139.8152
7861 201501.8906 8255003.0999
7862 201349.555 8255263.143
7863 201349.555 8255140.2497
7864 201366.1699 8255263.143
7865 201375.1513 8255263.143
7866 201654.8497 8255385.8296
7867 201636.7202 8254948.3956
7868 201635.8581 8254947.6132
7869 201635.8361 8254779.8271
7870 201502.2316 8254637.2655
7871 201502.2316 8254601.7994
7872 201502.1333 8254651.5615
7873 201501.8906 8254984.6267
7874 201502.0828 8254953.0072
7875 201627.5213 8254948.4103
7876 201504.0985 8254948.4103
7877 201500.8748 8254953.0072
7878 201502.0828 8254947.6132
7879 201502.0828 8254918.9022
7880 201502.0828 8254900.202
7881 201502.1333 8254782.7021
7882 201501.352 8254637.2655
7883 201481.3985 8254637.2655
7884 201502.2316 8254569.6578
7885 201502.2316 8254433.4279
7886 201238.9779 8254637.2655
7887 201636.0683 8254656.1652
7888 201636.0683 8254637.2655
7889 201636.0683 8254296.8339
7890 201500.6605 8254601.7994
7891 201501.4054 8254601.7994
7892 201502.2316 8254296.8338
7893 201468.9292 8254782.7021
7894 201481.3985 8254602.0439
7895 201238.9779 8254602.0438
7896 201468.9292 8254433.4279
7897 201332.9507 8254794.4367
7898 201332.9451 8254788.5449
7899 201366.1701 8254918.9022
7900 201349.555 8254918.9022
7901 201222.4676 8254808.1026
7902 201222.4676 8254798.815
7903 201222.4752 8254794.315
7904 201242.6633 8254985.7218
7905 201242.6633 8254985.2599
7906 201478.6426 8254980.4648
7907 201478.6355 8254950.9226
7908 201478.6427 8254946.9642
7909 201478.6426 8254985.7219
7910 201482.8992 8254980.4648
7911 201482.0142 8254980.4648
7912 201222.4676 8254985.7218
7913 201477.8863 8254948.4103
7914 201224.5268 8254948.4139
7915 201477.938 8254948.4103
7916 201482.8992 8254984.6419
7917 201501.4285 8254984.627
7918 201222.4676 8254946.9641
7919 201477.9359 8254944.3632
7920 201477.8863 8254848.6212
7921 201373.7406 8254918.9022
7922 201327.4589 8254918.9022
7923 201349.555 8254796.0095
7924 201349.555 8254794.4367
7925 201479.7881 8254918.9022
7926 201375.1515 8254918.9022
7927 201438.8619 8254848.6212
7928 201185.666 8254808.1026
7929 201365.3988 8254794.4367
7930 201365.3988 8254795.0926
7931 201366.609 8254795.0926
7932 200936.0135 8254948.2859
7933 200714.6981 8254948.2859
7934 200932.2039 8254772.8691
7935 200936.0135 8254772.8823
7936 200935.6015 8254667.8613
7937 200887.8455 8254667.8613
7938 200655.9908 8254885.5769
7939 200903.2458 8254918.9024
7940 200903.2458 8254900.1405
7941 200806.7546 8254918.9024
7942 200881.5081 8254819.6634
7943 200936.0135 8254819.6728
7944 200936.0135 8254900.1397
7945 200907.2458 8254900.1397
7946 200903.2858 8254900.1397
7947 201191.8863 8254948.4103
7948 201480.5824 8254984.643
7949 201224.4469 8254984.6365
7950 201193.9888 8254984.643
7951 200936.0135 8254667.8613
7952 200936.0135 8254950.6027
7953 201191.8863 8254850.6212
7954 201193.9888 8254946.3715
7955 201193.9662 8254918.9048
7956 201193.9662 8254918.9047
7957 201183.4887 8254984.314
7958 201183.4887 8254948.286
7959 201190.0062 8254918.9047
7960 201090.9529 8254918.9024
7961 201177.2257 8254850.6212
7962 201081.9715 8254918.9024
7963 201089.5421 8254918.9024
7964 201048.7418 8254794.7433
7965 201048.7418 8254789.9188
7966 201082.2366 8254794.7433
7967 201082.2335 8254793.0998
7968 201194.4438 8254637.5714
7969 200936.006 8254637.5714
7970 201028.4714 8254794.7433
7971 201028.4714 8254812.5448
7972 200979.6935 8254812.5448
7973 200994.1134 8254812.5448
7974 200998.0734 8254812.5502
7975 200979.6935 8254900.1682
7976 200939.2363 8254900.1397
7977 200943.1806 8254900.1396
7978 201295.3235 8254265.5078
7979 201296.7082 8254264.1403
7980 201294.0614 8254266.7621
7981 201131.4041 8254441.3982
7982 201131.5129 8254460.9044
7983 201194.4438 8254441.3982
7984 201194.4438 8254460.9024
7985 201194.4438 8254360.0596
7986 201320.2936 8254296.8338
7987 201401.8063 8254296.8338
7988 201362.247 8254446.4001
7989 201366.5214 8254446.4001
7990 201362.247 8254444.2676
7991 201349.555 8254444.2676
7992 201366.1702 8254569.6578
7993 201349.555 8254569.6578
7994 201332.9624 8254444.2676
7995 201332.9589 8254442.2231
7996 201327.459 8254569.6578
7997 201500.7316 8254296.8338
7998 200581.9208 8254957.8488
7999 200580.8163 8254958.8885
8000 201499.2318 8254296.8337
8001 201220.6962 8255294.0694
8002 200935.1746 8254984.7884
8003 200937.4381 8255196.9568
8004 200967.7977 8255196.9568
8005 200662.357 8255194.6867
8006 200592.8319 8254961.8701
8007 204902.3475 8256498.978
8008 204899.2031 8256494.834
8009 204876.4586 8256500.6467
8010 204150.6642 8257699.3398
8011 204155.8605 8257681.2238
8012 204162.6334 8257659.2675
8013 204178.4371 8257610.2724
8014 204186.3142 8257585.6701
8015 204191.5872 8257568.0395
8016 204158.8862 8257706.1653
8017 204651.173 8259125.952
8018 204627.724 8259132.446
8019 204599.547 8259138.827
8020 204573.105 8259145.707
8021 203284.863 8257275.237
8022 203290.927 8257260.484
8023 203065.078 8257861.632
8024 203069.873 8257842.752
8025 203076.862 8257822.472
8026 203084.731 8257801.992
8027 203089.626 8257787.865
8028 203097.13 8257768.531
8029 203102.922 8257733.381
8030 203075.93 8257723.227
8031 203164.994 8257486.824
8032 203164.9427 8257900.4716
8033 203130.2627 8257887.412
8034 203080.014 8257866.845
8035 203052.879 8257857.792
8036 202914.6645 8257806.1188
8037 203765.0534 8257899.303
8038 203724.3651 8258008.3763
8039 203731.5365 8257989.8466
8040 203681.696 8257883.247
8041 203675.461 8257901.972
8042 203669.413 8257920.963
8043 203665.435 8257937.326
8044 203647.597 8257981.657
8045 203625.475 8258037.206
8046 203721.843 8257892.721
8047 203715.401 8257911.31
8048 203710.726 8257927.089
8049 203692.716 8257972.969
8050 203685.539 8257992.212
8051 203676.502 8258014.375
8052 203670.724 8258030.405
8053 203662.561 8258049.419
8054 203654.918 8258068.377
8055 203759.845 8257914.1474
8056 203753.4603 8257931.7917
8057 203747.5442 8257950.7595
8058 203739.6767 8257969.9494
8059 203731.5414 8257989.8346
8060 203716.6943 8258028.33
8061 203708.5334 8258048.0384
8062 203702.2904 8258064.5694
8063 203693.64 8258086.042
8064 203685.953 8258104.046
8065 203668.817 8258097.009
8066 203712.709 8258113.286
8067 203728.976 8258120.321
8068 203729.88 8258118.131
8069 203742.9122 8258086.3071
8070 203744.7205 8258087.0462
8071 203766.1387 8258095.7999
8072 203786.0041 8258103.182
8073 203805.0756 8258110.6455
8074 203827.918 8258119.2719
8075 203840.8551 8258124.3381
8076 203859.3722 8258131.4199
8077 203879.6461 8258139.4397
8078 203899.2578 8258146.8727
8079 203906.878 8258150.1587
8080 203922.0329 8258136.9051
8081 203937.5726 8258120.9289
8082 203927.4706 8258116.6744
8083 203906.6204 8258108.298
8084 203886.5376 8258100.5136
8085 203867.4745 8258093.2474
8086 203867.4735 8258093.2471
8087 203848.1441 8258086.1248
8088 203841.4425 8258083.6156
8089 203832.9188 8258107.186
8090 203893.5135 8258164.8015
8091 203877.461 8258177.94
8092 203859.529 8258170.47
8093 203839.98 8258163.136
8094 203821.24 8258156.008
8095 203803.749 8258149.261
8096 203784.41 8258141.666
8097 203761.285 8258132.659
8098 203592.379 8258066.193
8099 203587.3837 8258064.2685
8100 202398.8405 8254219.069
8101 202398.751 8254219.748
8102 202398.121 8254219.635
8103 202396.5827 8254220.0222
8104 202436.517 8254220.1386
8105 202412.74 8254220.221
8106 201884.8969 8255709.989
8107 201884.3135 8255711.686
8108 201883.4208 8255714.3114
8109 201899.438 8255710.739
8110 201895.5611 8255683.046
8111 201901.0172 8255704.771
8112 201907.7578 8255708.1314
8113 202064.7807 8256539.723
8114 202293.5907 8255956.4478
8115 202294.146 8255956.629
8116 202294.593 8255956.77
8117 202298.784 8255958.661
8118 201776.516 8253815.526
8119 201859.09 8253734.165
8120 201910.025 8253733.187
8121 201909.246 8253733.92
8122 201907.926 8253732.301
8123 201908.208 8253731.948
8124 201908.313 8253731.306
8125 201899.161 8253727.394
8126 201902.808 8253727.737
8127 201905.051 8253727.942
8128 201905.356 8253728.106
8129 201881.2217 8253741.8831
8130 201880.0645 8253740.7593
8131 201879.4376 8253739.9963
8132 201876.8411 8253736.5359
8133 201878.6495 8253735.2019
8134 201882.0306 8253731.9872
8135 201878.7461 8253726.704
8136 201881.9842 8253730.2121
8137 201883.997 8253730.6053
8138 201884.4467 8253732.9823
8139 201884.0403 8253732.4164
8140 201894.076 8253721.996
8141 201894.727 8253722.767
8142 201898.557 8253726.748
8143 202888.854 8257323.416
8144 202891.488 8257316.119
8145 202892.502 8257313.486
8146 202897.092 8257302.175
8147 202543.547 8257114.105
8148 202922.658 8257286.514
8149 202543.812 8257113.603
8150 202913.887 8257285.073
8151 202913.764 8257286.081
8152 202913.5724 8257286.6895
8153 202914.004 8257284.792
8154 201972.79 8256891.02
8155 201954.728 8256883.077
8156 202249.736 8256998.65
8157 202211.163 8256983.912
8158 202036.29 8256914.825
8159 202035.46 8256916.82
8160 202036.487 8256914.456
8161 203171.2082 8257653.4423
8162 203210.3704 8257685.2984
8165 202146.189 8254691.64
8166 202146.652 8254691.722
8167 201934.642 8255651.897
8168 202081.752 8255104.9775
8169 202153.3805 8254635.3295
8170 202155.063 8254678.03
8171 202153.779 8254677.959
8172 202148.7455 8254677.365
8173 202143.712 8254676.771
8174 202190.023 8254029.204
8175 202196.5345 8254029.258
8176 202176.869 8254041.0835
8177 202183.7125 8254334.804
8178 202184.057 8254334.811
8179 204246.036 8257569.453
8180 204243.285 8257559.753
8181 204237.203 8257542.539
8182 204210.399 8257473.093
8183 201887.7444 8255682.738
8184 201893.4702 8255685.562
8185 202014.3455 8255690.0722
8186 202007.428 8255687.026
8187 202189.1295 8254657.1725
8188 202190.783 8254660.764
8189 202192.6415 8254663.6775
8190 202194.5 8254666.591
8191 202196.5585 8254667.776
8192 202198.617 8254668.961
8193 202202.0165 8254669.2715
8194 202205.416 8254669.582
8195 202221.753 8254664.8755
8196 202205.594 8254669.991
8197 202221.029 8254693.444
8198 202226.787 8254694.566
8199 202220.1075 8254700.1925
8200 202219.186 8254706.941
8201 202112.9177 8255112.6931
8202 202381.84 8254498.229
8203 202385.887 8254498.067
8204 202389.648 8254498.09
8205 202393.409 8254498.113
8206 202399.9519 8254219.7814
8207 202313.4785 8255147.623
8208 202314.132 8255143.129
8209 202348.685 8255015.7855
8210 202357.485 8254937.142
8211 202393.905 8254710.623
8212 202395.122 8254574.565
8213 202396.167 8254566.406
8214 202398.128 8254223.218
8215 202406.4275 8254220.006
8216 202400.115 8254219.791
8218 200616.8592 8252916.0096
8219 200620.477 8252928.167
8220 200569.725 8252632.119
8221 200575.142 8252636.184
8222 200575.636 8252636.689
8223 200576.154 8252636.777
8224 202192.71 8254691.002
8225 200571.237 8252643.601
8226 200569.545 8252649.539
8227 200621.8519 8252912.0446
8228 200743.268 8253285.118
8229 202121.511 8253131.192
8230 201925.813 8253473.975
8231 201930.62 8253466.718
8232 202362.577 8253498.17
8233 202438.22 8253477.164
8234 203609.4947 8257368.1707
8235 203612.9108 8257368.6537
8236 203620.3006 8257370.9923
8237 203634.68 8257377.1543
8238 203647.131 8257383.1057
8239 203004.547 8257380.332
8240 202997.729 8257398.544
8241 202989.771 8257420.025
8242 202984.366 8257433.739
8243 202978.395 8257449.201
8244 202973.061 8257466.089
8245 202975.912 8257467.5
8246 202988.487 8257471.175
8247 203006.182 8257476.321
8248 202983.856 8257418.231
8249 202963.036 8257411.22
8250 202942.373 8257405.589
8251 202911.111 8257396.845
8252 202887.941 8257389.886
8253 202864.582 8257384.115
8254 202863.946 8257386.207
8255 202853.255 8257414.153
8256 202843.529 8257438.485
8257 202837.551 8257455.317
8258 202850.794 8257459.524
8259 202876.19 8257467.117
8260 202896.114 8257473.405
8261 202909.399 8257477.01
8262 202929.895 8257487.511
8263 202929.192 8257514.587
8264 202873.32 8257475.163
8265 202866.977 8257491.615
8266 202857.571 8257515.218
8267 202850.015 8257534.811
8268 202842.864 8257552.564
8269 202831.47 8257470.094
8270 202821.719 8257495.26
8271 202815.047 8257512.585
8272 202807.593 8257531.124
8273 202800.721 8257549.578
8274 202798.747 8257554.708
8275 203129.138 8257440.781
8276 203134.961 8257426.097
8277 203139.152 8257414.738
8278 203142.945 8257405.579
8279 203104.225 8257396.068
8280 203098.9 8257408.101
8281 203082.876 8257205.146
8282 203074.122 8257226.467
8283 203066.466 8257244.808
8284 203057.003 8257267.311
8285 203049.466 8257286.221
8286 203039.905 8257308.832
8287 203033.134 8257325.867
8288 202937.192 8257592.62
8289 202939.382 8257584.419
8290 202945.616 8257567.839
8291 202953.29 8257548.077
8292 202957.106 8257537.078
8293 202957.937 8257534.621
8294 202770.578 8257630.435
8295 202763.075 8257649.21
8296 202759.758 8257658.818
8297 203166.735 8256214.881
8298 202043.2685 8253265.9515
8299 202812.059 8257558.312
8300 202833.863 8257564.592
8301 202955.943 8257597.717
8302 202972.265 8257602.425
8303 202990.285 8257608.226
8304 203127.076 8257459.653
8305 203087.9504 8257207.1109
8306 201912.533 8253497.5195
8307 201913.364 8253498.13
8308 200353.9385 8255605.5264
8309 200353.8342 8255605.5491
8310 204767.2163 8259508.1293
8311 204771.9158 8259477.4998
8312 204774.0885 8259457.1945
8313 202292.522 8255956.099
8314 202293.682 8255953.015
8315 202293.852 8255959.67
8316 202292.656 8255959.212
8317 202294.367 8255968.942
8318 202295.5151 8255965.4654
8319 202291.728 8255968.332
8320 202293.0373 8255964.4915
8359 201712.3326 8255568.6448
8360 201695.1533 8253864.6697
8361 202193.4171 8253977.509
8362 202191.135 8254003.396
8363 201692.7668 8253861.7387
8364 201900.12 8253728.449
8365 201901.029 8253729.379
8366 202187.734 8254018.29
8367 205401.8489 8254715.992
8368 205399.0497 8254711.73
8369 205394.4586 8254704.282
8370 205391.0133 8254698.561
8371 200567.7021 8252622.4802
8374 200256.173 8252410.9886
8375 202185.181 8254667.8124
8376 202198.63 8254669.607
8377 202201.1955 8254669.763
8378 202203.761 8254669.919
8379 202205.301 8254669.959
8380 202206.545 8254670.095
8381 201069.0496 8252486.0254
8383 201887.7962 8255618.9401
8384 201883.9662 8255617.4401
8385 201885.0777 8255625.8337
8386 201700.9973 8255546.0551
8387 201697.3205 8255544.5795
8388 202224.877 8254671.8285
8389 201897.428 8253681.334
8390 201905.78 8253689.482
8391 201913.667 8253498.339
8392 201913.97 8253498.548
8393 201996.1629 8253565.8458
8394 202009.7595 8253554.0742
8395 202010.9078 8253552.3737
8396 204155.6023 8257767.8583
8397 204156.463 8257768.126
8398 204159.214 8257769.168
8399 202047.226 8256921.021
8400 202082.263 8256929.475
8401 202082.6329 8256929.6275
8402 201949.993 8256887.121
8403 201951.595 8256882.592
8404 201956.929 8256867.315
8405 201964.151 8256849.311
8406 201971.455 8256828.03
8407 201977.095 8256813.868
8408 201990.262 8256777.285
8409 202001.535 8256747.167
8410 202007.235 8256731.967
8411 202013.397 8256712.961
8412 202021.1555 8256691.6411
8413 202030.8927 8256661.6138
8414 202037.9046 8256641.1811
8415 202080.298 8256939.783
8416 202078.558 8256938.957
8417 202077.411 8256938.596
8418 202075.727 8256937.823
8419 202924.322 8257333.104
8420 203038.261 8257364.508
8421 203017.279 8257358.852
8422 203055.6109 8257363.336
8423 203051.428 8257374.759
8424 204162.56 8257790.822
8425 204157.9638 8257798.0599
8426 203189.4059 8257700.053
8427 202917.247 8257276.262
8428 202916.427 8257278.541
8429 202911.159 8257289.501
8430 202913.5974 8257290.4672
8431 202915.2845 8257291.07
8432 202916.967 8257291.671
8433 202918.814 8257292.25
8434 204120.87 8257222.159
8435 204127.972 8257238.933
8436 204112.272 8257193.116
8437 203849.6821 8256566.7661
8438 203665.1771 8256926.3551
8439 202047.5912 8253737.6981
8440 202046.6171 8253662.1287
8441 202044.0672 8253606.6386
8442 201950.4315 8255663.8877
8443 201948.4938 8255663.1011
8444 202289.096 8255147.052
8445 202900.9044 8257292.3363
8446 202901.6884 8257290.3942
8447 202884.278 8257334.932
8448 202877.785 8257351.028
8449 202869.588 8257371.686
8450 202902.945 8257259.686
8451 202899.115 8257326.139
8452 202889.167 8257323.396
8453 202838.885 8257455.935
8454 204034.309 8257024.921
8455 204056.5967 8257016.6441
8456 204040.6542 8256976.6972
8457 204039.5966 8256973.7832
8458 204035.3025 8256963.6565
8459 204034.4455 8256963.9314
8460 203998.2901 8256882.6843
8461 203981.047 8256858.1348
8462 203944.1646 8256770.1497
8463 203937.1481 8256772.2761
8464 203846.8801 8256577.5091
8465 203817.461 8256505.757
8466 203808.724 8256480.622
8467 203803.594 8256463.193
8468 203791.155 8256437.475
8469 203764.9725 8256428.1951
8470 203743.9151 8256420.7525
8471 203743.5461 8256421.6819
8472 203711.4425 8256408.1351
8473 203692.9445 8256401.1371
8474 203674.3135 8256393.4311
8475 203651.5955 8256384.9291
8476 203626.3865 8256375.0061
8477 203603.4185 8256366.2211
8478 203590.4885 8256360.0051
8479 203577.3625 8256352.3071
8480 203568.4095 8256345.7101
8481 203556.5935 8256340.6911
8482 203538.6285 8256333.7121
8483 203515.1485 8256325.3141
8484 203501.1223 8256319.9968
8485 203493.4685 8256317.0951
8486 203469.9375 8256307.8831
8487 203445.6425 8256298.2701
8488 203424.8005 8256290.5251
8489 203398.7105 8256280.7851
8490 203378.8095 8256273.0561
8491 203356.1375 8256264.7221
8492 203327.7985 8256254.2701
8493 203302.6465 8256244.7151
8494 203278.3885 8256235.3171
8495 203257.6865 8256227.3491
8496 203236.2775 8256218.7501
8497 203218.4665 8256212.3301
8498 203191.9695 8256201.3871
8499 203174.7805 8256192.3991
8500 203157.7545 8256187.0651
8501 203154.365 8256185.167
8502 203134.404 8256177.827
8503 203109.252 8256168.183
8504 202966.967 8256114.31
8505 202966.2769 8256116.1679
8506 202964.8189 8256119.2619
8507 202960.4489 8256130.9489
8508 202953.2519 8256150.7619
8509 202945.6999 8256170.4809
8510 202937.0089 8256192.6259
8511 202927.3929 8256218.1809
8512 202916.6419 8256246.4229
8513 202906.4369 8256273.1799
8514 202902.7 8256281.977
8515 202865.0649 8256266.9579
8516 202837.9249 8256256.5819
8517 202816.3989 8256248.2479
8518 202780.6069 8256234.4769
8519 202747.4379 8256221.8999
8520 202709.2969 8256207.5339
8521 202669.1419 8256192.0319
8522 202641.9159 8256181.6659
8523 202603.8829 8256166.9119
8524 202576.1439 8256156.3529
8525 202546.2909 8256144.9299
8526 202514.9099 8256133.0489
8527 202478.9999 8256119.4639
8528 202449.4799 8256107.8279
8529 202416.5709 8256095.1569
8530 202392.1549 8256085.8369
8531 202363.9799 8256075.0949
8532 202341.9359 8256066.7819
8533 202274.9921 8256043.2701
8534 202248.2171 8256073.3291
8535 202243.491 8256086.052
8536 202213.6035 8256162.1191
8537 202189.7455 8256152.6531
8538 202174.3375 8256146.5601
8539 202117.4348 8256123.7646
8540 202140.3395 8255905.6431
8541 202135.5105 8255884.7001
8542 202131.8935 8255870.0431
8543 202120.8395 8255845.1321
8544 202110.8595 8255821.3421
8545 202105.2855 8255811.5181
8546 202102.2235 8255808.2041
8547 202092.0215 8255799.5881
8548 202079.7855 8255791.9551
8549 202060.2445 8255784.2621
8550 202047.2575 8255778.6721
8551 202018.4795 8255766.2721
8552 202008.1266 8255762.2322
8553 203973.99 8256860.889
8554 204038.469 8256971.0032
8555 204029.939 8257026.193
8556 204029.5226 8257025.007
8557 202909.1519 8256284.5469
8558 202888.6899 8256276.6389
8559 202864.8359 8256267.5839
8560 202837.5929 8256257.1279
8561 202816.1709 8256248.7579
8562 202780.2599 8256235.2259
8563 202747.1189 8256222.4459
8564 202709.0429 8256208.0929
8565 202668.9259 8256192.7039
8566 202641.6689 8256182.2919
8567 202603.5319 8256167.4769
8568 202575.9599 8256156.9569
8569 202545.9119 8256145.5239
8570 202514.7699 8256133.7859
8571 202478.7859 8256119.8949
8572 202449.2249 8256108.4949
8573 202416.3199 8256095.7999
8574 202391.7089 8256086.5449
8575 202363.7269 8256075.7559
8576 202341.6859 8256067.4639
8577 202318.262 8256058.653
8578 202298.298 8256052.183
8579 202275.0471 8256043.9481
8580 202258.7561 8256046.8271
8581 202248.2701 8256042.6971
8582 203152.7945 8256377.3514
8583 203139.2906 8256372.1985
8584 203115.1479 8256362.9859
8585 203087.8239 8256352.6089
8586 203052.0289 8256338.8969
8587 203020.2979 8256326.8449
8588 202980.4779 8256311.4939
8589 202951.5209 8256300.7749
8590 202250.3821 8256036.2901
8591 202250.9891 8256034.2991
8592 202249.9831 8256037.7921
8593 204020.8159 8256961.7624
8594 204023.0089 8256967.0049
8595 204032.4759 8256988.6549
8596 204042.3109 8257011.8729
8597 204053.2009 8257038.0589
8598 204062.9419 8257061.9499
8599 204076.1429 8257093.5639
8600 204085.0579 8257115.6239
8601 204094.0989 8257138.1249
8602 204098.7889 8257148.9819
8603 204104.9979 8257159.2279
8604 204109.7029 8257165.2919
8605 204116.9409 8257174.5139
8606 204120.7959 8257177.9599
8607 204129.2346 8257187.2056
8608 204112.945 8257196.957
8609 204098.8431 8257224.4061
8610 204097.9241 8257224.9141
8611 204081.2011 8257232.7451
8612 204041.7131 8257247.6851
8613 204033.0821 8257245.9301
8614 204018.4541 8257240.2721
8615 203999.2951 8257233.5851
8616 203978.5211 8257226.1211
8617 203960.0731 8257219.1961
8618 203942.8451 8257212.3511
8619 203926.2591 8257205.5051
8620 203905.2871 8257196.3931
8621 203887.6241 8257189.0941
8622 203870.2871 8257181.7811
8623 203853.3971 8257174.4641
8624 203837.5311 8257167.7691
8625 203820.4211 8257160.7121
8626 203803.4751 8257153.9001
8627 203786.1911 8257147.1151
8628 203767.0881 8257140.4371
8629 203746.7871 8257133.9411
8630 203728.7381 8257128.4651
8631 203709.1821 8257122.6591
8632 203692.2311 8257116.6131
8633 203672.5831 8257109.4761
8634 203654.9411 8257102.8931
8635 203634.4711 8257094.2881
8636 203616.8021 8257086.0831
8637 203591.5491 8257076.9301
8638 203589.9781 8257082.8031
8639 203590.1359 8257083.4546
8640 204062.5751 8257240.0461
8641 204052.0941 8257245.1191
8642 204119.5 8257214.728
8643 203264.3573 8256983.6524
8644 203264.745 8256982.606
8645 203269.627 8256983.773
8646 203279.061 8256962.655
8647 203428.882 8257020.534
8648 203437.876 8257024.048
8649 203440.681 8257015.357
8650 203492.25 8257035.499
8651 203521.118 8257046.932
8652 203550.354 8257058.875
8653 203576.8801 8257069.8621
8654 203651.1511 8256982.8231
8655 203670.6721 8256988.8791
8656 203691.7831 8256995.0421
8657 203706.3581 8256999.3041
8658 203724.9671 8257004.4811
8659 203743.1241 8257009.5181
8660 203760.8001 8257014.4851
8661 203778.5551 8257019.3601
8662 203797.0311 8257024.6341
8663 203814.9061 8257029.4911
8664 203831.5891 8257034.3841
8665 203850.9031 8257040.1561
8666 203871.1701 8257046.1731
8667 203891.5931 8257052.0831
8668 203909.0321 8257057.3351
8669 203928.2171 8257063.2141
8670 203947.5141 8257068.3021
8671 203966.2631 8257074.5241
8672 203984.8981 8257080.0461
8673 204004.3911 8257086.0321
8674 204023.5991 8257091.9751
8675 204043.0421 8257097.8261
8676 202508.2259 8256333.5369
8677 202509.4279 8256328.8989
8678 202519.9619 8256302.5249
8679 202535.4699 8256262.3179
8680 202548.2169 8256229.3179
8681 202560.5129 8256197.1219
8682 202567.7479 8256177.0209
8683 202569.9667 8256177.8296
8684 202508.8984 8256334.8095
8685 204065.642 8257103.33
8686 204093.8631 8257174.4721
8687 204101.2331 8257192.0961
8688 204092.7971 8257192.6291
8689 204096.666 8257209.938
8690 204084.1511 8257217.3761
8691 203954.9608 8257495.9553
8692 203950.6906 8257494.3193
8693 203140.81 8257549.347
8694 203137.971 8257548.514
8695 203142.0325 8257535.1381
8696 203150.2375 8257516.5731
8697 203157.9655 8257498.6641
8698 203170.2535 8257465.7751
8699 203178.9425 8257444.2311
8700 203188.3935 8257420.5331
8701 203193.2355 8257407.1791
8702 203196.3885 8257397.1231
8703 203198.0226 8257392.32
8704 203253.5469 8257238.8534
8705 203258.6573 8257239.7213
8706 203253.161 8257240.2797
8707 203261.7475 8257242.1652
8708 203279.4705 8257245.8081
8709 203295.1075 8257250.0031
8710 203200.793 8257383.074
8711 203205.276 8257384.596
8712 203638.3385 8257354.9921
8713 203647.6427 8257338.8967
8714 203661.8593 8257344.2646
8715 203710.6157 8257361.0479
8716 203762.8894 8257381.0812
8717 203825.8334 8257405.5755
8718 203908.5904 8257437.6351
8719 203948.956 8257453.2622
8720 203664.9033 8257291.918
8721 203678.8386 8257255.7985
8722 203671.8805 8257273.9841
8723 203693.7728 8257216.409
8724 203709.0638 8257173.545
8725 203701.3285 8257196.3561
8726 204110.466 8257219.102
8727 204124.4019 8257253.5319
8728 204132.4529 8257272.8069
8729 204141.8439 8257297.6349
8730 204150.6189 8257320.0639
8731 204159.4449 8257342.9149
8732 204170.8129 8257371.8249
8733 204181.2059 8257398.0649
8734 204190.4119 8257421.2989
8735 204198.7489 8257442.7049
8736 204210.4619 8257473.1729
8737 204217.4509 8257492.2779
8738 204229.6329 8257525.1439
8739 204239.0029 8257549.7549
8740 204243.3429 8257559.8319
8741 204246.0879 8257569.4279
8742 204246.3649 8257582.4669
8743 204244.5529 8257597.4699
8744 204240.5699 8257613.3559
8745 204236.6219 8257625.0569
8746 204230.8719 8257639.9369
8747 204217.7079 8257670.2269
8748 204206.8059 8257694.2929
8749 204199.5129 8257710.7379
8750 204186.8939 8257740.5579
8751 204174.8159 8257768.6149
8752 204160.4884 8257770.6439
8753 204159.5433 8257770.317
8754 204162.561 8257765.152
8755 204162.7644 8257764.6873
8756 201854.727 8255671.59
8757 201863.702 8255674.968
8758 201878.8413 8255680.2979
8759 201818.289 8255659.256
8760 201779.145 8255645.312
8761 201740.209 8255630.227
8762 201692.275 8255611.696
8763 201653.649 8255596.416
8764 201630.459 8255587.139
8765 201608.397 8255578.522
8766 201607.21 8255578.142
8767 201603.405 8255576.513
8768 201608.415 8255562.603
8769 201611.75 8255552.668
8770 201615.555 8255542.762
8771 201613.741 8255528.072
8772 201610.623 8255521.758
8773 201605.479 8255511.269
8774 201601.947 8255505.05
8775 201598.58 8255498.535
8776 201597.696 8255489.216
8777 201596.701 8255478.706
8778 201596.769 8255477.447
8779 201596.79 8255476.804
8780 201596.952 8255467.358
8787 198742.1178 8255920.1639
8788 198742.118 8255920.1639
8789 198751.284 8255920.704
8790 198760.634 8255922.044
8791 198775.128 8255921.295
8792 198782.086 8255920.821
8793 198797.042 8255919.853
8794 198805.095 8255919.06
8795 198820.732 8255917.832
8796 198836.162 8255916.3391
8797 198851.5046 8255914.1208
8798 198866.7256 8255911.182
8799 198881.7911 8255907.5292
8800 198896.6679 8255903.1706
8801 198911.3227 8255898.1158
8802 200928.604 8255521.289
8803 200918.5364 8255522.7643
8804 200909.177 8255523.878
8805 200884.982 8255527.032
8806 200866.27 8255528.676
8807 200847.163 8255531.583
8808 200827.463 8255534.574
8809 200808.229 8255537.134
8810 200787.492 8255539.822
8811 200760.412 8255543.019
8812 200728.923 8255547.728
8813 200683.604 8255554.381
8814 200663.174 8255557.976
8815 200644.55 8255560.065
8816 200622.738 8255563.191
8817 200599.151 8255567.446
8818 200577.061 8255571.323
8819 200558.073 8255574.506
8820 200536.31 8255577.764
8821 201056.314 8255500.852
8822 201034.465 8255503.92
8823 201011.674 8255506.877
8824 200971.173 8255514.055
8825 200949.876 8255518.135
8826 202122.1304 8256110.149
8827 202098.1331 8256939.1913
8828 202108.1529 8256913.9579
8829 202118.6649 8256887.2309
8830 202129.7549 8256858.6309
8831 202133.7679 8256848.0439
8832 202136.2999 8256840.3479
8833 202140.8949 8256828.7139
8834 202147.7399 8256811.4009
8835 202154.7269 8256794.8659
8836 202165.5979 8256765.5189
8837 202177.8189 8256733.4949
8838 202190.5899 8256700.3139
8839 202206.0279 8256660.1489
8840 202218.8349 8256626.7759
8841 202228.7339 8256601.0319
8842 202209.1229 8256593.3649
8843 202186.1389 8256584.5979
8844 202149.6239 8256570.2959
8845 202124.9679 8256560.8579
8846 202115.8423 8256557.496
8847 202669.1621 8256500.7978
8848 202670.2957 8256501.6456
8849 202669.2177 8256501.2063
8850 202687.8212 8256456.8081
8851 202783.882 8256596.1835
8852 202764.1168 8256641.3565
8853 202764.7664 8256640.8916
8854 202786.3977 8256591.8245
8855 202884.2421 8256738.682
8856 202882.6977 8256742.5054
8857 202880.6042 8256737.382
8858 202880.508 8256737.6845
8859 202960.1225 8256765.2821
8860 202984.7955 8256773.1801
8861 203004.8155 8256779.5191
8862 203021.0875 8256784.6941
8863 203085.048 8256599.703
8864 203090.3288 8256601.9615
8865 203126.3744 8256615.9915
8866 203164.215 8256629.3249
8867 203178.6857 8256634.2284
8868 203560.831 8256827.791
8869 203555.326 8256858.66
8870 203687.1723 8256867.2205
8871 203435.7586 8257874.4351
8872 203444.7395 8257850.4231
8873 203452.7955 8257830.0241
8874 203462.5455 8257804.9171
8875 203470.4475 8257784.4911
8876 203470.1286 8257784.7607
8877 203435.3414 8257875.1223
8878 203502.0885 8257703.6611
8879 203495.7015 8257720.5051
8880 203495.317 8257721.0333
8881 203507.8985 8257687.8291
8882 201883.2937 8255714.6816
8883 201882.8748 8255715.917
8884 203555.9503 8256813.7184
8885 203556.1629 8256815.5127
8886 203556.6098 8256819.4969
8887 204042.4991 8257264.9121
8888 201713.0073 8255625.038
8889 201691.7933 8255620.3856
8890 199646.6815 8256354.3226
8891 199700.627 8256454.402
8892 199403.217 8256007.006
8893 199310.412 8255975.975
8894 202302.5017 8256632.094
8895 202302.4385 8256632.2895
8896 202467.2162 8256695.098
8897 202467.4863 8256694.525
8898 202812.3279 8256830.613
8899 202812.3225 8256831.237
8900 202919.395 8257098.826
8901 202215.1153 8256597.2765
8902 202417.3054 8256689.0544
8903 202459.9348 8256692.902
8904 202822.6006 8256833.8138
8905 202832.7594 8256837.557
8906 205358.224 8258425.721
8907 205358.111 8258426.056
8908 205357.636 8258425.491
8909 205357.346 8258426.405
8910 205357.197 8258426.624
8911 204803.904 8258253.085
8912 204801.917 8258252.531
8913 204615.792 8258815.836
8914 204615.998 8258816.538
8915 204615.059 8258815.798
8916 204615.325 8258816.723
8917 204615.594 8258815.632
8918 204616.186 8258817.018
8919 204615.469 8258817.309
8920 204868.951 8259075.331
8921 204868.9794 8259074.9338
8922 204868.9305 8259075.6833
8923 205500.5168 8258007.667
8924 205357.868 8258425.608
8925 205357.409 8258426.691
8926 204804.376 8258251.698
8927 204776.652 8258232.575
8928 204802.724 8258237.245
8929 202044.4735 8255556.9045
8930 202399.404 8255396.812
8931 202415.725 8255355.073
8932 203498.959 8256329.873
8933 203594.426 8256335.1836
8934 203597.1092 8256328.4297
8935 201904.505 8254659.045
8936 201904.335 8254639.652
8937 204894.5546 8256488.728
8938 205806.812 8255826.198
8939 205807.137 8255827.031
8940 205807.555 8255827.843
8941 205807.94 8255826.649
8942 205808.072 8255827.182
8943 205807.71 8255826.183
8944 205807.537 8255825.888
8945 205834.17 8255841.946
8946 205851.727 8255831.763
8947 205869.854 8255820.842
8948 205886.198 8255811.387
8949 205906.028 8255799.877
8950 205922.41 8255788.481
8951 205939.505 8255777.701
8952 205956.034 8255767.501
8953 205973.468 8255756.428
8954 205990.887 8255745.182
8955 206007.448 8255734.362
8956 206024.525 8255723.356
8957 206041.996 8255712.569
8958 206059.7 8255701.637
8959 206079.063 8255689.289
8960 206096.885 8255678.186
8961 206113.803 8255667.213
8962 206131.322 8255656.165
8963 206148.901 8255645.106
8964 206165.736 8255634.308
8965 206183.598 8255623.295
8966 206200.684 8255612.524
8967 206218.151 8255601.779
8968 206235.102 8255591.358
8969 206251.898 8255580.494
8970 206264.21 8255572.524
8971 206288.515 8255557.959
8972 206305.309 8255547.479
8973 206322.692 8255536.957
8974 206339.978 8255525.993
8975 206356.253 8255516.228
8976 206373.171 8255506.226
8977 206390.752 8255496.082
8978 206409.377 8255484.99
8979 206426.4082 8255475.6424
8980 206444.3142 8255465.9894
8981 206463.3632 8255456.2414
8982 206481.8582 8255447.5664
8983 206496.4902 8255440.0864
8984 201973.3226 8254604.3516
8985 201907.171 8254661.143
8986 201896.03 8254659.963
8987 201856.6998 8255063.2021
8988 201856.7 8255063.018
8989 201896.949 8255071.094
8990 201903.406 8255069.404
8991 201903.517 8255068.15
8992 202151.764 8255119.479
8993 202157.2962 8255120.6032
8994 202165.984 8255122.237
8995 202168.491 8255122.887
8996 202094.487 8255112.8865
8997 202093.833 8255116.8864
8998 202118.955 8255121.58
8999 202168.2 8255131.613
9000 202169.628 8255124.107
9001 202185.181 8254669.217
9002 202165.701 8254667.299
9003 202166.154 8254662.526
9004 202184.803 8254663.003
9005 202173.355 8254662.896
9006 202169.147 8254662.739
9007 202156.301 8254661.325
9008 202171.589 8254662.644
9009 202589.763 8254256.028
9010 202585.136 8254227.207
9011 202596.403 8254226.022
9012 202618.121 8254222.424
9013 201796.288 8254073.098
9014 202411.445 8253488.021
9015 202377.203 8253490.876
9016 202019.511 8253284.072
9017 202015.894 8253289.354
9018 202000.7948 8253317.5167
9019 201995.3738 8253326.9597
9020 201985.0148 8253344.3707
9021 201974.3158 8253362.8487
9022 201963.7848 8253381.6627
9023 201955.6928 8253395.4157
9024 202084.4678 8253499.5667
9025 202075.2898 8253507.5747
9026 202056.6038 8253524.7687
9027 202042.3728 8253539.1377
9028 202028.1548 8253551.3257
9029 202006.6638 8253571.9597
9030 201976.5458 8253600.3027
9031 201944.6818 8253629.8667
9032 201934.6156 8253639.0772
9033 201923.677 8253649.84
9034 201893.832 8253677.706
9035 201925.9328 8253474.8847
9036 201928.1618 8253474.8437
9037 201942.1928 8253486.4837
9038 201950.9168 8253494.6827
9039 201955.3778 8253499.6577
9040 201963.3858 8253508.1767
9041 201979.6368 8253522.3857
9042 201985.8488 8253526.0767
9043 201997.0308 8253533.6087
9044 202014.9178 8253548.5867
9045 201993.9308 8253537.4927
9046 201983.1678 8253528.5547
9047 201978.2818 8253524.4387
9048 201962.4278 8253510.3499
9049 201953.3458 8253502.2747
9050 201938.6068 8253490.6507
9051 201896.664 8253680.733
9052 201897.702 8253681.831
9053 202620.0179 8254222.6725
9054 201903.585 8255072.355
9055 202414.5998 8255354.6672
9056 204023.2285 8257546.5701
9057 204027.9421 8257527.6691
9058 204033.6271 8257504.2271
9059 201193.665 8255133.5893
9060 202462.059 8252780.794
9061 202473.074 8252841.169
9062 202481.538 8252880.274
9063 202494.635 8252935.204
9064 202430.099 8252786.513
9065 202451.61 8252727.411
9066 202452.306 8252731.221
9067 202493.606 8252936.981
9068 202493.225 8252935.288
9069 202494.877 8252936.768
9070 202071.9899 8256540.5389
9071 202071.9896 8256540.5406
9072 203199.5595 8257387.8031
9073 203203.4605 8257374.8391
9074 203212.9715 8257348.8151
9075 203220.4725 8257328.5921
9076 203229.4775 8257304.2841
9077 203236.6735 8257284.9951
9078 203247.3235 8257256.1801
9079 204105.5841 8257202.9591
9080 202378.8639 8255886.0351
9081 203499.9681 8256321.9862
9082 202318.5149 8256636.967
9083 202318.9268 8256636.457
9084 202068.3902 8256525.02
9085 202099.5415 8256551.285
9086 201886.2998 8255695.113
9087 201884.847 8255694.546
9088 201897.2389 8255678.6265
9118 205404.6851 8254720.6762
9119 201949.9739 8253644.747
9120 201946.2566 8253647.885
9150 205390.0899 8254697.5171
9151 202293.707 8255962.527
9152 202059.698 8256553.473
9153 201193.6653 8255129.0893
9154 202078.9209 8256929.643
9155 202078.8751 8256929.7113
9156 202471.0095 8255191.3982
9157 201911.1118 8253192.0706
9158 201912.2326 8253192.7108
9159 201913.2827 8253193.3105
9160 201912.5077 8253192.2932
9161 203194.0077 8257697.109
9162 204321.2001 8256686.863
9163 204282.3799 8257071.6795
9164 204282.3714 8257071.698
9165 204254.85 8257132.526
9166 204249.8603 8257142.6229
9167 204248.2415 8257146.0684
9168 204114.2438 8257014.421
9169 204253.5102 8257077.73
9170 205095.5558 8258314.3468
9171 205627.3666 8257628.22
9172 204003.3721 8257493.9694
9173 203839.3892 8257827.575
9174 203824.2267 8257872.75
9175 203954.8371 8256870.4561
9176 203991.2991 8256906.4361
9177 203989.1801 8256899.2581
9178 203989.4101 8256899.1731
9179 204476.5408 8256598.2697
9180 205315.297 8257955.634
9181 205300.635 8257950.741
9182 205289.222 8257946.795
9183 205288.219 8257946.441
9184 203027.2816 8257355.027
9185 202209.6991 8256210.0861
9186 202145.4445 8256051.6291
9187 202135.2461 8256026.751
9188 202127.4924 8256003.2314
9189 202122.499 8255979.7532
9190 202121.8063 8255961.6198
9191 202127.7509 8255935.5156
9192 202291.4271 8255961.9201
9193 202290.234 8255961.3387
9194 202291.454 8255958.87
9195 202296.184 8255963.44
9196 202128.3555 8256095.1991
9197 202138.2775 8256069.4821
9198 202296.275 8255954.024
9199 202300.182 8255955.482
9200 202260.8771 8256040.7971
9201 202263.4261 8256038.9951
9202 202258.7191 8256037.1661
9203 202293.186 8255975.571
9204 202282.4097 8256003.7307
9205 202276.817 8256021.026
9206 202270.896 8256033.754
9207 202268.3161 8256039.6951
9208 202259.9071 8256060.9101
9209 202262.1621 8256037.5991
9210 202253.7971 8256059.0541
9211 204466.8821 8256555.4241
9212 202289.2681 8255960.8681
9213 202265.0401 8256021.4681
9214 202271.9091 8256004.2861
9215 202278.3971 8255988.1901
9216 202285.0301 8255971.2531
9217 204505.187 8256555.87
9218 204516.463 8256554.571
9223 202252.3001 8256030.9661
9224 201895.802 8253679.578
9225 201985.2288 8253411.7117
9226 202012.7668 8253427.7037
9227 202039.5188 8253442.7187
9228 202045.8598 8253446.5537
9229 202049.9238 8253450.0717
9230 202061.0058 8253462.4187
9231 202081.9008 8253484.5277
9232 202083.2728 8253486.5197
9233 202367.094 8252470.2848
9234 202384.0494 8252564.4689
9235 202383.0616 8252564.6246
9236 203135.6511 8257378.4919
9237 204150.681 8257766.3278
9238 202304.5328 8255953.1336
9239 204026.1087 8256960.1603
9240 204024.5337 8256960.7466
9241 202080.356 8256927.1995
9242 202079.751 8256928.312
9243 204022.9223 8256961.0722
9244 202080.872 8256938.067
9245 202076.23 8256936.215
9246 202086.25 8256927.64
9247 202084.126 8256926.725
9248 202083.166 8256931.468
9249 202083.2429 8256928.1485
9250 202084.4447 8256928.6441
9251 202071.736 8256934.746
9252 202056.536 8256928.495
9253 202045.384 8256924.148
9254 202034.519 8256919.842
9255 202018.208 8256913.656
9256 201998.182 8256905.722
9257 201982.495 8256899.73
9258 201969.736 8256894.83
9259 201954.226 8256888.919
9260 203354.967 8257637.975
9261 203358.097 8257639.183
9262 203044.7075 8257360.138
9263 203024.3198 8257354.1412
9264 204023.8629 8256966.745
9265 204021.438 8256961.899
9266 203204.3484 8257688.1672
9267 203201.3881 8257695.0941
9268 203170.9797 8257655.2723
9269 203163.9934 8257672.6307
9270 204247.7043 8257226.3061
9271 204247.8672 8257228.6793
9272 204003.4317 8257493.971
9273 204013.9803 8257495.539
9274 204022.7971 8257317.8711
9275 203633.8741 8257001.1731
9276 203970.3365 8257200.0643
9277 203952.1909 8257192.4535
9278 203934.7801 8257186.4421
9279 203910.1721 8257176.3409
9280 203740.4801 8256927.4981
9281 203761.1831 8256932.5791
9282 203780.0161 8256935.8111
9283 203801.2341 8256940.1001
9284 203820.8891 8256943.7351
9285 203840.8461 8256948.4361
9286 203860.9341 8256952.9291
9287 203882.1191 8256956.1961
9288 203904.9411 8256956.8521
9289 203925.9801 8256956.8681
9290 203946.6931 8256954.0151
9291 203967.2321 8256949.6971
9292 203987.3751 8256945.4321
9293 203635.9457 8256998.4625
9294 203636.2747 8256998.5581
9295 203931.7701 8256773.9211
9296 203928.5331 8256775.1741
9297 203917.2371 8256747.6341
9298 203893.3571 8256694.7281
9299 203876.9891 8256654.9401
9300 203861.9361 8256615.8151
9301 204077.7611 8257219.8251
9302 204048.399 8257060.52
9303 204043.6401 8257249.0671
9304 204062.7501 8257230.9041
9305 204053.3981 8257236.5801
9306 203921.2191 8256888.4041
9307 203933.3391 8256865.1361
9308 204036.3301 8257281.7871
9309 204029.3905 8257300.1781
9310 203853.7571 8256620.9491
9311 203834.2351 8256632.0391
9312 204047.2121 8257246.7671
9313 205272.6944 8258825.5028
9314 205272.5314 8258862.6926
9315 201945.2245 8255661.7739
9316 206515.7372 8255431.9054
9317 206534.8672 8255424.2654
9318 206550.0422 8255418.2674
9319 206570.3812 8255410.6114
9320 206588.4652 8255404.3944
9321 206607.78 8255397.868
9322 206627.0892 8255391.6704
9323 206647.345 8255385.761
9324 206667.212 8255380.149
9325 206687.61 8255375.403
9326 206707.971 8255370.718
9327 206727.6592 8255366.7234
9328 206747.609 8255363.05
9329 206767.668 8255360.1362
9330 206784.301 8255357.3602
9331 206805.575 8255354.2432
9332 206820.278 8255353.0062
9333 206840.885 8255351.6762
9334 206860.655 8255350.8582
9335 206879.707 8255349.7772
9336 206897.447 8255349.1502
9337 206917.608 8255349.1942
9338 206937.5 8255349.5772
9339 206957.211 8255350.2512
9340 206978.283 8255351.1562
9341 206998.221 8255352.6962
9342 207018.126 8255353.8902
9343 207037.505 8255356.5422
9344 207056.691 8255359.2162
9345 207076.091 8255362.0332
9346 207095.866 8255364.7362
9347 207115.613 8255368.0602
9348 207134.651 8255371.886
9349 207153.662 8255374.958
9350 207173.539 8255379.396
9351 207193.104 8255384.967
9352 207216.719 8255392.407
9353 207237.654 8255398.885
9354 207262.03 8255407.746
9355 207281.248 8255415.872
9356 207296.3768 8255422.562
9357 207299.6463 8255424.255
9358 207313.5226 8255428.95
9359 207325.2928 8255433.143
9360 206766.7332 8255353.9894
9361 207299.994 8255423.553
9362 207324.3518 8255435.497
9363 207325.8151 8255436.166
9364 207452.9316 8255503.742
9365 207469.9608 8255514.99
9366 207492.5847 8255529.704
9367 207522.8955 8255551.138
9368 207542.9932 8255567.449
9369 207564.5752 8255584.238
9370 207588.833 8255599.8
9371 207607.4071 8255617.667
9372 207625.5813 8255635.798
9373 207648.9534 8255650.532
9374 207668.0043 8255663.97
9375 207687.2127 8255678.903
9376 207706.9978 8255693.39
9377 207731.4014 8255712.484
9378 207751.5388 8255725.84
9379 207767.8985 8255735.225
9380 207789.0726 8255752.06
9381 207805.1733 8255763.686
9382 207840.1793 8255788.509
9383 207850.601 8255795.528
9384 207326.0289 8255436.176
9385 207344.1537 8255444.231
9386 207367.6793 8255457.14
9387 207388.7459 8255467.973
9388 207418.3752 8255482.658
9389 207432.787 8255491.334
9390 208032.938 8255930.112
9391 208031.778 8255932.019
9392 208033.374 8255929.47
9393 208160.674 8256028.227
9394 208175.089 8256037.831
9395 208191.371 8256049.198
9396 208207.84 8256061.467
9397 208224.292 8256074.872
9398 208239.02 8256086.771
9399 208257.852 8256099.726
9400 208271.713 8256108.949
9401 208287.352 8256120.407
9402 208303.934 8256131.04
9403 208319.769 8256142.727
9404 208335.36 8256154.886
9405 208350.83 8256166.038
9406 208366.343 8256177.026
9407 208382.187 8256189.712
9408 208405.691 8256208.296
9409 208421.977 8256220.144
9410 208436.852 8256231.259
9411 208452.831 8256243.765
9412 208470.747 8256257.212
9413 208486.897 8256269.159
9414 208515.96 8256289.692
9415 208546.949 8256314.383
9416 209014.398 8256658.136
9417 209016.585 8256659.547
9418 209025.619 8256665.329
9419 209035.596 8256671.998
9420 209014.246 8256658.028
9421 209014.006 8256657.927
9422 208946.069 8256607.685
9423 208962.092 8256618.159
9424 208977.165 8256629.603
9425 208995.864 8256644.811
9426 209011.908 8256656.588
9427 208764.88 8256482.47
9428 208830.861 8256529.983
9429 208688.536 8256427.113
9430 208720.92 8256448.017
9431 208739.271 8256463.61
9432 208756.278 8256476.783
9433 208621.64 8256373.416
9434 208059.615 8255950.387
9435 208038.316 8255932.68
9436 209043.586 8256643.433
9437 209047.0053 8256632.5308
9438 209058.1332 8256588.9815
9439 209070.8437 8256552.5375
9440 209038.54 8256662.028
9441 207854.9375 8255798.338
9442 207874.972 8255811.354
9443 207875.9459 8255812.0145
9444 207884.398 8255817.747
9445 207893.903 8255823.994
9446 207909.336 8255837.336
9447 207925.355 8255850.15
9448 207941.355 8255862.347
9449 207957.127 8255874.802
9450 207972.146 8255886.942
9451 207985.948 8255897.867
9452 208000.344 8255908.194
9453 208019.71 8255919.81
9454 207300.2154 8255423.084
9455 207850.9355 8255795.775
9456 207850.8099 8255795.697
9457 207324.8566 8255434.002

[EMITTERS]

[PATTERNS]

[CURVES]

[STATUS]

[CONTROLS]

[MIXING]

[SOURCES]

[QUALITY]

[REACTIONS]

[ENERGY]

[TIMES]
DURATION 24.000000 Hours
HYDRAULIC TIMESTEP 1.000000 Hours
QUALITY TIMESTEP 0.100000 Hours
PATTERN TIMESTEP 1.000000 Hours
REPORT TIMESTEP 1.000000 Hours
REPORT START 0.000000 Hours
Rule Timestep 0.100000 Hours
Pattern Start 0.000000 Hours

[OPTIONS]
 Units               LPS
 Headloss            H-W
 Specific Gravity    1.000000
 Viscosity           1.000000
 Trials              40.000000
 Accuracy            0.001000
 CHECKFREQ           10
 MAXCHECK            10
 DAMPLIMIT           0.000000
 Unbalanced          Continue 10
 Pattern             Consumo
 Demand Multiplier   1.000000
 Emitter Exponent    0.500000
 Quality             NONE mg/L
 Diffusivity         1.000000
 Tolerance           0.010000

[REPORT]
Summary  No
Message  No
