[JUNCTIONS]
0 1253.79 0.00
1 1253.38 0.00
3 1252.95 0.00
5 1252.55 0.00
6 1252.55 0.00
7 1252.98 0.00
9 1252.98 0.00
11 1253.10 0.00
13 1253.10 0.00
14 1245.67 0.00
15 1246.06 0.00
17 1246.61 0.00
19 1247.20 0.00
21 1247.58 0.00
23 1248.14 0.00
25 1248.35 0.00
26 1250.75 0.00
27 1250.87 0.00
29 1251.30 0.00
31 1251.71 0.00
33 1251.99 0.00
35 1252.27 0.00
39 1248.73 0.00
41 1249.11 0.00
43 1249.28 0.00
45 1249.67 0.00
47 1250.19 0.00
49 1250.60 0.00
52 1243.14 0.00
53 1243.50 0.00
55 1244.21 0.00
57 1244.56 0.00
59 1244.91 0.00
61 1244.91 0.00
63 1245.29 0.00
66 1240.70 0.00
67 1241.05 0.00
69 1241.74 0.00
71 1241.74 0.00
73 1242.44 0.00
75 1242.79 0.00
78 1235.31 0.00
79 1235.67 0.00
81 1236.20 0.00
83 1236.58 0.00
85 1237.57 0.00
87 1237.95 0.00
89 1238.33 0.00
90 1232.18 0.00
91 1232.48 0.00
93 1233.22 0.00
95 1233.97 0.00
97 1234.72 0.00
99 1235.00 0.00
101 1235.00 0.00
103 1235.00 0.00
105 1235.00 0.00
107 1235.00 0.00
109 1235.00 0.00
111 1235.31 0.00
114 1230.00 0.00
115 1230.00 0.00
117 1230.29 0.00
119 1230.69 0.00
121 1231.43 0.00
123 1231.73 0.00
126 1229.26 0.00
127 1229.63 0.00
130 1227.15 0.00
131 1227.76 0.00
133 1228.14 0.00
135 1228.65 0.00
137 1229.02 0.00
139 1229.26 0.00
142 1224.54 0.00
143 1224.54 0.00
145 1225.19 0.00
147 1225.84 0.00
149 1226.03 0.00
151 1226.24 0.00
153 1226.41 0.00
155 1226.64 0.00
158 1222.14 0.00
159 1222.14 0.00
161 1222.14 0.00
163 1222.63 0.00
165 1223.01 0.00
167 1223.65 0.00
169 1224.03 0.00
172 1214.03 0.00
173 1213.37 0.00
175 1212.79 0.00
177 1212.37 0.00
179 1211.53 0.00
181 1210.70 0.00
182 1238.87 0.00
183 1238.87 0.00
185 1238.87 0.00
187 1238.87 0.00
189 1238.87 0.00
191 1238.87 0.00
193 1238.87 0.00
195 1238.71 0.00
196 1240.70 0.00
197 1240.70 0.00
199 1240.56 0.00
201 1240.36 0.00
203 1240.36 0.00
205 1240.36 0.00
207 1240.01 0.00
209 1240.01 0.00
211 1240.01 0.00
213 1239.63 0.00
215 1239.10 0.00
217 1238.87 0.00
219 1238.87 0.00
222 1213.80 0.00
223 1212.56 0.00
225 1211.93 0.00
227 1211.51 0.00
229 1210.92 0.00
231 1210.69 0.00
232 1238.63 0.00
233 1238.68 0.00
234 1236.04 0.00
235 1236.20 0.00
237 1236.80 0.00
239 1237.56 0.00
241 1238.32 0.00
243 1238.68 0.00
244 1238.56 0.00
245 1238.56 0.00
247 1238.79 0.00
248 1239.10 0.00
249 1238.61 0.00
251 1238.38 0.00
253 1238.25 0.00
255 1237.89 0.00
257 1237.89 0.00
259 1237.52 0.00
261 1237.52 0.00
263 1236.93 0.00
265 1236.44 0.00
267 1236.21 0.00
269 1236.08 0.00
271 1235.72 0.00
273 1235.22 0.00
274 1230.17 0.00
275 1230.17 0.00
277 1230.62 0.00
279 1231.13 0.00
281 1231.58 0.00
283 1232.02 0.00
285 1232.62 0.00
287 1233.37 0.00
288 1221.14 0.00
289 1220.77 0.00
291 1220.52 0.00
293 1220.08 0.00
295 1220.08 0.00
297 1220.00 0.00
299 1220.00 0.00
301 1220.00 0.00
303 1219.63 0.00
305 1219.63 0.00
307 1219.13 0.00
309 1218.35 0.00
311 1217.85 0.00
313 1217.85 0.00
315 1217.12 0.00
316 1227.67 0.00
317 1228.04 0.00
319 1228.04 0.00
321 1228.42 0.00
323 1228.79 0.00
325 1228.79 0.00
327 1229.16 0.00
329 1229.16 0.00
331 1229.54 0.00
333 1229.54 0.00
335 1229.91 0.00
337 1230.00 0.00
341 1239.10 0.00
343 1239.02 0.00
345 1238.93 0.00
347 1238.93 0.00
349 1238.79 0.00
353 1235.22 0.00
355 1234.79 0.00
357 1233.96 0.00
359 1233.44 0.00
361 1233.14 0.00
363 1232.32 0.00
365 1232.03 0.00
366 1229.36 0.00
367 1228.96 0.00
369 1227.09 0.00
371 1226.71 0.00
373 1226.01 0.00
375 1225.71 0.00
377 1225.71 0.00
378 1216.34 0.00
379 1216.99 0.00
381 1217.63 0.00
383 1218.31 0.00
385 1218.75 0.00
387 1219.63 0.00
389 1219.63 0.00
390 1232.15 0.00
391 1231.40 0.00
393 1230.60 0.00
395 1229.99 0.00
397 1229.99 0.00
399 1229.60 0.00
402 1232.59 0.00
403 1232.88 0.00
405 1232.88 0.00
407 1233.60 0.00
409 1234.09 0.00
411 1234.30 0.00
413 1234.44 0.00
414 1234.01 0.00
415 1234.01 0.00
417 1233.37 0.00
419 1232.63 0.00
422 1234.87 0.00
423 1234.87 0.00
425 1235.00 0.00
427 1234.44 0.00
431 1234.01 0.00
435 1217.06 0.00
437 1216.66 0.00
439 1216.81 0.00
441 1216.81 0.00
443 1216.57 0.00
445 1216.34 0.00
448 1225.28 0.00
449 1225.66 0.00
451 1225.82 0.00
453 1226.03 0.00
455 1226.54 0.00
457 1226.92 0.00
459 1227.67 0.00
461 1227.67 0.00
464 1222.50 0.00
465 1222.50 0.00
467 1222.89 0.00
469 1223.14 0.00
471 1223.52 0.00
473 1223.77 0.00
475 1223.77 0.00
477 1224.41 0.00
479 1224.41 0.00
481 1224.66 0.00
483 1225.05 0.00
485 1225.28 0.00
489 1220.00 0.00
491 1220.59 0.00
493 1220.59 0.00
495 1220.98 0.00
497 1220.98 0.00
499 1221.61 0.00
501 1222.25 0.00
505 1225.15 0.00
507 1225.15 0.00
509 1225.00 0.00
511 1224.69 0.00
513 1224.43 0.00
515 1224.04 0.00
517 1223.78 0.00
519 1223.39 0.00
521 1222.47 0.00
523 1222.08 0.00
525 1221.82 0.00
526 1216.38 0.00
527 1216.14 0.00
529 1215.72 0.00
531 1215.11 0.00
533 1214.61 0.00
535 1214.03 0.00
538 1236.83 0.00
539 1236.68 0.00
541 1236.48 0.00
543 1236.33 0.00
545 1236.13 0.00
546 1229.92 0.00
547 1229.79 0.00
549 1229.79 0.00
551 1229.62 0.00
552 1230.69 0.00
553 1230.41 0.00
555 1230.00 0.00
558 1229.13 0.00
559 1229.91 0.00
561 1230.19 0.00
563 1230.19 0.00
565 1230.71 0.00
567 1231.02 0.00
569 1231.31 0.00
571 1231.31 0.00
573 1231.82 0.00
576 1216.39 0.00
577 1216.66 0.00
579 1216.71 0.00
581 1216.49 0.00
583 1216.44 0.00
586 1224.15 0.00
587 1223.68 0.00
589 1223.47 0.00
591 1223.24 0.00
593 1223.24 0.00
595 1222.28 0.00
597 1222.05 0.00
599 1221.34 0.00
601 1221.09 0.00
603 1220.86 0.00
604 1225.78 0.00
605 1225.46 0.00
607 1225.33 0.00
609 1225.33 0.00
611 1225.00 0.00
613 1224.35 0.00
615 1224.35 0.00
617 1224.15 0.00
620 1217.87 0.00
621 1217.87 0.00
623 1218.30 0.00
625 1218.73 0.00
627 1219.39 0.00
629 1220.02 0.00
631 1220.64 0.00
633 1220.89 0.00
635 1220.89 0.00
637 1221.29 0.00
639 1221.29 0.00
641 1221.58 0.00
643 1222.24 0.00
645 1222.59 0.00
647 1223.25 0.00
649 1223.90 0.00
651 1223.90 0.00
653 1224.56 0.00
655 1224.56 0.00
657 1225.06 0.00
659 1225.26 0.00
661 1225.59 0.00
663 1225.79 0.00
665 1226.12 0.00
667 1226.12 0.00
669 1226.57 0.00
671 1227.13 0.00
673 1227.43 0.00
675 1227.63 0.00
677 1228.39 0.00
679 1228.94 0.00
681 1229.13 0.00
683 1229.27 0.00
685 1229.12 0.00
687 1229.33 0.00
689 1229.47 0.00
690 1229.47 0.00
691 1229.12 0.00
693 1229.12 0.00
695 1228.78 0.00
697 1228.43 0.00
699 1228.43 0.00
701 1228.08 0.00
703 1228.08 0.00
705 1227.73 0.00
707 1227.38 0.00
709 1227.38 0.00
711 1227.03 0.00
713 1226.72 0.00
715 1226.72 0.00
717 1226.40 0.00
719 1226.40 0.00
721 1226.09 0.00
723 1225.90 0.00
727 1216.11 0.00
729 1215.67 0.00
731 1215.24 0.00
733 1215.00 0.00
735 1214.21 0.00
739 1217.00 0.00
741 1217.00 0.00
743 1217.44 0.00
745 1217.44 0.00
749 1220.62 0.00
751 1220.14 0.00
753 1220.14 0.00
755 1219.70 0.00
757 1219.47 0.00
759 1219.03 0.00
761 1219.03 0.00
763 1218.59 0.00
765 1218.15 0.00
767 1217.71 0.00
769 1217.27 0.00
771 1216.39 0.00
774 1253.68 0.00
775 1253.68 0.00
776 1248.35 0.00
777 1248.14 0.00
779 1247.58 0.00
781 1246.99 0.00
783 1246.61 0.00
785 1246.23 0.00
787 1246.06 0.00
789 1245.67 0.00
791 1252.27 0.00
793 1251.99 0.00
795 1251.71 0.00
797 1251.15 0.00
799 1250.87 0.00
801 1250.87 0.00
803 1250.60 0.00
805 1250.19 0.00
807 1249.67 0.00
809 1249.49 0.00
811 1248.73 0.00
815 1245.08 0.00
817 1244.91 0.00
819 1244.56 0.00
821 1244.56 0.00
823 1244.56 0.00
825 1244.56 0.00
827 1244.36 0.00
829 1244.21 0.00
831 1244.21 0.00
833 1244.21 0.00
835 1244.21 0.00
837 1243.85 0.00
839 1243.85 0.00
841 1243.85 0.00
843 1243.66 0.00
845 1243.14 0.00
847 1243.14 0.00
849 1242.79 0.00
851 1242.44 0.00
853 1242.09 0.00
855 1241.74 0.00
857 1241.40 0.00
859 1241.05 0.00
863 1253.66 0.00
864 1237.57 0.00
865 1237.95 0.00
867 1238.49 0.00
869 1238.71 0.00
871 1235.00 0.00
873 1235.00 0.00
875 1235.67 0.00
877 1236.05 0.00
879 1236.43 0.00
881 1236.43 0.00
883 1236.81 0.00
885 1237.57 0.00
888 1238.43 0.00
889 1238.23 0.00
891 1238.23 0.00
893 1237.88 0.00
895 1237.53 0.00
897 1237.38 0.00
899 1237.03 0.00
901 1237.03 0.00
904 1235.06 0.00
905 1235.66 0.00
909 1231.51 0.00
911 1231.22 0.00
915 1233.37 0.00
917 1234.11 0.00
919 1234.86 0.00
921 1235.00 0.00
923 1235.00 0.00
925 1235.00 0.00
928 1226.30 0.00
929 1225.96 0.00
931 1225.33 0.00
933 1224.73 0.00
935 1223.46 0.00
937 1223.27 0.00
939 1222.21 0.00
941 1222.21 0.00
943 1222.02 0.00
945 1221.58 0.00
947 1221.58 0.00
950 1229.63 0.00
951 1229.63 0.00
953 1229.30 0.00
955 1228.64 0.00
957 1227.97 0.00
959 1226.97 0.00
961 1226.63 0.00
964 1234.67 0.00
965 1234.44 0.00
967 1234.24 0.00
969 1233.80 0.00
971 1233.57 0.00
973 1233.33 0.00
975 1232.91 0.00
977 1232.66 0.00
979 1232.23 0.00
981 1232.23 0.00
983 1231.99 0.00
985 1231.56 0.00
987 1231.31 0.00
989 1230.88 0.00
991 1230.88 0.00
993 1230.39 0.00
995 1229.97 0.00
997 1229.97 0.00
999 1229.63 0.00
1003 1236.13 0.00
1005 1235.98 0.00
1007 1235.63 0.00
1009 1235.63 0.00
1011 1235.27 0.00
1013 1235.08 0.00
1015 1234.67 0.00
1019 1238.63 0.00
1021 1238.63 0.00
1023 1238.59 0.00
1025 1238.34 0.00
1027 1238.43 0.00
1030 1238.71 0.00
1031 1238.71 0.00
1033 1238.71 0.00
1035 1239.10 0.00
1037 1239.63 0.00
1039 1240.01 0.00
1041 1240.22 0.00
1043 1240.56 0.00
1046 1221.95 0.00
1048 1238.71 0.00
1049 1238.68 0.00
1053 1238.49 0.00
1055 1238.71 0.00
1057 1238.71 0.00
1059 1238.71 0.00
1063 1210.53 0.00
1065 1253.25 0.00
1067 1253.25 0.00
1069 1253.40 0.00
1070 1221.82 0.00
1071 1221.95 0.00
1073 1221.95 0.00
1074 1238.71 0.00
1077 1238.68 0.00
1079 1238.68 0.00
1082 1229.47 0.00
1083 1230.00 0.00
1085 1227.82 0.00
1087 1227.86 0.00
1094 1221.95 0.00
1099 1238.71 0.00
1108 1260.00 0.00
1109 1260.00 0.00
1111 1260.00 0.00
1113 1260.00 0.00
1115 1260.00 0.00
1117 1260.00 0.00
1119 1260.00 0.00
1121 1260.00 0.00
1123 1260.00 0.00
1124 1260.00 0.00
1125 1259.74 0.00
1127 1258.34 0.00
1129 1257.74 0.00
1131 1256.44 0.00
1133 1256.04 0.00
1135 1255.44 0.00
1137 1255.04 0.00
1139 1254.50 0.00
1141 1254.22 0.00
1143 1253.94 0.00
1145 1253.94 0.00
1149 1253.79 0.00

[PIPES]
0 1073 1094 1.22 50 130
1 1094 1046 2.17 50 130
2 1145 1149 1.45 100 118
3 1071 1073 1.22 50 118
4 1143 863 6.5 100 118
5 1070 1071 3.7 50 118
6 1108 1109 4.37 150 118
7 1109 1111 5.45 150 118
8 1111 1113 0.89 150 118
9 1111 1115 90.66 150 118
10 1115 1117 98.79 150 118
11 1117 1119 31.86 150 118
12 1119 1121 36.51 150 118
13 1124 1125 92.99 100 118
14 1125 1127 100.01 100 118
15 1127 1129 40.62 100 118
16 1129 1131 99.95 100 118
17 1131 1133 29.23 100 118
18 1133 1135 36.07 100 118
19 1135 1137 34.7 100 118
20 1137 1139 27.18 100 118
21 1139 1141 16.23 100 118
22 1141 1143 13.27 100 118
23 1143 1145 1.55 100 118
24 1121 1123 138.97 150 118
25 1082 1083 872.37 60 137
26 1083 1085 69.0 60 137
27 1085 1087 70.67 60 137
28 690 1082 4.58 60 137
29 757 759 15.19 60 132
30 755 757 3.07 60 132
31 753 755 12.0 60 132
32 751 753 5.11 60 132
33 749 751 10.06 60 132
34 603 749 9.29 60 132
35 745 620 11.81 60 132
36 743 745 0.2 60 132
37 741 743 14.21 60 132
38 739 741 5.83 60 132
39 526 739 18.55 60 132
40 735 222 18.71 60 132
41 733 735 24.38 60 132
42 731 733 22.07 60 132
43 729 731 6.01 60 132
44 727 729 14.81 60 132
45 378 727 7.51 60 132
46 723 604 7.81 60 132
47 721 723 1.51 60 132
48 701 703 5.65 60 132
49 703 705 14.15 60 132
50 719 721 15.18 60 132
51 717 719 5.1 60 132
52 715 717 10.13 60 132
53 713 715 7.28 60 132
54 705 707 15.63 60 132
55 707 709 0.4 60 132
56 709 711 14.73 60 132
57 711 713 7.73 60 132
58 759 761 4.28 60 132
59 787 789 18.62 110 132
60 763 765 10.88 60 132
61 819 821 1.42 110 132
62 817 819 7.75 110 132
63 815 817 9.95 110 132
64 789 815 18.55 110 132
65 811 776 13.67 110 132
66 809 811 28.7 110 132
67 807 809 10.24 110 132
68 805 807 18.27 110 132
69 803 805 19.14 110 132
70 801 803 9.77 110 132
71 799 801 7.16 110 132
72 797 799 19.64 110 132
73 795 797 17.27 110 132
74 761 763 10.72 60 132
75 793 795 16.61 110 132
76 5 791 15.27 110 132
77 699 701 9.43 60 132
78 785 787 8.13 110 132
79 783 785 12.22 110 132
80 781 783 17.47 110 132
81 779 781 20.53 110 132
82 777 779 21.04 110 132
83 776 777 5.11 110 132
84 774 775 0.46 60 132
85 771 576 0.96 60 132
86 769 771 23.71 60 132
87 767 769 16.74 60 132
88 765 767 18.45 60 132
89 791 793 17.91 110 132
90 697 699 4.16 60 132
91 669 671 22.27 60 132
92 693 695 8.29 60 132
93 627 629 20.78 60 132
94 625 627 20.66 60 132
95 623 625 20.64 60 132
96 621 623 4.0 60 132
97 620 621 4.02 60 132
98 617 586 4.21 60 132
99 615 617 11.85 60 132
100 613 615 0.56 60 132
101 611 613 17.5 60 132
102 609 611 14.67 60 132
103 607 609 5.12 60 132
104 605 607 4.49 60 132
105 604 605 13.05 60 132
106 629 631 19.01 60 132
107 601 603 5.29 60 132
108 597 599 20.07 60 132
109 595 597 9.93 60 132
110 593 595 23.16 60 132
111 591 593 5.82 60 132
112 589 591 10.65 60 132
113 587 589 6.79 60 132
114 586 587 8.74 60 132
115 583 526 15.74 60 132
116 581 583 20.89 60 132
117 579 581 5.44 60 132
118 577 579 13.57 60 132
119 576 577 18.91 60 132
120 571 573 14.47 60 132
121 599 601 9.68 60 132
122 695 697 10.83 60 132
123 631 633 10.58 60 132
124 635 637 5.53 60 132
125 691 693 6.81 60 132
126 690 691 10.39 60 132
127 687 689 13.09 60 132
128 685 687 20.06 60 132
129 683 685 21.13 60 132
130 681 683 19.18 60 132
131 679 681 13.7 60 132
132 677 679 20.91 60 132
133 675 677 24.11 60 132
134 673 675 10.85 60 132
135 671 673 10.04 60 132
136 821 823 3.28 110 132
137 667 669 20.0 60 132
138 633 635 1.43 60 132
139 665 667 0.92 60 132
140 661 663 10.64 60 132
141 659 661 11.51 60 132
142 657 659 7.76 60 132
143 655 657 23.24 60 132
144 653 655 1.33 60 132
145 651 653 21.8 60 132
146 649 651 1.77 60 132
147 647 649 17.84 60 132
148 645 647 20.45 60 132
149 643 645 21.43 60 132
150 641 643 19.15 60 132
151 639 641 9.58 60 132
152 637 639 4.05 60 132
153 663 665 13.97 60 132
154 823 825 1.15 110 132
155 851 853 13.16 110 132
156 827 829 4.71 110 132
157 1013 1015 10.34 60 132
158 1011 1013 6.01 60 132
159 1009 1011 13.84 60 132
160 1007 1009 2.13 60 132
161 1005 1007 14.17 60 132
162 1003 1005 5.94 60 132
163 545 1003 3.09 60 132
164 999 950 0.18 60 132
165 997 999 5.42 60 132
166 995 997 8.46 60 132
167 993 995 12.32 60 132
168 991 993 13.98 60 132
169 989 991 1.09 60 132
170 1015 964 4.77 60 132
171 987 989 14.0 60 132
172 983 985 11.33 60 132
173 981 983 13.63 60 132
174 979 981 1.49 60 132
175 977 979 11.12 60 132
176 975 977 9.83 60 132
177 973 975 10.68 60 132
178 971 973 11.88 60 132
179 969 971 4.04 60 132
180 967 969 16.46 60 132
181 965 967 4.95 60 132
182 964 965 4.84 60 132
183 961 928 23.03 60 132
184 959 961 10.05 60 132
185 985 987 10.1 60 132
186 957 959 47.34 60 132
187 232 1019 2.77 60 132
188 1021 1023 13.18 60 132
189 863 0 1.83 110 132
190 1048 1074 2.07 60 132
191 681 558 1.02 60 132
192 1099 1030 0.29 60 132
193 1074 1099 0.01 60 132
194 233 1049 0.03 60 132
195 689 690 1.0 60 132
196 1079 1049 0.03 60 132
197 1077 1079 2.57 60 132
198 243 1077 1.61 60 132
199 1074 869 2.86 110 132
200 1067 1069 14.96 60 132
201 1065 1067 3.3 60 132
202 1019 1021 1.08 60 132
203 13 1065 3.83 60 132
204 1048 1049 9.39 60 132
205 1046 158 6.77 60 132
206 1043 66 5.86 60 132
207 1041 1043 12.49 60 132
208 1039 1041 6.73 60 132
209 1037 1039 17.78 60 132
210 1035 1037 18.62 60 132
211 1033 1035 15.5 60 132
212 1031 1033 0.33 60 132
213 1030 1031 0.18 60 132
214 1027 888 3.27 60 132
215 1025 1027 20.05 60 132
216 1023 1025 22.95 60 132
217 231 1063 11.01 60 132
218 955 957 20.76 60 132
219 953 955 28.9 60 132
220 951 953 17.4 60 132
221 883 885 23.62 110 132
222 881 883 11.66 110 132
223 879 881 9.89 110 132
224 877 879 8.91 110 132
225 875 877 13.61 110 132
226 873 875 26.26 110 132
227 871 873 5.7 110 132
228 425 871 7.62 110 132
229 867 869 0.98 110 132
230 865 867 19.26 110 132
231 864 865 16.0 110 132
232 775 863 17.9 110 132
233 859 196 15.44 110 132
234 885 864 5.03 110 132
235 857 859 16.58 110 132
236 853 855 4.26 110 132
237 569 571 2.0 60 132
238 849 851 17.47 110 132
239 847 849 15.69 110 132
240 845 847 2.65 110 132
241 843 845 18.25 110 132
242 841 843 1.38 110 132
243 839 841 3.46 110 132
244 837 839 4.49 110 132
245 835 837 6.39 110 132
246 833 835 1.76 110 132
247 831 833 1.72 110 132
248 829 831 2.95 110 132
249 855 857 16.46 110 132
250 888 889 2.79 60 132
251 889 891 8.09 60 132
252 891 893 16.22 60 132
253 950 951 0.85 60 132
254 947 288 10.17 60 132
255 945 947 4.48 60 132
256 943 945 8.16 60 132
257 941 943 12.89 60 132
258 939 941 2.32 60 132
259 937 939 32.94 60 132
260 935 937 12.02 60 132
261 933 935 43.87 60 132
262 931 933 20.32 60 132
263 929 931 34.4 60 132
264 928 929 6.97 60 132
265 925 904 2.26 60 132
266 923 925 8.68 60 132
267 921 923 1.21 60 132
268 919 921 8.45 60 132
269 917 919 19.83 60 132
270 915 917 20.89 60 132
271 287 915 3.85 60 132
272 911 552 10.32 60 132
273 909 911 17.3 60 132
274 365 909 5.4 60 132
275 905 234 17.43 60 132
276 904 905 17.69 60 132
277 901 538 1.77 60 132
278 899 901 2.43 60 132
279 897 899 14.11 60 132
280 895 897 3.1 60 132
281 893 895 11.59 60 132
282 825 827 4.49 110 132
283 567 569 11.63 60 132
284 0 1 22.96 110 132
285 563 565 11.41 60 132
286 203 205 5.22 110 132
287 201 203 1.41 110 132
288 199 201 4.31 110 132
289 197 199 6.06 110 132
290 196 197 2.17 110 132
291 193 195 7.11 110 132
292 191 193 1.36 110 132
293 189 191 1.75 110 132
294 187 189 0.76 110 132
295 185 187 0.22 110 132
296 183 185 0.11 110 132
297 182 183 0.15 110 132
298 179 181 31.55 60 132
299 177 179 19.47 60 132
300 175 177 18.68 60 132
301 173 175 21.11 60 132
302 172 173 17.93 60 132
303 143 145 23.42 60 132
304 145 147 16.46 60 132
305 147 149 8.31 60 132
306 149 151 9.3 60 132
307 151 153 7.28 60 132
308 153 155 8.34 60 132
309 205 207 10.37 110 132
310 155 130 16.32 60 132
311 159 161 0.55 60 132
312 161 163 17.3 60 132
313 163 165 16.95 60 132
314 165 167 18.59 60 132
315 167 169 17.76 60 132
316 169 142 15.33 60 132
317 158 159 2.71 60 132
318 207 209 3.49 110 132
319 209 211 0.61 110 132
320 211 213 12.18 110 132
321 251 253 11.92 60 132
322 253 255 7.51 60 132
323 255 257 7.52 60 132
324 257 259 11.96 60 132
325 259 261 3.06 60 132
326 261 263 14.94 60 132
327 249 251 3.29 60 132
328 263 265 20.05 60 132
329 267 269 3.45 60 132
330 269 271 18.93 60 132
331 271 273 18.61 60 132
332 274 275 2.78 60 132
333 565 567 8.86 60 132
334 277 279 15.22 60 132
335 265 267 9.79 60 132
336 142 143 3.61 60 132
337 248 249 20.48 60 132
338 244 245 0.54 60 132
339 213 215 19.69 110 132
340 215 217 1.35 110 132
341 217 219 0.47 110 132
342 219 182 1.25 110 132
343 222 223 37.36 60 132
344 223 225 23.09 60 132
345 244 247 0.54 60 132
346 225 227 16.73 60 132
347 229 231 1.55 60 132
348 234 235 8.94 60 132
349 235 237 20.82 60 132
350 237 239 21.72 60 132
351 239 241 28.19 60 132
352 241 243 13.74 60 132
353 227 229 23.33 60 132
354 279 281 8.12 60 132
355 139 126 5.37 60 132
356 135 137 11.74 60 132
357 61 63 17.67 60 132
358 59 61 4.32 60 132
359 57 59 11.35 60 132
360 55 57 9.92 60 132
361 53 55 23.59 60 132
362 52 53 20.04 60 132
363 49 26 9.92 60 132
364 47 49 19.17 60 132
365 45 47 18.27 60 132
366 43 45 18.53 60 132
367 41 43 8.56 60 132
368 39 41 11.93 60 132
369 25 39 15.92 60 132
370 35 6 16.26 60 132
371 33 35 18.62 60 132
372 31 33 15.83 60 132
373 29 31 17.8 60 132
374 1 3 18.32 110 132
375 3 5 16.96 110 132
376 6 7 16.45 60 132
377 7 9 2.37 60 132
378 9 11 4.62 60 132
379 11 13 0.01 60 132
380 63 14 14.99 60 132
381 14 15 12.42 60 132
382 17 19 17.8 60 132
383 19 21 20.51 60 132
384 21 23 21.13 60 132
385 23 25 2.87 60 132
386 26 27 7.38 60 132
387 27 29 19.08 60 132
388 15 17 20.15 60 132
389 66 67 17.07 60 132
390 67 69 26.2 60 132
391 69 71 4.17 60 132
392 107 109 1.26 60 132
393 109 111 16.51 60 132
394 111 78 4.62 60 132
395 114 115 4.79 60 132
396 115 117 17.91 60 132
397 117 119 17.88 60 132
398 105 107 2.7 60 132
399 119 121 16.62 60 132
400 123 90 4.13 60 132
401 126 127 10.72 60 132
402 127 114 12.74 60 132
403 130 131 21.82 60 132
404 131 133 17.83 60 132
405 133 135 21.09 60 132
406 121 123 18.77 60 132
407 137 139 4.59 60 132
408 103 105 0.01 60 132
409 99 101 8.42 60 132
410 71 73 20.92 60 132
411 73 75 22.99 60 132
412 75 52 8.73 60 132
413 78 79 9.78 60 132
414 79 81 22.03 60 132
415 81 83 13.7 60 132
416 101 103 2.7 60 132
417 83 85 32.69 60 132
418 87 89 6.51 60 132
419 90 91 16.35 60 132
420 91 93 20.91 60 132
421 93 95 18.53 60 132
422 95 97 18.21 60 132
423 97 99 10.91 60 132
424 85 87 20.44 60 132
425 281 283 20.4 60 132
426 275 277 16.46 60 132
427 285 287 18.77 60 132
428 489 491 19.63 60 132
429 389 489 15.31 60 132
430 485 448 0.61 60 132
431 483 485 9.56 60 132
432 481 483 6.92 60 132
433 479 481 11.97 60 132
434 477 479 3.94 60 132
435 475 477 15.59 60 132
436 473 475 0.29 60 132
437 471 473 16.37 60 132
438 469 471 5.17 60 132
439 467 469 18.65 60 132
440 465 467 8.64 60 132
441 464 465 2.31 60 132
442 461 316 10.05 60 132
443 459 461 0.99 60 132
444 457 459 19.35 60 132
445 283 285 20.05 60 132
446 431 414 0.03 110 132
447 315 435 8.79 60 132
448 435 437 22.62 60 132
449 437 439 4.32 60 132
450 439 441 0.39 60 132
451 491 493 3.65 60 132
452 441 443 17.88 60 132
453 445 378 5.0 60 132
454 448 449 9.68 60 132
455 449 451 10.89 60 132
456 451 453 10.58 60 132
457 453 455 16.78 60 132
458 455 457 20.9 60 132
459 443 445 17.68 60 132
460 493 495 8.36 60 132
461 495 497 6.32 60 132
462 497 499 17.97 60 132
463 535 172 4.53 60 132
464 538 539 11.57 60 132
465 539 541 2.18 60 132
466 541 543 10.64 60 132
467 543 545 6.69 60 132
468 546 547 10.49 60 132
469 533 535 21.31 60 132
470 547 549 10.15 60 132
471 552 553 8.07 60 132
472 553 555 17.7 60 132
473 555 546 4.74 60 132
474 558 559 21.99 60 132
475 559 561 9.44 60 132
476 561 563 1.56 60 132
477 549 551 11.21 60 132
478 427 422 10.61 60 132
479 531 533 20.73 60 132
480 527 529 6.53 60 132
481 499 501 20.67 60 132
482 501 464 9.23 60 132
483 377 505 15.78 110 132
484 505 507 6.92 110 132
485 507 509 5.15 110 132
486 509 511 10.48 110 132
487 529 531 25.02 60 132
488 511 513 9.16 110 132
489 515 517 10.0 110 132
490 517 519 8.64 110 132
491 519 521 34.21 110 132
492 521 523 14.38 110 132
493 523 525 7.27 110 132
494 526 527 11.42 60 132
495 513 515 15.11 110 132
496 413 427 3.53 60 132
497 413 431 13.56 110 132
498 422 423 4.38 60 132
499 325 327 16.86 60 132
500 327 329 1.83 60 132
501 329 331 11.48 60 132
502 331 333 6.47 60 132
503 333 335 12.42 60 132
504 335 337 9.32 60 132
505 337 274 8.33 60 132
506 248 341 3.1 60 132
507 341 343 17.87 60 132
508 343 345 13.43 60 132
509 345 347 3.96 60 132
510 347 349 28.71 60 132
511 349 247 1.24 60 132
512 273 353 3.27 60 132
513 353 355 18.03 60 132
514 323 325 0.73 60 132
515 355 357 17.53 60 132
516 321 323 12.59 60 132
517 317 319 7.17 60 132
518 288 289 16.3 60 132
519 289 291 6.31 60 132
520 291 293 15.05 60 132
521 293 295 0.25 60 132
522 295 297 15.08 60 132
523 297 299 5.61 60 132
524 299 301 9.03 60 132
525 301 303 14.93 60 132
526 303 305 0.32 60 132
527 305 307 12.3 60 132
528 307 309 17.53 60 132
529 309 311 14.86 60 132
530 311 313 1.8 60 132
531 313 315 22.2 60 132
532 316 317 4.05 60 132
533 319 321 7.83 60 132
534 423 425 7.1 60 132
535 357 359 12.17 60 132
536 361 363 21.19 60 132
537 390 391 17.13 110 132
538 391 393 24.31 110 132
539 393 395 15.24 110 132
540 395 397 8.09 110 132
541 397 399 6.9 110 132
542 399 366 11.2 110 132
543 402 403 10.58 60 132
544 387 389 6.49 60 132
545 403 405 7.76 60 132
546 407 409 19.44 60 132
547 409 411 1.44 60 132
548 411 413 12.92 60 132
549 414 415 7.1 110 132
550 415 417 18.94 110 132
551 417 419 19.18 110 132
552 419 390 20.12 110 132
553 405 407 12.43 60 132
554 359 361 7.69 60 132
555 385 387 19.39 60 132
556 381 383 18.94 60 132
557 363 365 16.05 60 132
558 366 367 16.25 110 132
559 367 369 66.38 110 132
560 383 385 21.08 60 132
561 369 371 19.44 110 132
562 573 402 14.37 60 132
563 373 375 12.57 110 132
564 375 377 7.56 110 132
565 378 379 19.24 60 132
566 379 381 21.92 60 132
567 371 373 21.38 110 132
568 1030 245 9.46 60 132
569 232 233 11.1 60 132
570 1053 1055 2.36 60 132
571 1055 1057 0.33 60 132
572 1057 1059 0.56 60 132
573 1059 1030 1.48 60 132
574 89 1053 11.69 60 132

[COORDINATES]
0 176550.9344 8233893.9675
1 176567.488 8233909.883
3 176580.713 8233922.557
5 176592.93 8233934.3268
6 176592.9249 8233932.5991
7 176582.485 8233919.89
9 176581.212 8233917.885
11 176579.1741 8233913.7343
13 176579.1725 8233913.7276
14 176803.845 8234134.6738
15 176794.678 8234126.296
17 176780.051 8234112.438
19 176767.371 8234099.951
21 176752.794 8234085.527
23 176737.661 8234070.785
25 176735.6161 8234068.7766
26 176661.314 8233998.4925
27 176656.042 8233993.328
29 176642.28 8233980.115
31 176629.375 8233967.854
33 176618.102 8233956.737
35 176604.599 8233943.915
39 176724.256 8234057.619
41 176715.3664 8234049.6612
43 176708.991 8234043.954
45 176695.493 8234031.266
47 176682.224 8234018.713
49 176668.398 8234005.432
52 176877.6149 8234204.9246
53 176863.121 8234191.082
55 176845.69 8234175.19
57 176838.7149 8234168.131
59 176830.736 8234160.056
61 176827.6263 8234157.0556
63 176814.913 8234144.789
66 176949.3575 8234274.6864
67 176937.0369 8234262.8696
69 176917.964 8234244.911
71 176914.9768 8234241.9977
73 176899.998 8234227.393
75 176883.928 8234210.954
78 177093.8881 8234411.493
79 177086.489 8234405.095
81 177070.2 8234390.259
83 177060.677 8234380.409
85 177037.214 8234357.64
87 177022.724 8234343.226
89 177017.8964 8234338.8514
90 177150.1923 8234516.8762
91 177144.004 8234501.739
93 177135.93 8234482.452
95 177128.218 8234465.605
97 177120.736 8234449.003
99 177116.3217 8234439.0221
101 177112.917 8234431.324
103 177111.7235 8234428.899
105 177111.721 8234428.8939
107 177110.53 8234426.474
109 177109.572 8234425.652
111 177097.383 8234414.515
114 177186.1329 8234588.192
115 177182.959 8234584.599
117 177174.4888 8234568.8199
119 177165.9041 8234553.1346
121 177159.045 8234537.995
123 177151.756 8234520.701
126 177202.145 8234605.326
127 177194.567 8234597.74
130 177260.6715 8234663.3779
131 177245.059 8234648.129
133 177232.381 8234635.588
135 177217.18 8234620.967
137 177209.0972 8234612.4511
139 177205.8928 8234609.1668
142 177337.1575 8234714.3488
143 177333.797 8234713.03
145 177312.247 8234703.869
147 177297.703 8234696.172
149 177290.9 8234691.396
151 177283.748 8234685.447
153 177278.281 8234680.641
155 177272.251 8234674.877
158 177419.971 8234747.388
159 177417.3508 8234746.6883
161 177416.818 8234746.546
163 177400.721 8234740.221
165 177385.08 8234733.677
167 177367.89 8234726.603
169 177351.425 8234719.948
172 177637.8161 8234928.953
173 177650.709 8234941.414
175 177665.809 8234956.169
177 177679.261 8234969.124
179 177693.375 8234982.53
181 177714.8403 8235005.6579
182 176995.8038 8234321.4574
183 176995.9102 8234321.5635
185 176995.9901 8234321.6424
187 176996.1483 8234321.7998
189 176996.686 8234322.3343
191 176997.9285 8234323.5685
193 176998.8913 8234324.5253
195 177003.9361 8234329.5385
196 176946.2895 8234274.0245
197 176947.8573 8234275.5183
199 176952.2284 8234279.7099
201 176955.3376 8234282.6885
203 176956.3568 8234283.6648
205 176960.1225 8234287.2774
207 176967.6017 8234294.4674
209 176970.1144 8234296.8828
211 176970.5507 8234297.3027
213 176979.3256 8234305.7465
215 176993.5769 8234319.3356
217 176994.5539 8234320.2666
219 176994.896 8234320.5924
222 177628.5161 8234945.1918
223 177656.203 8234970.272
225 177671.796 8234987.308
227 177683.735 8234999.029
229 177700.7648 8235014.9707
231 177701.8048 8235016.1189
232 176989.5894 8234344.2039
233 176997.392 8234336.309
234 177067.5253 8234404.1777
235 177061.097 8234397.966
237 177045.981 8234383.65
239 177030.517 8234368.398
241 177010.08 8234348.986
243 177000.3772 8234339.2629
244 177012.421 8234320.5575
245 177012.017 8234320.911
247 177012.825 8234320.204
248 177060.1949 8234275.0466
249 177075.7751 8234288.3405
251 177078.279 8234290.477
253 177086.7536 8234298.8614
255 177092.092 8234304.143
257 177097.5001 8234309.3655
259 177106.103 8234317.673
261 177108.2971 8234319.8063
263 177119.01 8234330.222
265 177133.786 8234343.77
267 177140.7135 8234350.6901
269 177143.152 8234353.126
271 177156.469 8234366.584
273 177171.1214 8234378.0574
274 177165.9094 8234578.2224
275 177164.565 8234575.785
277 177158.256 8234560.586
279 177151.937 8234546.742
281 177149.129 8234539.126
283 177140.466 8234520.653
285 177132.066 8234502.45
287 177124.7029 8234485.1802
288 177398.3465 8234830.3742
289 177412.114 8234839.099
291 177416.804 8234843.3248
293 177427.985 8234853.399
295 177428.1608 8234853.5713
297 177438.9332 8234864.1254
299 177442.941 8234868.052
301 177449.2823 8234874.4837
303 177459.7645 8234885.1153
305 177459.988 8234885.342
307 177468.9173 8234893.8066
309 177481.6401 8234905.8673
311 177492.426 8234916.092
313 177493.732 8234917.33
315 177509.811 8234932.635
316 177232.7699 8234650.8052
317 177229.8691 8234647.9815
319 177224.732 8234642.981
321 177219.1812 8234637.4578
323 177210.257 8234628.578
325 177209.7327 8234628.0639
327 177197.697 8234616.2625
329 177196.391 8234614.982
331 177188.1489 8234606.9842
333 177183.504 8234602.477
335 177175.478 8234593.004
337 177169.933 8234585.517
341 177057.835 8234273.033
343 177045.251 8234285.722
345 177035.9925 8234295.4454
347 177033.26 8234298.315
349 177013.702 8234319.329
353 177173.693 8234380.071
355 177190.078 8234387.6
357 177205.875 8234395.205
359 177216.8765 8234400.4085
361 177223.827 8234403.696
363 177243.236 8234412.199
365 177257.7017 8234419.1494
366 177275.6049 8234518.7203
367 177288.3684 8234528.7745
369 177336.2052 8234574.7909
371 177350.027 8234588.4646
373 177365.3517 8234603.366
375 177373.4163 8234613.0074
377 177377.5908 8234619.3162
378 177563.798 8234878.179
379 177549.85 8234864.927
381 177534.016 8234849.768
383 177520.266 8234836.747
385 177504.644 8234822.59
387 177490.323 8234809.513
389 177485.3788 8234805.3119
390 177200.756 8234483.446
391 177216.432 8234490.341
393 177238.5982 8234500.3303
395 177252.4909 8234506.5918
397 177259.9204 8234509.788
399 177266.2069 8234512.6243
402 177198.0337 8234469.1007
403 177188.285 8234464.987
405 177181.1832 8234461.8532
407 177169.811 8234456.835
409 177152.0155 8234449.0125
411 177150.695 8234448.432
413 177138.853 8234443.255
414 177141.1696 8234456.6386
415 177147.6622 8234459.5225
417 177164.931 8234467.294
419 177182.407 8234475.196
422 177126.4032 8234436.556
423 177122.551 8234434.482
425 177116.6045 8234430.6029
427 177135.7487 8234441.5846
431 177141.186 8234456.608
435 177515.9831 8234926.38
437 177531.8713 8234910.2784
439 177534.9058 8234907.2031
441 177535.174 8234906.9241
443 177547.568 8234894.032
445 177560.2186 8234881.6752
448 177308.3948 8234713.7611
449 177299.515 8234709.897
451 177290.062 8234704.499
453 177281.403 8234698.411
455 177269.773 8234686.315
457 177254.548 8234671.998
459 177240.6773 8234658.5021
461 177239.968 8234657.812
464 177400.8216 8234751.9541
465 177398.6794 8234751.0907
467 177390.666 8234747.861
469 177373.397 8234740.824
471 177368.5894 8234738.9318
473 177353.3553 8234732.9358
475 177353.084 8234732.829
477 177338.7312 8234726.7507
479 177335.105 8234725.215
481 177324.0939 8234720.5306
483 177317.727 8234717.822
485 177308.957 8234714.0058
489 177473.709 8234795.396
491 177458.776 8234782.66
493 177456.0715 8234780.2098
495 177449.873 8234774.594
497 177444.806 8234770.81
499 177428.557 8234763.13
501 177409.384 8234755.405
505 177384.7081 8234633.4052
507 177387.81 8234639.5938
509 177390.1188 8234644.2003
511 177394.8152 8234653.5665
513 177398.903 8234661.7686
515 177405.481 8234675.3766
517 177409.8718 8234684.3566
519 177413.7149 8234692.0983
521 177428.4681 8234722.9594
523 177434.7123 8234735.9134
525 177434.9828 8234743.1794
526 177571.212 8234869.19
527 177580.317 8234876.08
529 177585.221 8234880.397
531 177603.735 8234897.226
533 177618.865 8234911.395
535 177634.56 8234925.806
538 176984.9048 8234431.1051
539 176993.2243 8234439.1459
541 176994.794 8234440.663
543 177002.6729 8234447.8128
545 177007.6248 8234452.3064
546 177314.069 8234448.228
547 177307.072 8234456.042
549 177299.87 8234463.2
551 177292.22 8234471.399
552 177287.3758 8234433.6143
553 177294.754 8234436.872
555 177310.291 8234445.36
558 177283.8306 8234511.1099
559 177265.3317 8234499.2125
561 177256.6841 8234495.4334
563 177255.2511 8234494.8072
565 177244.8133 8234490.2035
567 177236.7982 8234486.4276
569 177226.2792 8234481.4722
571 177224.4516 8234480.6573
573 177211.2376 8234474.765
576 177623.0536 8234815.6607
577 177609.486 8234828.837
579 177600.4218 8234838.9306
581 177596.789 8234842.976
583 177582.088 8234857.814
586 177477.9494 8234629.8621
587 177481.294 8234637.938
589 177483.9907 8234644.1655
591 177488.223 8234653.939
593 177490.5719 8234659.2647
595 177499.917 8234680.453
597 177504.5312 8234689.243
599 177513.861 8234707.016
601 177519.4185 8234714.9368
603 177522.456 8234719.266
604 177446.7892 8234566.0649
605 177454.85 8234576.328
607 177457.0905 8234580.2166
609 177459.646 8234584.652
611 177465.392 8234598.15
613 177471.592 8234614.511
615 177471.8053 8234615.0261
617 177476.338 8234625.9711
620 177533.9894 8234834.9476
621 177531.1574 8234832.096
623 177528.338 8234829.257
625 177513.21 8234815.214
627 177498.446 8234800.759
629 177483.414 8234786.413
631 177470.274 8234772.679
633 177463.723 8234764.3694
635 177462.835 8234763.243
637 177459.648 8234758.718
639 177457.5652 8234755.2454
641 177452.636 8234747.027
643 177444.215 8234729.83
645 177434.882 8234710.537
647 177425.894 8234692.165
649 177418.7505 8234675.8156
651 177418.042 8234674.194
653 177408.35 8234654.667
655 177407.7865 8234653.4605
657 177397.953 8234632.407
659 177394.3251 8234625.549
661 177388.942 8234615.373
663 177383.099 8234606.475
665 177373.832 8234596.019
667 177373.1823 8234595.3682
669 177359.052 8234581.214
671 177342.559 8234566.244
673 177335.353 8234559.2466
675 177327.568 8234551.687
677 177310.393 8234534.761
679 177295.395 8234520.198
681 177284.684 8234511.662
683 177297.308 8234497.218
685 177311.72 8234481.762
687 177325.828 8234467.499
689 177335.1641 8234458.3264
690 177335.88 8234457.623
691 177343.4723 8234464.7098
693 177348.451 8234469.357
695 177354.54 8234474.986
697 177362.496 8234482.341
699 177365.5167 8234485.2082
701 177372.354 8234491.698
703 177376.525 8234495.5144
705 177386.964 8234505.066
707 177398.264 8234515.86
709 177398.5467 8234516.1365
711 177409.0792 8234526.4362
713 177414.604 8234531.839
715 177419.7671 8234536.9699
717 177426.955 8234544.113
719 177430.4687 8234547.8138
721 177440.922 8234558.8236
723 177441.963 8234559.92
727 177568.965 8234883.633
729 177577.146 8234895.98
731 177581.186 8234900.429
733 177597.362 8234915.439
735 177614.652 8234932.633
739 177557.284 8234856.94
741 177552.9667 8234853.0188
743 177542.449 8234843.466
745 177542.3113 8234843.3274
749 177529.3923 8234725.4429
751 177536.905 8234732.133
753 177540.6554 8234735.602
755 177549.462 8234743.748
757 177551.68 8234745.8748
759 177562.6425 8234756.3864
761 177565.729 8234759.346
763 177573.6025 8234766.616
765 177581.594 8234773.995
767 177595.836 8234785.731
769 177607.745 8234797.492
771 177623.739 8234814.995
774 176565.6013 8233880.7931
775 176565.2991 8233880.4474
776 176732.6544 8234068.38
777 176736.338 8234071.9145
779 176751.4282 8234086.5751
781 176766.2019 8234100.8312
783 176778.8001 8234112.9336
785 176787.6199 8234121.3903
787 176793.4857 8234127.0146
789 176807.008 8234139.814
791 176603.961 8233944.885
793 176616.953 8233957.215
795 176628.944 8233968.702
797 176641.386 8233980.684
799 176655.378 8233994.469
801 176660.6292 8233999.3376
803 176667.7903 8234005.9765
805 176681.415 8234019.4143
807 176694.5973 8234032.0629
809 176702.0076 8234039.123
811 176722.7933 8234058.9194
815 176820.3949 8234152.658
817 176827.5735 8234159.5455
819 176833.1814 8234164.8962
821 176834.1938 8234165.8966
823 176836.5284 8234168.2035
825 176837.3508 8234169.0131
827 176840.5205 8234172.1881
829 176843.8701 8234175.506
831 176845.955 8234177.5909
833 176847.1721 8234178.8027
835 176848.4527 8234180.0145
837 176853.0829 8234184.4225
839 176856.332 8234187.5234
841 176858.8297 8234189.9152
843 176859.8245 8234190.873
845 176872.8446 8234203.6612
847 176874.7667 8234205.4886
849 176886.0689 8234216.3663
851 176898.7716 8234228.3579
853 176908.1682 8234237.5686
855 176911.2419 8234240.516
857 176923.1237 8234251.9098
859 176935.1071 8234263.3727
863 176552.2647 8233892.7155
864 177033.6974 8234355.1683
865 177022.349 8234343.896
867 177008.42 8234330.589
869 177007.6686 8234329.9657
871 177110.2216 8234426.439
873 177105.451 8234423.327
875 177086.311 8234405.351
877 177076.2452 8234396.1978
879 177069.655 8234390.205
881 177062.4924 8234383.3824
883 177054.047 8234375.338
885 177037.265 8234358.712
888 176945.4508 8234389.5709
889 176943.46 8234391.524
891 176949.333 8234397.093
893 176961.0355 8234408.3225
895 176969.4 8234416.349
897 176971.6436 8234418.4813
899 176981.8692 8234428.1995
901 176983.63 8234429.873
904 177092.4261 8234428.947
905 177080.061 8234416.291
909 177262.571 8234421.489
911 177277.935 8234429.446
915 177123.194 8234481.641
917 177114.262 8234462.755
919 177104.886 8234445.285
921 177100.284 8234438.194
923 177099.5152 8234437.2598
925 177094.003 8234430.561
928 177230.2172 8234746.1672
929 177235.329 8234750.9
931 177265.265 8234767.851
933 177283.835 8234776.099
935 177323.932 8234793.901
937 177334.9082 8234798.8038
939 177364.984 8234812.238
941 177367.0644 8234813.2583
943 177378.6401 8234818.9356
945 177385.967 8234822.529
947 177389.7527 8234824.9281
950 177122.9917 8234643.6957
951 177123.581 8234644.3038
953 177135.69 8234656.798
955 177156.491 8234676.868
957 177171.381 8234691.332
959 177205.939 8234723.689
961 177213.3159 8234730.519
964 177049.7862 8234495.2728
965 177052.605 8234499.202
967 177055.0705 8234503.4943
969 177063.2714 8234517.7716
971 177065.282 8234521.272
973 177070.2477 8234532.0672
975 177074.709 8234541.766
977 177078.5679 8234550.8073
979 177082.9348 8234561.0387
981 177083.518 8234562.405
983 177089.1513 8234574.8197
985 177093.832 8234585.135
987 177098.2584 8234594.2158
989 177104.392 8234606.799
991 177104.845 8234607.7941
993 177110.636 8234620.514
995 177115.8885 8234631.6623
997 177119.496 8234639.319
999 177122.866 8234643.566
1003 177009.911 8234454.381
1005 177014.2681 8234458.4162
1007 177024.663 8234468.043
1009 177026.1495 8234469.5663
1011 177035.8182 8234479.4743
1013 177040.018 8234483.778
1015 177047.005 8234491.396
1019 176987.6395 8234346.1769
1021 176986.8824 8234346.943
1023 176977.617 8234356.318
1025 176961.433 8234372.596
1027 176947.784 8234387.282
1030 177005.6651 8234327.9218
1031 177005.5233 8234327.8096
1033 177005.2758 8234327.5843
1035 176993.8182 8234317.1502
1037 176980.201 8234304.454
1039 176967.358 8234292.153
1041 176962.5358 8234287.4572
1043 176953.585 8234278.741
1046 177426.6145 8234746.0696
1048 177003.939 8234329.538
1049 176997.4105 8234336.2899
1053 177009.234 8234331.002
1055 177007.5265 8234329.3797
1057 177007.2844 8234329.1511
1059 177006.8407 8234328.8166
1063 177709.8194 8235023.6713
1065 176578.3057 8233910.0006
1067 176577.5579 8233906.7858
1069 176574.1686 8233892.2142
1070 177434.471 8234743.368
1071 177430.986 8234744.596
1073 177429.8388 8234745.0123
1074 177005.4675 8234328.1401
1077 176999.2431 8234338.1264
1079 176997.4295 8234336.309
1082 177339.0726 8234454.3393
1083 177946.6818 8233828.3701
1085 177995.875 8233876.7603
1087 178045.4631 8233826.4127
1094 177428.6916 8234745.4286
1099 177005.472 8234328.136
1108 175890.0061 8233281.2903
1109 175893.3353 8233284.1241
1111 175897.4853 8233287.6567
1113 175896.9091 8233288.3361
1115 175966.5229 8233346.4213
1117 176037.6915 8233414.9421
1119 176067.2481 8233426.8323
1121 176093.6841 8233452.0133
1123 176194.1101 8233548.0773
1124 176194.3261 8233548.2851
1125 176261.3311 8233612.7604
1127 176333.3952 8233682.1036
1129 176362.6631 8233710.2664
1131 176434.6853 8233779.5694
1133 176455.747 8233799.8359
1135 176481.7397 8233824.8472
1137 176506.7404 8233848.904
1139 176526.3203 8233867.7501
1141 176538.0169 8233879.0053
1143 176547.5814 8233888.2088
1145 176546.5214 8233889.3352
1149 176545.5281 8233890.3903

[EMITTERS]

[PATTERNS]

[CURVES]

[STATUS]

[CONTROLS]

[MIXING]

[SOURCES]

[QUALITY]

[REACTIONS]

[ENERGY]

[TIMES]
DURATION 24.000000 Hours
HYDRAULIC TIMESTEP 1.000000 Hours
QUALITY TIMESTEP 0.100000 Hours
PATTERN TIMESTEP 1.000000 Hours
REPORT TIMESTEP 1.000000 Hours
REPORT START 0.000000 Hours
Rule Timestep 0.100000 Hours
Pattern Start 0.000000 Hours

[OPTIONS]
 Units               LPS
 Headloss            H-W
 Specific Gravity    1.000000
 Viscosity           1.000000
 Trials              40.000000
 Accuracy            0.001000
 CHECKFREQ           10
 MAXCHECK            10
 DAMPLIMIT           0.000000
 Unbalanced          Continue 10
 Pattern             Consumo
 Demand Multiplier   1.000000
 Emitter Exponent    0.500000
 Quality             NONE mg/L
 Diffusivity         1.000000
 Tolerance           0.010000

[REPORT]
Summary  No
Message  No
