[TITLE]

[JUNCTIONS]
 1                                   918.7500
 2                                   919.5900
 3                                   919.5900
 4                                   926.2400
 5                                   926.7200
 6                                   924.7700
 7                                   920.4200
 8                                   920.4100
 9                                   917.2800
 10                                  925.0000
 11                                  925.0000
 12                                  925.0000
 13                                  925.0000
 14                                  925.0000
 15                                  923.4100
 16                                  925.0000
 17                                  925.0000
 18                                  925.0000
 19                                  925.0000
 20                                  925.0000
 21                                  917.6600
 22                                  917.4000
 23                                  917.2800
 24                                  919.9300
 25                                  920.3300
 26                                  920.1100
 27                                  916.3800
 28                                  916.5900
 29                                  922.9800
 30                                  911.7700
 31                                  911.7700
 32                                  907.0400
 33                                  907.0400
 34                                  915.0000
 35                                  915.0000
 36                                  914.8400
 37                                  905.5200
 38                                  905.6500
 39                                  918.4000
 40                                  919.0800
 41                                  921.1800
 42                                  921.5200
 43                                  922.0800
 44                                  922.4000
 45                                  920.6400
 46                                  920.0000
 47                                  920.0000
 48                                  920.1900
 49                                  924.0300
 50                                  919.9300
 51                                  923.4700
 52                                  927.0200
 53                                  926.0000
 54                                  926.6800
 55                                  943.7800
 56                                  943.9000
 57                                  943.9000
 58                                  928.7300
 59                                  928.7000
 60                                  928.7000
 61                                  917.5700
 62                                  918.1500
 63                                  917.0400
 64                                  917.4800
 65                                  916.0100
 66                                  915.9200
 67                                  916.5300
 68                                  898.0100
 69                                  898.2800
 70                                  899.8000
 71                                  906.1600
 72                                  906.4200
 73                                  906.9900
 74                                  906.9900
 91                                  925.0000
 92                                  933.8300
 93                                  933.9900
 94                                  910.1100
 95                                  905.0000
 96                                  920.7300
 97                                  919.8200
 98                                  923.8900
 99                                  925.3500
 100                                 926.9500
 101                                 926.3100
 102                                 926.1700
 103                                 924.2800
 104                                 924.2800
 105                                 924.2800
 106                                 920.6400
 107                                 918.7800
 108                                 919.9800
 109                                 925.0000
 110                                 925.0000
 111                                 926.1100
 112                                 927.1800
 113                                 925.7000
 114                                 923.4700
 115                                 921.6100
 116                                 922.0900
 117                                 922.9700
 118                                 916.2100
 119                                 916.2100
 120                                 914.9200
 121                                 925.2200
 122                                 926.0000
 123                                 928.5400
 124                                 927.8600
 125                                 915.4100
 126                                 916.5400
 127                                 917.2800
 128                                 920.0900
 129                                 922.3600
 130                                 923.9700
 131                                 920.8600
 132                                 920.0000
 133                                 920.0000
 134                                 920.0000
 135                                 915.4900
 136                                 915.4900
 137                                 921.7900
 138                                 924.7800
 139                                 923.4700
 140                                 925.0000
 141                                 915.8700
 142                                 915.8800
 143                                 934.5100
 144                                 934.5100
 145                                 934.3200
 146                                 934.3200
 147                                 917.0400
 148                                 933.9900
 149                                 933.9900
 150                                 926.1500
 151                                 926.1500
 152                                 923.5100
 153                                 925.0000
 154                                 925.2600
 155                                 955.6500
 156                                 952.1600
 157                                 952.0400
 158                                 952.4900
 159                                 953.5500
 160                                 953.2700
 161                                 955.7000
 162                                 955.2200
 163                                 954.7900
 164                                 956.5400
 165                                 956.0600
 166                                 957.9300
 167                                 957.7800
 168                                 957.4800
 169                                 957.3100
 170                                 957.0100
 171                                 956.8400
 172                                 915.4800
 173                                 915.5600
 174                                 916.9400
 175                                 915.2200
 176                                 915.2200
 177                                 916.1900
 178                                 937.9100
 179                                 938.4100
 180                                 938.8900
 181                                 934.9300
 182                                 934.9300
 183                                 935.2600
 184                                 941.4100
 185                                 940.6100
 186                                 940.6100
 187                                 940.6100
 188                                 925.0000
 189                                 925.0000
 190                                 925.0000
 191                                 925.7700
 192                                 925.0000
 193                                 926.6800
 194                                 925.9700
 195                                 926.6800
 196                                 926.6800
 197                                 926.0000
 198                                 920.0000
 199                                 920.0000
 200                                 920.0000
 201                                 921.0200
 202                                 924.7200
 203                                 924.9800
 204                                 926.3000
 205                                 926.8200
 Dom_Francisco_CH12_LT14             928.6200
 207                                 928.6200
 208                                 926.8900
 209                                 926.5100
 210                                 925.3600
 211                                 925.3700
 212                                 925.7200
 213                                 923.0700
 214                                 923.6900
 215                                 925.3600
 216                                 923.8900
 217                                 939.5500
 218                                 939.9200
 219                                 936.2100
 220                                 941.7600
 221                                 941.7600
 222                                 943.6600
 223                                 956.6600
 224                                 956.6600
 225                                 956.1800
 226                                 955.7000
 227                                 955.2200
 228                                 954.3200
 229                                 953.5500
 230                                 952.3200
 231                                 951.0900
 232                                 950.6100
 233                                 949.5300
 234                                 948.6000
 235                                 947.6800
 236                                 947.3200
 237                                 946.7600
 238                                 946.2500
 239                                 945.4700
 240                                 950.5600
 241                                 950.3700
 242                                 952.3200
 243                                 951.0900
 244                                 950.6100
 245                                 933.9900
 246                                 933.9900
 247                                 934.1400
 248                                 934.1400
 249                                 934.1400
 250                                 933.9900
 251                                 933.9900
 252                                 933.9900
 253                                 933.9900
 254                                 934.5100
 255                                 934.5100
 256                                 934.5100
 257                                 920.0000
 258                                 925.1700
 259                                 925.6400
 260                                 926.0900
 261                                 925.7800
 262                                 927.1600
 263                                 928.5500
 264                                 926.3000
 265                                 927.5700
 266                                 926.8500
 267                                 926.3000
 268                                 925.0000
 269                                 924.2100
 270                                 918.1100
 271                                 918.0700
 272                                 918.5300
 273                                 918.7000
 274                                 931.5300
 275                                 929.9300
 276                                 928.8100
 277                                 928.5300
 278                                 928.1300
 279                                 927.3400
 280                                 925.6500
 281                                 925.3400
 282                                 919.1700
 283                                 924.0400
 284                                 920.7300
 285                                 932.6700
 286                                 932.6700
 287                                 932.9400
 288                                 933.6300
 289                                 934.7300
 290                                 934.9200
 291                                 930.0500
 292                                 930.6600
 293                                 931.2900
 294                                 931.3600
 295                                 931.9300
 296                                 936.7400
 369                                 928.7100
 370                                 927.2100
 371                                 926.0300
 372                                 926.0300
 373                                 925.3700
 374                                 919.1800
 375                                 918.2700
 376                                 920.6400
 377                                 928.9900
 378                                 920.0000
 379                                 929.6200
 380                                 920.0000
 381                                 925.2900
 382                                 926.2000
 383                                 925.6400
 384                                 923.9900
 385                                 926.4400
 386                                 925.9700
 387                                 925.0000
 388                                 925.0000
 389                                 925.0000
 390                                 925.0000
 391                                 925.0000
 392                                 934.3200
 393                                 934.3200
 394                                 934.1400
 395                                 934.1400
 396                                 934.3200
 397                                 933.8300
 398                                 933.8300
 399                                 933.8300
 400                                 933.8300
 401                                 933.8300
 402                                 933.8300
 403                                 944.5800
 404                                 934.1800
 405                                 915.8700
 406                                 916.6200
 407                                 915.0000
 408                                 915.0000
 409                                 915.0000
 410                                 915.0000
 411                                 920.8800
 412                                 923.8900
 413                                 915.2900
 417                                 943.8800
 418                                 943.8800
 419                                 903.2800
 420                                 903.5300
 421                                 906.6700
 422                                 905.6000
 423                                 907.8000
 424                                 907.0700
 425                                 905.9800
 426                                 908.7200
 427                                 908.3700
 428                                 911.1200
 429                                 914.1200
 430                                 911.8900
 431                                 911.8300
 432                                 911.4400
 433                                 911.0500
 434                                 913.7300
 435                                 913.7300
 436                                 912.9300
 437                                 913.0700
 438                                 915.0000
 439                                 914.3700
 440                                 914.4700
 441                                 913.5800
 442                                 914.0700
 443                                 911.6000
 444                                 908.6500
 445                                 905.9200
 446                                 906.9700
 447                                 908.2100
 448                                 906.1000
 449                                 906.1000
 450                                 906.1400
 451                                 906.2200
 452                                 906.0100
 453                                 911.2000
 454                                 909.7900
 455                                 913.2300
 456                                 918.5300
 457                                 919.3900
 458                                 915.6200
 459                                 916.1800
 460                                 915.7100
 461                                 915.7200
 462                                 915.6900
 463                                 897.1400
 464                                 896.3000
 465                                 896.2000
 466                                 895.5600
 467                                 897.1400
 468                                 900.6400
 469                                 900.6400
 470                                 903.0300
 471                                 904.6000
 472                                 901.7300
 473                                 904.6000
 474                                 917.8100
 475                                 916.6700
 476                                 918.6500
 477                                 933.8400
 478                                 933.9600
 479                                 936.7200
 480                                 937.2100
 481                                 936.7200
 482                                 936.8600
 483                                 895.9100
 484                                 916.8800
 485                                 948.1100
 486                                 949.9400
 487                                 950.4100
 488                                 951.5500
 489                                 951.5500
 490                                 952.3800
 491                                 951.5000
 492                                 957.7800
 493                                 957.6400
 494                                 957.6400
 495                                 957.6800
 496                                 957.4200
 497                                 956.5800
 498                                 898.2800
 499                                 898.0900
 500                                 897.4400
 501                                 905.0100
 502                                 905.8400
 503                                 908.9800
 504                                 918.0900
 505                                 948.1100
 506                                 905.3600
 507                                 898.7500
 508                                 909.4300
 509                                 908.6500
 512                                 933.9900
 513                                 933.9900
 514                                 933.9900
 515                                 933.9900
 516                                 933.9900
 517                                 916.5500
 518                                 919.3900
 519                                 918.4000
 520                                 918.2600
 521                                 917.3900
 522                                 942.1200
 523                                 942.7400
 524                                 945.1800
 525                                 945.7800
 526                                 942.3800
 527                                 942.8600
 528                                 946.0000
 529                                 942.2100
 530                                 943.2200
 531                                 945.4200
 532                                 945.8500
 533                                 931.9300
 534                                 932.5200
 535                                 933.0200
 536                                 933.6500
 537                                 934.1400
 538                                 932.5200
 539                                 933.0200
 540                                 934.1400
 541                                 934.3200
 542                                 931.9300
 543                                 932.0400
 544                                 941.9000
 545                                 942.9300
 546                                 945.3400
 547                                 941.9800
 548                                 941.7600
 549                                 942.6000
 550                                 942.2400
 551                                 942.3600
 552                                 942.1200
 553                                 943.6700
 554                                 944.3200
 555                                 938.8700
 556                                 945.3600
 557                                 944.3800
 558                                 943.7800
 559                                 943.9400
 560                                 944.0500
 561                                 943.6700
 562                                 944.4800
 563                                 943.9400
 564                                 944.4800
 565                                 941.6300
 566                                 941.3200
 567                                 941.4300
 568                                 941.1800
 569                                 938.3700
 570                                 938.3700
 571                                 938.3700
 572                                 947.7400
 573                                 944.4800
 574                                 944.4800
 575                                 946.0900
 576                                 945.8800
 577                                 945.6500
 578                                 943.9400
 579                                 944.4400
 580                                 941.1800
 581                                 943.4500
 582                                 944.3200
 583                                 944.0500
 584                                 944.1600
 585                                 938.3700
 586                                 938.0500
 587                                 943.6700
 588                                 943.6700
 589                                 918.1100
 590                                 917.0200
 591                                 916.6300
 592                                 948.0600
 593                                 947.1400
 594                                 946.2500
 595                                 945.3600
 596                                 949.5300
 597                                 948.6000
 598                                 918.9600
 599                                 918.8200
 600                                 918.3200
 601                                 921.2900
 602                                 921.9200
 603                                 924.0300
 604                                 921.3200
 605                                 922.6800
 606                                 919.9300
 607                                 921.3200
 608                                 919.1500
 609                                 919.6000
 610                                 919.7300
 611                                 929.6400
 612                                 925.5200
 613                                 925.5200
 614                                 923.5200
 615                                 923.5600
 616                                 923.9100
 617                                 919.5100
 618                                 918.9900
 619                                 919.6500
 620                                 919.5000
 621                                 923.6600
 622                                 920.3800
 623                                 919.8400
 624                                 919.8100
 625                                 920.9700
 626                                 919.0600
 627                                 919.0600
 628                                 918.4400
 629                                 918.3100
 630                                 918.3300
 631                                 917.7900
 632                                 917.5800
 633                                 928.7300
 634                                 928.7600
 635                                 929.3000
 636                                 927.7900
 637                                 926.0800
 638                                 926.9200
 639                                 923.8900
 640                                 924.3000
 641                                 924.3000
 642                                 920.0300
 643                                 920.3900
 644                                 919.5500
 645                                 919.1200
 646                                 918.9600
 647                                 918.3200
 648                                 918.8200
 649                                 904.9800
 650                                 897.4500
 651                                 894.8400
 652                                 895.2900
 653                                 895.1800
 654                                 902.6900
 655                                 895.9100
 656                                 901.0500
 657                                 899.5400
 658                                 894.4300
 659                                 893.8800
 660                                 892.0400
 661                                 900.9900
 662                                 899.1800
 663                                 899.1800
 664                                 904.5800
 665                                 896.7600
 666                                 898.7900
 667                                 905.9800
 668                                 910.0500
 669                                 906.8500
 670                                 904.6300
 671                                 906.4400
 672                                 909.9200
 673                                 905.4200
 674                                 913.7900
 675                                 909.5500
 676                                 911.1700
 677                                 911.1700
 678                                 917.0700
 679                                 915.3100
 680                                 901.7300
 681                                 897.2900
 682                                 944.1600
 683                                 919.8300
 684                                 919.1500
 685                                 905.4200
 686                                 934.3200
 687                                 933.9900
 693                                 915.2900
 694                                 915.2000
 695                                 915.3500
 696                                 925.5300
 697                                 931.9300
 698                                 931.3600
 699                                 931.2900
 700                                 930.6600
 701                                 930.0500
 702                                 929.3800
 703                                 928.7300
 704                                 928.7300
 705                                 928.7300
 706                                 928.2400
 707                                 926.9200
 708                                 926.0800
 709                                 924.4000
 710                                 923.8900
 711                                 922.9700
 712                                 922.0900
 713                                 920.3900
 714                                 919.8500
 715                                 919.7100
 716                                 919.7100
 717                                 919.5500
 718                                 919.1200
 719                                 943.9400
 720                                 957.9300
 721                                 957.9300
 722                                 914.1000
 723                                 914.2200
 724                                 914.7000
 725                                 915.0200
 726                                 914.7000
 727                                 915.2900
 728                                 915.3500
 729                                 915.8000
 730                                 915.4000
 731                                 915.8200
 732                                 915.0000
 733                                 915.0000
 734                                 916.8000
 735                                 919.0800
 736                                 919.9600
 737                                 920.5200
 738                                 921.4700
 739                                 922.4900
 740                                 923.8800
 741                                 924.3500
 742                                 925.1400
 743                                 925.2900
 744                                 920.1800
 745                                 920.8900
 746                                 920.7800
 747                                 921.1000
 748                                 918.9300
 749                                 918.1300
 750                                 917.9600
 751                                 917.5500
 752                                 916.7700
 753                                 916.4700
 754                                 915.6800
 755                                 923.2800
 756                                 922.2800
 757                                 921.6100
 758                                 921.1200
 759                                 920.1200
 760                                 919.4900
 761                                 918.3800
 762                                 913.8400
 763                                 914.1000
 764                                 913.8000
 765                                 913.8000
 766                                 913.8400
 767                                 913.5500
 768                                 914.5500
 769                                 914.5500
 770                                 914.2100
 771                                 913.6500
 772                                 913.3500
 773                                 913.3300
 774                                 913.1300
 775                                 915.1000
 776                                 914.7400
 777                                 914.7400
 778                                 914.9200
 779                                 915.2100
 780                                 915.9400
 781                                 915.8800
 782                                 917.1600
 783                                 914.7400
 784                                 916.3200
 785                                 916.6800
 786                                 916.0300
 787                                 915.5700
 788                                 916.4100
 789                                 918.1300
 790                                 919.3500
 791                                 920.5200
 792                                 921.9300
 793                                 922.8700
 794                                 923.7300
 795                                 924.1900
 796                                 925.0400
 797                                 925.3500
 798                                 925.3500
 799                                 925.3500
 800                                 925.3600
 801                                 925.9700
 802                                 925.4800
 803                                 925.3600
 804                                 925.2500
 805                                 925.0000
 806                                 925.9700
 807                                 925.9800
 808                                 926.2700
 809                                 926.5500
 810                                 926.7200
 811                                 920.6600
 812                                 920.9900
 813                                 920.6900
 814                                 920.0300
 815                                 920.0300
 816                                 920.0000
 817                                 916.7300
 818                                 916.1300
 819                                 916.1300
 820                                 918.5300
 821                                 918.5300
 822                                 917.8300
 823                                 925.3100
 824                                 925.5100
 825                                 925.3600
 826                                 925.4300
 827                                 925.0400
 828                                 925.0800
 829                                 924.4200
 830                                 924.5000
 831                                 923.3400
 832                                 922.9700
 833                                 924.6200
 834                                 925.9000
 835                                 926.4000
 836                                 926.9000
 837                                 927.4100
 838                                 927.4100
 839                                 927.9800
 840                                 928.0200
 841                                 928.4000
 842                                 928.3800
 843                                 928.5500
 844                                 928.1800
 845                                 928.1300
 846                                 927.7100
 847                                 927.0100
 848                                 913.1300
 849                                 913.0000
 850                                 913.0700
 851                                 912.8700
 852                                 912.3100
 853                                 911.8300
 854                                 911.6900
 855                                 911.3400
 856                                 910.7600
 857                                 910.0600
 858                                 910.0000
 859                                 910.0000
 860                                 910.0000
 861                                 910.0100
 862                                 910.3200
 863                                 910.3500
 864                                 910.7700
 865                                 910.7700
 866                                 910.7700
 867                                 910.7700
 868                                 911.8400
 869                                 912.5900
 870                                 912.5900
 871                                 912.5900
 872                                 912.9200
 873                                 913.0800
 874                                 912.8700
 875                                 913.1100
 876                                 913.1200
 877                                 914.0400
 878                                 913.9000
 879                                 914.4900
 880                                 915.2100
 881                                 915.3900
 882                                 915.1800
 883                                 914.0700
 884                                 915.1800
 885                                 915.7300
 886                                 916.8300
 887                                 917.1700
 888                                 917.3700
 889                                 917.1500
 890                                 916.3500
 891                                 915.9700
 892                                 915.4600
 893                                 915.0000
 894                                 915.4300
 895                                 917.1700
 896                                 917.9000
 897                                 918.4100
 898                                 919.0900
 899                                 918.9500
 900                                 921.0400
 901                                 921.1800
 902                                 917.9100
 903                                 918.9500
 904                                 918.9500
 905                                 919.1600
 906                                 919.9000
 907                                 921.1800
 908                                 921.3500
 909                                 921.0700
 910                                 921.1200
 911                                 921.5200
 912                                 921.0600
 913                                 920.8100
 914                                 920.7100
 915                                 920.6500
 916                                 920.2300
 917                                 923.6700
 918                                 923.4200
 919                                 923.6900
 920                                 923.2100
 921                                 922.7300
 922                                 921.7600
 923                                 920.9900
 924                                 919.9100
 925                                 919.1000
 926                                 918.3200
 927                                 918.9100
 928                                 918.9100
 929                                 919.1900
 930                                 918.8700
 931                                 918.7200
 932                                 918.6400
 933                                 917.1700
 934                                 917.1700
 935                                 917.2400
 936                                 917.2700
 937                                 916.9800
 938                                 916.9500
 939                                 916.8500
 940                                 916.7500
 941                                 916.7300
 942                                 918.3200
 943                                 917.7900
 944                                 917.2600
 945                                 916.7300
 946                                 916.2100
 947                                 915.4100
 948                                 914.8500
 949                                 914.8500
 950                                 914.5200
 951                                 914.5400
 952                                 914.9400
 953                                 914.9900
 954                                 915.0600
 955                                 915.3400
 956                                 915.3200
 957                                 915.1800
 958                                 912.6900
 959                                 912.3700
 960                                 912.7900
 961                                 912.8900
 962                                 913.2800
 963                                 925.6400
 964                                 925.2200
 965                                 924.7200
 966                                 924.0100
 967                                 923.8600
 968                                 923.8600
 969                                 923.2600
 970                                 922.6600
 971                                 921.7800
 972                                 920.5300
 973                                 919.8900
 974                                 918.9700
 975                                 917.6800
 976                                 916.7800
 977                                 916.1400
 978                                 915.5100
 979                                 915.0000
 980                                 915.0000
 981                                 915.0000
 982                                 915.0000
 983                                 916.2700
 984                                 916.5400
 985                                 916.8500
 986                                 917.6200
 987                                 917.8500
 988                                 917.6600
 989                                 917.4600
 990                                 917.5900
 991                                 917.5700
 992                                 943.9400
 993                                 957.6000
 994                                 957.6000
 995                                 957.3100
 996                                 957.0100
 1000                                957.7800
 1001                                957.7800
 1002                                957.9300
 1003                                957.7800
 1004                                957.5100
 1005                                957.5100
 1006                                957.6900
 1007                                957.6900
 1008                                957.6900
 1009                                957.6900
 1024                                957.7800
 1025                                957.7800
 1080                                918.2600
 1081                                916.9000
 1082                                916.5500
 1083                                915.2400
 1084                                900.0700
 1085                                903.9200
 1086                                905.4700
 1087                                906.6700
 1088                                906.6700
 1089                                906.6700
 1090                                910.0800
 1091                                912.3000
 1092                                900.0700
 1093                                895.4400
 1094                                918.5300
 1095                                918.5300
 1096                                916.6300
 1097                                916.6300
 1098                                916.5500
 1099                                916.5300
 1100                                917.4800
 1101                                917.5700
 1102                                917.5700
 1103                                917.5700
 1104                                917.5700
 1105                                918.1100
 1106                                918.3300
 1107                                923.6900
 1108                                927.3400
 1109                                925.9900
 1110                                924.4500
 1111                                923.6500
 1112                                923.0300
 1113                                922.1500
 1114                                921.5200
 1115                                920.9000
 1116                                933.9900
 1117                                933.9900
 1118                                933.9900
 1119                                933.9900
 1120                                958.8500
 1121                                955.0000
 1122                                950.0000
 1123                                960.0000
 1124                                936.3600
 1125                                936.9900
 1126                                935.7800
 1127                                929.0300
 1128                                937.6900
 1129                                936.5000
 1130                                935.3100
 1131                                934.6200
 1132                                933.9900
 1133                                933.9900
 1134                                933.9900
 1144                                926.0300
 1145                                957.9300
 1146                                914.3300
 1147                                913.9500
 1148                                912.5700
 1149                                912.5700
 1150                                911.3300
 1151                                910.7900
 1152                                910.7900
 1153                                908.4100
 1154                                908.4100
 1155                                905.4100
 1156                                905.4100
 1157                                901.8600
 1158                                897.0700
 1159                                897.0700
 1160                                915.0700
 1161                                914.9700
 1162                                914.2100
 1163                                914.2500
 1164                                909.2900
 1165                                911.5000
 1166                                912.6000
 1167                                913.4200
 1168                                913.4200
 1169                                914.8600
 1170                                914.8600
 1171                                913.0000
 1172                                913.7900
 1173                                911.4300
 1174                                909.0200
 1175                                909.9400
 1176                                909.7400
 1177                                902.3500
 1178                                901.5200
 1179                                905.2500
 1180                                903.3200
 1181                                901.5600
 1182                                908.0800
 1183                                904.8200
 1184                                901.6100
 1185                                907.8700
 1186                                906.0900
 1187                                908.0000
 1188                                908.6600
 1189                                911.1700
 1190                                910.7500
 1191                                910.7500
 1192                                909.5700
 1193                                908.5500
 1194                                902.4200
 1195                                906.4300
 1196                                909.8600
 1197                                911.8000
 1198                                913.6000
 1199                                915.1800
 1200                                897.8400
 1201                                916.5500
 1202                                916.4200
 1203                                916.6100
 1204                                916.0000
 1205                                915.1600
 1206                                920.7700
 1207                                920.0000
 1208                                920.0000
 1209                                920.0000
 1210                                920.0000
 1211                                920.0000
 1212                                920.0000
 1213                                920.4200
 1214                                920.4700
 1215                                920.0000
 1216                                919.8700
 1217                                919.5900
 1218                                919.5900
 1219                                919.7900
 1220                                920.0000
 1221                                920.5500
 1222                                921.0700
 1223                                921.0400
 1224                                920.2300
 1225                                920.3000
 1226                                920.1000
 1227                                919.5700
 1228                                919.2100
 1229                                919.0500
 1230                                919.0500
 1231                                919.0900
 1232                                919.5700
 1233                                920.1100
 1234                                919.8800
 1235                                919.8800
 1236                                919.6800
 1237                                919.1600
 1238                                918.6800
 1239                                918.3500
 1240                                918.3500
 1241                                918.6800
 1242                                919.1600
 1243                                919.6800
 1244                                919.4300
 1245                                919.2000
 1246                                919.1300
 1247                                918.9600
 1248                                918.4200
 1249                                917.8500
 1250                                917.7000
 1251                                917.7000
 1252                                917.8500
 1253                                918.3900
 1254                                918.9600
 1255                                919.1300
 1256                                919.6000
 1257                                920.7300
 1258                                922.1800
 1259                                923.1000
 1260                                923.6000
 1261                                919.8300
 1262                                920.7300
 1263                                922.2700
 1264                                923.1000
 1265                                923.8700
 1266                                925.0000
 1267                                925.0000
 1268                                925.0000
 1269                                921.2600
 1270                                921.9900
 1271                                922.5000
 1272                                922.3500
 1273                                922.7000
 1274                                922.7000
 1275                                923.8200
 1276                                924.8600
 1277                                924.2600
 1278                                923.9600
 1279                                925.5900
 1280                                925.8000
 1281                                926.3100
 1282                                926.3300
 1283                                926.3300
 1284                                925.0000
 1285                                925.0000
 1286                                926.3300
 1287                                925.0000
 1288                                925.0000
 1289                                925.0000
 1290                                925.0000
 1291                                925.0000
 1292                                925.1900
 1293                                925.9700
 1294                                925.9700
 1295                                925.2200
 1296                                925.0000
 1297                                925.0000
 1298                                925.0000
 1299                                925.0000
 1300                                921.9900
 1301                                923.9600
 1302                                925.0000
 1303                                925.0000
 1304                                925.0000
 1305                                925.0000
 1306                                921.4000
 1307                                922.8600
 1308                                924.7700
 1309                                925.0000
 1310                                925.0000
 1311                                925.0000
 1312                                925.0000
 1313                                921.3600
 1314                                922.8000
 1315                                924.6800
 1316                                925.0000
 1317                                925.0000
 1318                                925.0000
 1319                                924.1200
 1320                                924.7100
 1321                                918.8300
 1322                                918.2900
 1323                                919.0200
 1324                                919.6100
 1325                                919.8100
 1326                                921.1300
 1327                                921.5100
 1328                                921.7700
 1329                                924.6600
 1330                                925.0000
 1331                                925.0000
 1332                                925.0000
 1333                                925.6600
 1334                                926.1700
 1335                                926.1700
 1336                                915.7600
 1337                                915.5700
 1338                                914.1600
 1339                                912.6800
 1340                                910.6600
 1341                                909.6800
 1342                                910.7200
 1343                                912.2300
 1344                                913.9400
 1345                                914.0700
 1346                                915.5700
 1347                                935.9800
 1348                                936.0400
 1349                                935.9800
 1350                                928.7400
 1351                                935.4200
 1352                                931.5600
 1353                                926.4700
 1354                                927.8900
 1355                                934.9900
 1356                                934.9500
 1357                                926.7700
 1358                                957.6000
 1359                                959.8800
 1360                                955.0000
 1361                                955.0000
 1362                                955.0000
 1363                                955.0000
 1364                                955.0000
 1365                                955.0000
 1366                                955.3100
 1367                                955.3100
 1368                                956.5700
 1369                                957.3700
 1370                                958.3300
 1371                                959.3500
 1372                                960.0000
 1373                                960.0000
 1374                                960.0000
 1375                                960.0000
 1376                                960.0000
 1377                                955.0000
 1378                                955.0000
 1379                                955.0000
 1380                                955.0000
 1381                                955.0000
 1382                                955.0000
 1383                                955.0000
 1384                                954.2700
 1385                                953.6000
 1386                                952.9100
 1387                                952.1800
 1388                                951.4100
 1389                                950.6100
 1390                                949.7800
 1391                                948.9800
 1392                                948.1700
 1393                                947.3600
 1394                                946.5600
 1395                                945.7500
 1396                                944.9200
 1397                                943.9500
 1398                                943.4400
 1399                                942.4800
 1400                                941.5400
 1401                                940.6100
 1402                                940.6100
 1403                                934.6600
 1404                                934.6600
 1405                                926.9500
 1406                                926.2100
 1407                                937.9100
 1408                                936.7400
 1409                                940.1400
 1410                                938.5000
 1411                                925.9700
 1412                                925.7000
 1413                                925.4600
 1414                                925.0000
 1415                                925.0000
 1416                                925.0000
 1417                                925.0000
 1418                                925.0000
 1419                                925.0000
 1420                                925.0000
 1421                                925.0000
 1422                                925.0000
 1423                                955.0000
 1424                                955.0000
 1434                                957.6900
 1446                                957.6900
 1447                                957.6900
 1448                                957.6000
 1449                                957.6000
 1450                                958.0000
 1451                                958.0400
 1452                                957.8700
 1453                                957.9100
 1458                                957.5100
 1459                                957.6900
 1460                                957.6900
 1465                                957.8700
 1466                                957.6900
 1467                                957.6900
 1468                                957.8700
 1469                                958.0000
 1470                                957.6900
 1471                                957.6900
 1472                                957.8700
 1473                                957.8700
 1474                                957.8700
 1475                                957.8700
 1476                                957.7800
 1477                                957.7800
 1478                                957.7800
 1479                                957.9100
 1480                                957.9100
 1481                                957.7800
 1482                                957.7800
 1483                                957.6000
 1484                                957.6000
 1485                                934.8900
 1486                                934.6300
 1487                                936.2000
 1488                                936.7000
 1489                                936.9300
 1490                                934.6600
 1491                                934.9800
 1492                                935.6000
 1493                                934.6600
 1494                                934.6600
 1495                                935.6000
 1496                                936.7400
 1497                                926.9500
 1498                                926.2100
 1499                                926.9500
 1500                                934.6600
 1501                                934.6600
 1502                                955.0000
 1503                                955.0000
 1504                                955.0000
 1505                                955.0000
 1506                                955.0000
 1507                                955.0000
 1508                                955.0000
 1509                                954.9000
 1510                                954.2700
 1511                                953.6000
 1512                                952.9100
 1513                                952.1800
 1514                                951.4100
 1515                                950.5900
 1516                                949.7800
 1517                                948.5800
 1518                                948.1700
 1519                                947.3600
 1520                                946.5600
 1521                                945.7500
 1522                                944.9200
 1523                                943.9500
 1524                                943.4400
 1525                                942.4800
 1526                                941.5400
 1527                                940.6100
 1528                                940.1400
 1529                                937.3500
 1530                                940.1400
 1531                                938.5000
 1532                                937.3500
 1533                                955.0000
 1534                                955.0000
 1535                                955.0000
 1536                                955.0000
 1537                                955.0000
 1538                                955.0000
 1539                                955.3700
 1540                                955.3700
 1541                                956.5700
 1542                                957.4900
 1543                                958.3300
 1544                                959.3500
 1545                                959.7700
 1546                                960.0000
 1547                                960.0000
 1548                                960.0000
 1549                                960.0000
 1550                                959.8800
 1551                                959.8800
 1552                                955.0000
 1553                                955.0000
 1554                                934.6300
 1555                                931.8700
 1557                                926.9200
 1558                                926.4100
 1559                                934.6300
 1560                                926.4100
 1561                                926.4100
 1562                                926.2100
 1563                                926.2100
 1564                                926.2100
 1565                                926.2100
 1566                                925.9700
 1567                                926.9500
 1568                                926.2700
 1569                                925.6000
 1570                                925.3900
 1571                                925.1900
 1572                                925.1900
 1573                                925.1900
 1574                                925.2900
 1575                                925.2900
 1576                                925.2900
 1577                                925.2900
 1578                                925.3900
 1579                                925.2000
 1580                                925.6500
 1581                                925.9700
 1582                                926.3300
 1583                                926.3000
 1584                                926.5000
 1585                                926.5000
 1586                                927.1700
 1587                                927.1700
 1588                                927.0200
 1589                                926.8200
 1590                                926.8500
 1591                                926.8900
 1592                                926.7500
 1593                                926.6100
 1594                                926.4400
 1595                                926.9900
 1596                                926.9900
 1597                                926.9500
 1598                                927.1700
 1599                                927.2000
 1600                                927.2000
 1601                                926.9900
 1602                                926.9900
 1603                                925.3500
 1604                                924.4200
 1605                                920.9100
 1606                                918.0300
 1607                                915.3000
 1608                                920.4100
 1609                                916.7300
 1610                                917.3700
 1611                                917.1700
 1612                                914.2300
 1613                                923.3600
 1614                                921.2200
 1615                                920.6800
 1616                                915.2100
 1617                                957.7800
 1618                                957.9300
 1619                                957.6000
 1620                                957.6000
 1621                                957.7800
 1622                                957.7800
 1623                                957.7800
 1624                                957.7800
 1625                                957.7800
 1626                                957.9300
 1627                                947.9700
 1636                                905.1200
 1637                                903.6600
 1638                                902.7900
 1639                                902.7900
 1640                                901.9200
 1641                                912.4400
 1642                                912.4400
 1643                                912.4400
 1644                                912.4400
 1645                                912.4400
 1646                                912.4400
 1647                                911.4300
 1648                                911.4300
 1649                                911.4300
 1650                                911.4300
 1651                                911.4300
 1652                                908.1900
 1653                                907.7100
 1654                                906.2600
 1655                                906.2600
 1656                                905.3500
 1657                                903.4500
 1658                                908.3700
 1659                                907.7000
 1660                                907.3400
 1661                                906.6100
 1662                                906.6100
 1663                                906.1400
 1664                                904.7600
 1665                                903.4300
 1666                                902.6800
 1667                                901.5000
 1668                                900.4000
 1669                                898.0800
 1670                                896.0500
 1671                                893.2700
 1672                                892.7800
 1673                                894.1500
 1674                                895.6200
 1675                                896.0500
 1676                                896.7600
 1677                                896.8000
 1678                                896.8000
 1679                                896.8000
 1680                                896.8000
 1681                                936.7100
 1682                                933.8300
 1683                                934.3200
 84                                  957.5100
 85                                  957.6900
 86                                  957.6900
 87                                  957.6900
 88                                  957.8700
 89                                  957.8700

[RESERVOIRS]
 POCOS                               980.0000                                

[TANKS]
 76                                  933.0000       8.0000       2.0000      10.0000       2.0000       6.2832                                
 77                                  933.0000      10.0000       2.0000      10.0000       2.0000       6.2832                                
 C1                                  957.8700       8.0000       2.0000      15.0000       2.0000       6.2832                                
 C2                                  957.8700       8.0000       2.0000      15.0000       2.0000       6.2832                                
 C4                                  957.6900       8.0000       2.0000      15.0000       2.0000       6.2832                                
 C5                                  957.6900       8.0000       2.0000      15.0000       2.0000       6.2832                                
 C6                                  957.5100       8.0000       2.0000      15.0000       2.0000       6.2832                                
 C7                                  957.8700       8.0000       2.0000      15.0000       2.0000       6.2832                                

[PIPES]
 0                               166                             721                                   1.1100     110.0000     137.0000       0.0000       
 1                               1471                            1467                                  1.3500     150.0000     140.0000       0.0000       
 2                               1472                            1473                                  0.3000     150.0000     140.0000       0.0000       
 3                               1473                            1468                                  1.2000     150.0000     140.0000       0.0000       
 4                               1474                            1475                                  0.3000     150.0000     140.0000       0.0000       
 5                               1475                            1469                                  1.2500     150.0000     140.0000       0.0000       
 6                               1476                            1477                                  1.5500     150.0000     140.0000       0.0000       
 7                               1477                            1478                                  0.2000     150.0000     140.0000       0.0000       
 8                               1453                            1479                                  0.9500     150.0000     140.0000       0.0000       
 9                               1480                            1481                                  2.4200     150.0000     140.0000       0.0000       
 10                              1470                            1471                                  0.3000     150.0000     140.0000       0.0000       
 11                              1481                            1482                                  0.9500     150.0000     140.0000       0.0000       
 12                              1482                            1476                                  0.8800     150.0000     140.0000       0.0000       
 13                              1351                            1349                                 50.7800      60.0000     137.0000       0.0000       
 14                              1349                            1126                                 51.3800      60.0000     137.0000       0.0000       
 15                              1351                            1485                                164.5300      60.0000     137.0000       0.0000       
 16                              1485                            1486                                 12.0900      60.0000     137.0000       0.0000       
 17                              1126                            1487                                 95.9600      60.0000     137.0000       0.0000       
 18                              1487                            479                                  39.1800      60.0000     137.0000       0.0000       
 19                              479                             1488                                 47.2100      60.0000     137.0000       0.0000       
 20                              1488                            1489                                 17.1300      60.0000     137.0000       0.0000       
 21                              1479                            1480                                  1.7600     150.0000     140.0000       0.0000       
 22                              1469                            1450                                  2.1200     150.0000     140.0000       0.0000       
 23                              1468                            1469                                  3.4800     150.0000     140.0000       0.0000       
 24                              1467                            1468                                  3.3700     150.0000     140.0000       0.0000       
 25                              1120                            1123                                106.9900      32.0000     140.0000       0.0000       
 36                              1126                            1127                                131.9500      32.0000     140.0000       0.0000       
 37                              1120                            1145                                 52.4500      60.0000     137.0000       0.0000       
 38                              1450                            1451                                  6.9000     150.0000     140.0000       0.0000       
 39                              1451                            1452                                  0.6700     100.0000     130.0000       0.0000       
 40                              1451                            1453                                 12.4300     150.0000     140.0000       0.0000       
 45                              1452                            1465                                  0.3000     100.0000     130.0000       0.0000       
 46                              1355                            1487                                 23.3300      60.0000     137.0000       0.0000       
 47                              186                             1402                                  6.5500      60.0000     137.0000       0.0000       
 49                              181                             1491                                  7.0600      60.0000     137.0000       0.0000       
 50                              1122                            1627                                 10.8700      32.0000     140.0000       0.0000       
 51                              421                             1636                                 26.9400      32.0000     140.0000       0.0000       
 52                              1636                            1637                                 22.0700      32.0000     140.0000       0.0000       
 53                              1637                            1638                                  9.0700      32.0000     140.0000       0.0000       
 54                              1638                            1639                                  6.0500      32.0000     140.0000       0.0000       
 55                              1639                            1640                                  8.3800      32.0000     140.0000       0.0000       
 56                              1343                            1641                                 72.0000      32.0000     140.0000       0.0000       
 57                              1641                            1642                                  1.1400      32.0000     140.0000       0.0000       
 58                              1642                            1643                                  0.2900      32.0000     140.0000       0.0000       
 59                              1643                            1644                                  0.2900      32.0000     140.0000       0.0000       
 60                              1644                            1645                                  0.5800      32.0000     140.0000       0.0000       
 61                              1645                            1646                                  0.2900      32.0000     140.0000       0.0000       
 62                              1646                            1642                                  0.3000      32.0000     140.0000       0.0000       
 63                              610                             604                                  49.6100      32.0000     140.0000       0.0000       
 64                              1342                            1647                                123.6300      32.0000     140.0000       0.0000       
 65                              1648                            1649                                  0.2900      32.0000     140.0000       0.0000       
 66                              1649                            1650                                  0.5800      32.0000     140.0000       0.0000       
 67                              1650                            1651                                  0.2900      32.0000     140.0000       0.0000       
 68                              1651                            1647                                  0.2900      32.0000     140.0000       0.0000       
 69                              1489                            1681                                 51.0000      32.0000     140.0000       0.0000       
 70                              1486                            1490                                  6.4700      60.0000     137.0000       0.0000       
 71                              720                             1626                                  0.5000     110.0000     137.0000       0.0000       
 72                              1145                            1002                                  1.8500     110.0000     137.0000       0.0000       
 73                              1647                            1648                                  0.2900      32.0000     140.0000       0.0000       
 74                              1624                            1625                                  0.2900     110.0000     137.0000       0.0000       
 75                              1626                            1145                                  0.5000     110.0000     137.0000       0.0000       
 76                              1493                            1494                                  1.0000     110.0000     137.0000       0.0000       
 77                              1490                            1493                                  0.7000      60.0000     137.0000       0.0000       
 78                              1560                            1561                                  2.9700      60.0000     137.0000       0.0000       
 79                              1558                            1560                                  0.8000     200.0000     140.0000       0.0000       
 80                              1558                            1406                                  9.7000      60.0000     137.0000       0.0000       
 81                              1335                            1411                                 10.3700      60.0000     137.0000       0.0000       
 82                              1610                            888                                   0.2000      50.0000     132.0000       0.0000       
 83                              887                             1611                                  0.2000      50.0000     132.0000       0.0000       
 84                              1609                            941                                   0.2000      50.0000     132.0000       0.0000       
 85                              1625                            721                                   5.8900     110.0000     137.0000       0.0000       
 86                              1623                            1624                                  0.9900     110.0000     137.0000       0.0000       
 87                              1619                            1620                                  1.9700     110.0000     137.0000       0.0000       
 89                              1001                            1002                                  4.0300     110.0000     132.0000       0.0000       
 90                              1000                            1003                                  0.8200     110.0000     132.0000       0.0000       
 91                              1004                            1005                                  0.8000     100.0000     118.0000       0.0000       
 103                             1000                            1001                                  1.3500     110.0000     132.0000       0.0000       
 111                             990                             991                                  18.5600      63.0000     140.0000       0.0000       
 112                             983                             984                                  14.8700      63.0000     140.0000       0.0000       
 113                             988                             989                                  21.1700      63.0000     140.0000       0.0000       
 114                             973                             974                                  20.5600      63.0000     140.0000       0.0000       
 115                             972                             973                                  19.8100      63.0000     140.0000       0.0000       
 116                             971                             972                                  22.4300      63.0000     140.0000       0.0000       
 117                             974                             975                                  25.8900      63.0000     140.0000       0.0000       
 118                             970                             971                                  20.4100      63.0000     140.0000       0.0000       
 119                             969                             970                                  20.9100      63.0000     140.0000       0.0000       
 120                             968                             969                                   4.4400      63.0000     140.0000       0.0000       
 121                             967                             968                                   4.9300      63.0000     140.0000       0.0000       
 122                             975                             976                                  22.6900      63.0000     140.0000       0.0000       
 123                             976                             977                                  19.5700      63.0000     140.0000       0.0000       
 124                             966                             967                                  10.5200      63.0000     140.0000       0.0000       
 125                             989                             990                                  14.7900      63.0000     140.0000       0.0000       
 126                             965                             966                                  21.2100      63.0000     140.0000       0.0000       
 128                             977                             978                                  14.4000      63.0000     140.0000       0.0000       
 129                             978                             979                                  18.5100      63.0000     140.0000       0.0000       
 130                             979                             980                                  10.0900      63.0000     140.0000       0.0000       
 131                             980                             981                                  17.3200      63.0000     140.0000       0.0000       
 132                             981                             982                                  28.6100      63.0000     140.0000       0.0000       
 133                             982                             983                                  57.1800      63.0000     140.0000       0.0000       
 134                             984                             985                                  24.1300      63.0000     140.0000       0.0000       
 135                             985                             986                                  40.3600      63.0000     140.0000       0.0000       
 136                             986                             987                                  23.0500      63.0000     140.0000       0.0000       
 137                             987                             988                                  22.9200      63.0000     140.0000       0.0000       
 138                             964                             965                                  21.8200      63.0000     140.0000       0.0000       
 142                             676                             1091                                 18.9400      63.0000     140.0000       0.0000       
 143                             673                             1087                                 34.3900      63.0000     140.0000       0.0000       
 144                             1087                            1088                                  0.6200      63.0000     140.0000       0.0000       
 145                             1092                            1093                                 27.0800      32.0000     140.0000       0.0000       
 146                             991                             1101                                  0.0300      63.0000     140.0000       0.0000       
 147                             1101                            1102                                  4.5800      63.0000     140.0000       0.0000       
 148                             1102                            1103                                  2.1700      63.0000     140.0000       0.0000       
 149                             1103                            1104                                  0.1000      63.0000     140.0000       0.0000       
 150                             1104                            61                                    1.2200      85.0000     140.0000       0.0000       
 151                             963                             964                                  19.6600      63.0000     140.0000       0.0000       
 152                             371                             1144                                  7.2700      63.0000     140.0000       0.0000       
 153                             1144                            963                                  18.5600      63.0000     140.0000       0.0000       
 154                             1083                            1146                                 28.1700      90.0000     140.0000       0.0000       
 155                             1155                            1156                                  0.7000      90.0000     140.0000       0.0000       
 156                             1154                            1155                                 49.1200      90.0000     140.0000       0.0000       
 157                             1153                            1154                                  2.0800      90.0000     140.0000       0.0000       
 158                             1152                            1153                                 47.6000      90.0000     140.0000       0.0000       
 159                             1151                            1152                                  0.3600      90.0000     140.0000       0.0000       
 160                             1150                            1151                                 17.9500      90.0000     140.0000       0.0000       
 161                             1149                            1150                                 32.4900      90.0000     140.0000       0.0000       
 162                             1146                            1147                                  6.1300      90.0000     140.0000       0.0000       
 163                             1147                            1148                                 43.5700      90.0000     140.0000       0.0000       
 164                             1148                            1149                                  0.4500      90.0000     140.0000       0.0000       
 165                             1090                            675                                  26.5000      63.0000     140.0000       0.0000       
 166                             1088                            1089                                  5.2800      63.0000     140.0000       0.0000       
 167                             1086                            1087                                 29.4300      63.0000     140.0000       0.0000       
 168                             1085                            1086                                 18.7900      63.0000     140.0000       0.0000       
 188                             520                             1080                                  3.5600      90.0000     140.0000       0.0000       
 189                             1080                            1081                                 53.2700      90.0000     140.0000       0.0000       
 190                             1081                            1082                                 14.6600      90.0000     140.0000       0.0000       
 191                             1082                            1083                                 49.7900      90.0000     140.0000       0.0000       
 192                             1084                            1085                                 51.0000      63.0000     140.0000       0.0000       
 194                             961                             962                                  10.3100      50.0000     132.0000       0.0000       
 195                             920                             921                                   9.5300      50.0000     132.0000       0.0000       
 196                             959                             960                                   4.9500      50.0000     132.0000       0.0000       
 197                             878                             879                                  32.5100      50.0000     132.0000       0.0000       
 198                             879                             880                                  18.0200      50.0000     132.0000       0.0000       
 199                             880                             881                                  17.8700      50.0000     132.0000       0.0000       
 200                             881                             882                                   2.7400      50.0000     132.0000       0.0000       
 201                             871                             883                                  18.7100      50.0000     132.0000       0.0000       
 202                             883                             884                                  27.3400      50.0000     132.0000       0.0000       
 203                             884                             882                                   2.4400      50.0000     132.0000       0.0000       
 204                             882                             885                                  16.4100      50.0000     132.0000       0.0000       
 205                             885                             886                                  21.1700      50.0000     132.0000       0.0000       
 206                             886                             887                                   9.2100      50.0000     132.0000       0.0000       
 207                             888                             889                                  14.7200      50.0000     132.0000       0.0000       
 208                             877                             878                                  20.7100      50.0000     132.0000       0.0000       
 209                             889                             890                                  20.3900      50.0000     132.0000       0.0000       
 210                             891                             892                                  16.2400      50.0000     132.0000       0.0000       
 211                             892                             893                                   6.4800      50.0000     132.0000       0.0000       
 212                             894                             895                                  20.0800      50.0000     132.0000       0.0000       
 213                             895                             896                                  20.8500      50.0000     132.0000       0.0000       
 214                             896                             897                                  19.3700      50.0000     132.0000       0.0000       
 215                             897                             898                                  20.8800      50.0000     132.0000       0.0000       
 216                             898                             899                                  10.8600      50.0000     132.0000       0.0000       
 217                             900                             901                                  18.3300      50.0000     132.0000       0.0000       
 218                             888                             902                                  19.4900      50.0000     132.0000       0.0000       
 219                             902                             903                                  29.9100      50.0000     132.0000       0.0000       
 220                             904                             899                                   1.2500      50.0000     132.0000       0.0000       
 221                             890                             891                                  21.4100      50.0000     132.0000       0.0000       
 222                             903                             905                                   6.1500      50.0000     132.0000       0.0000       
 223                             876                             873                                  19.3900      50.0000     132.0000       0.0000       
 224                             850                             874                                   5.9100      50.0000     132.0000       0.0000       
 225                             849                             850                                  12.9100      50.0000     132.0000       0.0000       
 226                             850                             851                                   5.4900      50.0000     132.0000       0.0000       
 227                             851                             852                                  17.2200      50.0000     132.0000       0.0000       
 228                             852                             853                                  15.3800      50.0000     132.0000       0.0000       
 229                             853                             854                                   7.5500      50.0000     132.0000       0.0000       
 230                             854                             855                                  16.5200      50.0000     132.0000       0.0000       
 231                             855                             856                                  22.6100      50.0000     132.0000       0.0000       
 232                             856                             857                                  23.7100      50.0000     132.0000       0.0000       
 233                             857                             858                                   4.2100      50.0000     132.0000       0.0000       
 234                             858                             859                                   1.2900      50.0000     132.0000       0.0000       
 235                             859                             860                                   2.3900      50.0000     132.0000       0.0000       
 236                             875                             876                                  16.4900      50.0000     132.0000       0.0000       
 237                             860                             861                                   5.8600      50.0000     132.0000       0.0000       
 238                             862                             863                                  18.7400      50.0000     132.0000       0.0000       
 239                             863                             864                                   3.3400      50.0000     132.0000       0.0000       
 240                             865                             866                                   4.4400      50.0000     132.0000       0.0000       
 241                             866                             864                                   1.5300      50.0000     132.0000       0.0000       
 242                             864                             867                                   1.9800      50.0000     132.0000       0.0000       
 243                             867                             868                                  16.7500      50.0000     132.0000       0.0000       
 244                             868                             869                                  10.0900      50.0000     132.0000       0.0000       
 245                             869                             870                                   4.2700      50.0000     132.0000       0.0000       
 246                             870                             871                                   5.6400      50.0000     132.0000       0.0000       
 247                             871                             872                                   4.1600      50.0000     132.0000       0.0000       
 248                             872                             873                                  28.6900      50.0000     132.0000       0.0000       
 249                             861                             862                                  17.7400      50.0000     132.0000       0.0000       
 250                             899                             906                                  24.6600      50.0000     132.0000       0.0000       
 251                             906                             907                                  17.3400      50.0000     132.0000       0.0000       
 252                             907                             901                                   6.1100      50.0000     132.0000       0.0000       
 253                             937                             938                                  20.3200      50.0000     132.0000       0.0000       
 254                             938                             939                                  24.5400      50.0000     132.0000       0.0000       
 255                             939                             940                                  24.8100      50.0000     132.0000       0.0000       
 256                             940                             941                                  12.6400      50.0000     132.0000       0.0000       
 257                             932                             926                                  18.4100      50.0000     132.0000       0.0000       
 258                             926                             942                                   5.2800      50.0000     132.0000       0.0000       
 259                             942                             943                                  17.1800      50.0000     132.0000       0.0000       
 260                             943                             944                                  15.0300      50.0000     132.0000       0.0000       
 261                             944                             945                                  12.0200      50.0000     132.0000       0.0000       
 262                             941                             946                                  11.9800      50.0000     132.0000       0.0000       
 263                             946                             947                                  17.9500      50.0000     132.0000       0.0000       
 264                             936                             937                                  22.5300      50.0000     132.0000       0.0000       
 265                             947                             948                                  16.0500      50.0000     132.0000       0.0000       
 266                             949                             950                                   5.0900      50.0000     132.0000       0.0000       
 267                             950                             951                                  13.4300      50.0000     132.0000       0.0000       
 268                             951                             952                                  21.4100      50.0000     132.0000       0.0000       
 269                             952                             953                                  22.9500      50.0000     132.0000       0.0000       
 270                             953                             954                                  19.8000      50.0000     132.0000       0.0000       
 271                             954                             955                                  22.5200      50.0000     132.0000       0.0000       
 272                             955                             956                                  18.4300      50.0000     132.0000       0.0000       
 273                             956                             957                                  21.7600      50.0000     132.0000       0.0000       
 274                             957                             884                                   7.4000      50.0000     132.0000       0.0000       
 275                             870                             958                                  11.7800      50.0000     132.0000       0.0000       
 276                             958                             959                                   8.6600      50.0000     132.0000       0.0000       
 277                             948                             949                                   5.3700      50.0000     132.0000       0.0000       
 278                             935                             936                                  24.5400      50.0000     132.0000       0.0000       
 279                             934                             935                                  15.5900      50.0000     132.0000       0.0000       
 280                             933                             934                                   7.6500      50.0000     132.0000       0.0000       
 281                             901                             908                                   7.2800      50.0000     132.0000       0.0000       
 282                             908                             909                                  13.5700      50.0000     132.0000       0.0000       
 283                             909                             910                                  27.9500      50.0000     132.0000       0.0000       
 284                             910                             911                                  20.8400      50.0000     132.0000       0.0000       
 285                             911                             912                                  20.6000      50.0000     132.0000       0.0000       
 286                             912                             913                                  28.9700      50.0000     132.0000       0.0000       
 287                             913                             914                                  19.6400      50.0000     132.0000       0.0000       
 288                             914                             915                                  12.5100      50.0000     132.0000       0.0000       
 289                             915                             916                                   3.6700      50.0000     132.0000       0.0000       
 290                             917                             918                                  26.9200      50.0000     132.0000       0.0000       
 291                             918                             919                                   9.4700      50.0000     132.0000       0.0000       
 292                             919                             920                                   9.8000      50.0000     132.0000       0.0000       
 293                             1156                            1157                                 48.8800      90.0000     140.0000       0.0000       
 294                             921                             922                                  18.6400      50.0000     132.0000       0.0000       
 295                             922                             923                                  13.9300      50.0000     132.0000       0.0000       
 296                             923                             916                                  14.8300      50.0000     132.0000       0.0000       
 297                             916                             924                                  10.2200      50.0000     132.0000       0.0000       
 298                             924                             925                                  19.8300      50.0000     132.0000       0.0000       
 299                             925                             926                                  17.7100      50.0000     132.0000       0.0000       
 300                             905                             927                                  10.9800      50.0000     132.0000       0.0000       
 301                             927                             928                                  25.2700      50.0000     132.0000       0.0000       
 302                             928                             929                                  24.5900      50.0000     132.0000       0.0000       
 303                             929                             930                                  25.2200      50.0000     132.0000       0.0000       
 304                             930                             931                                  18.3500      50.0000     132.0000       0.0000       
 305                             931                             932                                  24.3400      50.0000     132.0000       0.0000       
 306                             960                             961                                  15.5400      50.0000     132.0000       0.0000       
 307                             1157                            1158                                 55.8600      90.0000     140.0000       0.0000       
 308                             874                             875                                  20.4700      50.0000     132.0000       0.0000       
 309                             1083                            1160                                 13.7400      63.0000     140.0000       0.0000       
 310                             1285                            1288                                  6.1700      63.0000     140.0000       0.0000       
 311                             1288                            1289                                 28.8500      63.0000     140.0000       0.0000       
 312                             1289                            1290                                 26.0000      63.0000     140.0000       0.0000       
 313                             1290                            1291                                 27.1100      63.0000     140.0000       0.0000       
 314                             1291                            1292                                 53.6500      63.0000     140.0000       0.0000       
 315                             1292                            1293                                 36.1900      63.0000     140.0000       0.0000       
 316                             1293                            1294                                  5.1900      63.0000     140.0000       0.0000       
 317                             1294                            1295                                 34.4900      63.0000     140.0000       0.0000       
 318                             1295                            1296                                 54.9800      63.0000     140.0000       0.0000       
 319                             1296                            1297                                 28.1100      63.0000     140.0000       0.0000       
 320                             1290                            1297                                  6.4200      63.0000     140.0000       0.0000       
 321                             1278                            1285                                 37.1000      63.0000     140.0000       0.0000       
 322                             1297                            1298                                 30.5000      63.0000     140.0000       0.0000       
 323                             1225                            1300                                 52.4600      63.0000     140.0000       0.0000       
 324                             1300                            1301                                 70.1100      63.0000     140.0000       0.0000       
 325                             1301                            1302                                 50.2800      63.0000     140.0000       0.0000       
 326                             1302                            1303                                 52.8100      63.0000     140.0000       0.0000       
 327                             1303                            1268                                  7.3200      63.0000     140.0000       0.0000       
 328                             1268                            1304                                 27.4800      63.0000     140.0000       0.0000       
 329                             1304                            1305                                 23.7100      63.0000     140.0000       0.0000       
 330                             1234                            1306                                 55.8200      63.0000     140.0000       0.0000       
 331                             1306                            1307                                 60.2900      63.0000     140.0000       0.0000       
 332                             1307                            1308                                 62.8400      63.0000     140.0000       0.0000       
 333                             1308                            1309                                 30.1500      63.0000     140.0000       0.0000       
 334                             1298                            1299                                 24.9900      63.0000     140.0000       0.0000       
 335                             1309                            1310                                 10.3400      63.0000     140.0000       0.0000       
 336                             1287                            1288                                 42.8500      63.0000     140.0000       0.0000       
 337                             1282                            1286                                  4.5700      63.0000     140.0000       0.0000       
 338                             1261                            1262                                 54.8200      63.0000     140.0000       0.0000       
 339                             1262                            1263                                 52.0400      63.0000     140.0000       0.0000       
 340                             1263                            1264                                 48.6500      63.0000     140.0000       0.0000       
 341                             1264                            1265                                 28.1500      63.0000     140.0000       0.0000       
 342                             1260                            1266                                 36.2300      63.0000     140.0000       0.0000       
 343                             1266                            1267                                 49.0600      63.0000     140.0000       0.0000       
 344                             1267                            1268                                 39.2800      63.0000     140.0000       0.0000       
 345                             1224                            1269                                 27.0300      63.0000     140.0000       0.0000       
 346                             1269                            1270                                 26.9200      63.0000     140.0000       0.0000       
 347                             1270                            1271                                 32.6900      63.0000     140.0000       0.0000       
 348                             1271                            1272                                 17.7900      63.0000     140.0000       0.0000       
 349                             1286                            1287                                 77.5000      63.0000     140.0000       0.0000       
 350                             1272                            1273                                  3.5600      63.0000     140.0000       0.0000       
 351                             1274                            1275                                 34.3700      63.0000     140.0000       0.0000       
 352                             1275                            1276                                 30.0000      63.0000     140.0000       0.0000       
 353                             1276                            1277                                 33.1500      63.0000     140.0000       0.0000       
 354                             1277                            1278                                 20.2800      63.0000     140.0000       0.0000       
 355                             1270                            1278                                 69.7700      63.0000     140.0000       0.0000       
 356                             1279                            1280                                 23.9000      63.0000     140.0000       0.0000       
 357                             1280                            1281                                 20.4200      63.0000     140.0000       0.0000       
 358                             1281                            1282                                  5.8900      63.0000     140.0000       0.0000       
 359                             1281                            1283                                  4.5600      63.0000     140.0000       0.0000       
 360                             1283                            1284                                 72.2800      63.0000     140.0000       0.0000       
 361                             1284                            1285                                 48.1600      63.0000     140.0000       0.0000       
 362                             1273                            1274                                  5.5600      63.0000     140.0000       0.0000       
 363                             1310                            1311                                  3.7100      63.0000     140.0000       0.0000       
 364                             1311                            1312                                  4.4700      63.0000     140.0000       0.0000       
 365                             1312                            1303                                 48.4000      63.0000     140.0000       0.0000       
 366                             1338                            1339                                 51.0000      32.0000     137.0000       0.0000       
 367                             1339                            1340                                 49.3000      32.0000     137.0000       0.0000       
 368                             1340                            1341                                 21.1000      32.0000     137.0000       0.0000       
 369                             1340                            1342                                100.0000      32.0000     137.0000       0.0000       
 370                             1339                            1343                                109.0000      32.0000     137.0000       0.0000       
 371                             1338                            1344                                160.6300      32.0000     137.0000       0.0000       
 372                             1344                            1345                                 34.6300      32.0000     137.0000       0.0000       
 373                             1336                            1346                                  3.4500      32.0000     137.0000       0.0000       
 374                             1346                            1337                                  6.5700      32.0000     137.0000       0.0000       
 375                             1446                            1447                                  3.0000     100.0000     118.0000       0.0000       
 376                             1447                            1448                                 17.8900     100.0000     118.0000       0.0000       
 377                             1337                            1338                                 57.0300      32.0000     137.0000       0.0000       
 378                             1448                            1449                                  2.5600     100.0000     118.0000       0.0000       
 379                             1458                            1004                                  0.3000     100.0000     118.0000       0.0000       
 380                             1449                            1483                                  1.5500     100.0000     118.0000       0.0000       
 381                             1483                            1484                                  1.2700     100.0000     118.0000       0.0000       
 382                             1334                            1335                                  1.2300      85.0000     137.0000       0.0000       
 383                             962                             1612                                 83.6700      50.0000     137.0000       0.0000       
 384                             917                             1613                                 51.3300      50.0000     137.0000       0.0000       
 385                             1613                            1614                                 92.8000      50.0000     137.0000       0.0000       
 386                             1614                            1615                                  9.6000      50.0000     137.0000       0.0000       
 387                             1615                            1616                                 79.7200      50.0000     137.0000       0.0000       
 388                             1616                            807                                 194.8600      50.0000     137.0000       0.0000       
 390                             1434                            1446                                  0.9500     100.0000     118.0000       0.0000       
 391                             66                              1336                                 13.0700      60.0000     137.0000       0.0000       
 392                             1335                            102                                   3.2600      85.0000     137.0000       0.0000       
 393                             1222                            42                                    8.6700      90.0000     140.0000       0.0000       
 394                             1235                            1313                                 56.5700      63.0000     140.0000       0.0000       
 395                             1313                            1314                                 59.0200      63.0000     140.0000       0.0000       
 396                             1314                            1315                                 72.8600      63.0000     140.0000       0.0000       
 397                             1315                            1316                                 27.9300      63.0000     140.0000       0.0000       
 398                             1316                            1317                                  4.0700      63.0000     140.0000       0.0000       
 399                             1317                            1318                                  4.1600      63.0000     140.0000       0.0000       
 400                             1265                            1319                                  5.3100      63.0000     140.0000       0.0000       
 401                             1319                            1320                                 19.8500      63.0000     140.0000       0.0000       
 402                             1320                            1318                                 24.9100      63.0000     140.0000       0.0000       
 403                             1255                            1321                                 22.9100      63.0000     140.0000       0.0000       
 404                             1321                            1322                                 32.7300      63.0000     140.0000       0.0000       
 405                             1322                            1323                                 53.6900      63.0000     140.0000       0.0000       
 406                             1323                            1324                                 43.2700      63.0000     140.0000       0.0000       
 407                             1324                            1325                                 50.9900      63.0000     140.0000       0.0000       
 408                             1325                            1326                                 97.4600      63.0000     140.0000       0.0000       
 409                             1326                            1327                                 38.4300      63.0000     140.0000       0.0000       
 410                             1327                            1328                                  5.7300      63.0000     140.0000       0.0000       
 411                             1328                            1329                                 74.0100      63.0000     140.0000       0.0000       
 412                             1329                            1330                                 85.6600      63.0000     140.0000       0.0000       
 413                             1330                            1305                                 29.8500      63.0000     140.0000       0.0000       
 414                             1305                            1299                                  6.0100      63.0000     140.0000       0.0000       
 415                             1299                            1331                                 20.7000      63.0000     140.0000       0.0000       
 416                             1331                            1332                                 41.8900      63.0000     140.0000       0.0000       
 417                             1332                            1333                                 64.8000      63.0000     140.0000       0.0000       
 418                             1333                            1334                                 15.5500      63.0000     140.0000       0.0000       
 419                             1244                            1261                                 35.2500      63.0000     140.0000       0.0000       
 420                             1158                            1159                                  3.4500      90.0000     140.0000       0.0000       
 421                             1259                            1260                                 36.4300      63.0000     140.0000       0.0000       
 422                             1257                            1258                                 49.2300      63.0000     140.0000       0.0000       
 423                             1185                            1186                                 28.8800      63.0000     140.0000       0.0000       
 424                             1186                            1085                                 34.8800      63.0000     140.0000       0.0000       
 425                             1089                            1187                                 23.4900      63.0000     140.0000       0.0000       
 426                             1187                            1188                                  6.8600      63.0000     140.0000       0.0000       
 427                             1164                            1188                                 19.0700      63.0000     140.0000       0.0000       
 428                             1148                            1189                                 60.8100      63.0000     140.0000       0.0000       
 429                             1189                            1190                                  5.7200      63.0000     140.0000       0.0000       
 430                             1190                            1191                                  6.0300      63.0000     140.0000       0.0000       
 431                             1191                            1192                                 27.1500      63.0000     140.0000       0.0000       
 432                             1192                            1193                                 21.9700      63.0000     140.0000       0.0000       
 433                             1193                            1089                                 25.1600      63.0000     140.0000       0.0000       
 434                             1151                            1185                                 89.8300      63.0000     140.0000       0.0000       
 435                             1090                            1164                                  0.8900      63.0000     140.0000       0.0000       
 436                             1178                            1194                                 40.0000      63.0000     140.0000       0.0000       
 437                             1156                            1195                                108.8400      63.0000     140.0000       0.0000       
 438                             1176                            1196                                 19.3700      63.0000     140.0000       0.0000       
 439                             1173                            1197                                 58.2800      63.0000     140.0000       0.0000       
 440                             1172                            1198                                  4.4100      63.0000     140.0000       0.0000       
 441                             1170                            1199                                 25.9300      63.0000     140.0000       0.0000       
 442                             1181                            1200                                 24.3800      63.0000     140.0000       0.0000       
 443                             1201                            1202                                  6.0800      63.0000     140.0000       0.0000       
 444                             1202                            1203                                 40.5900      63.0000     140.0000       0.0000       
 445                             1203                            1204                                 46.7100      63.0000     140.0000       0.0000       
 446                             1204                            1205                                 24.7000      63.0000     140.0000       0.0000       
 447                             848                             849                                  29.6100      50.0000     132.0000       0.0000       
 448                             1082                            1201                                  4.8700      63.0000     140.0000       0.0000       
 449                             1184                            1092                                 16.4300      63.0000     140.0000       0.0000       
 450                             1182                            1183                                 82.8300      63.0000     140.0000       0.0000       
 451                             1160                            1161                                 26.7900      63.0000     140.0000       0.0000       
 452                             1161                            1162                                 28.6700      63.0000     140.0000       0.0000       
 453                             1162                            1163                                 11.1200      63.0000     140.0000       0.0000       
 454                             1163                            1091                                 55.5300      63.0000     140.0000       0.0000       
 455                             1091                            1090                                 50.6200      63.0000     140.0000       0.0000       
 456                             1164                            1165                                 35.5400      63.0000     140.0000       0.0000       
 457                             1165                            1166                                 35.8100      63.0000     140.0000       0.0000       
 458                             1166                            1167                                 26.9800      63.0000     140.0000       0.0000       
 459                             1167                            1168                                  5.2200      63.0000     140.0000       0.0000       
 460                             1168                            1146                                 37.6400      63.0000     140.0000       0.0000       
 461                             1147                            1169                                 54.2700      63.0000     140.0000       0.0000       
 462                             1183                            1184                                 21.1900      63.0000     140.0000       0.0000       
 463                             1169                            1170                                  9.1500      63.0000     140.0000       0.0000       
 464                             1171                            1172                                 63.2300      63.0000     140.0000       0.0000       
 465                             1152                            1173                                 48.1300      63.0000     140.0000       0.0000       
 466                             1154                            1174                                 23.1400      63.0000     140.0000       0.0000       
 467                             1174                            1175                                 51.3900      63.0000     140.0000       0.0000       
 468                             1175                            1176                                 14.7700      63.0000     140.0000       0.0000       
 469                             1157                            1177                                 38.4500      63.0000     140.0000       0.0000       
 470                             1177                            1178                                 36.2100      63.0000     140.0000       0.0000       
 471                             1155                            1179                                 56.2300      63.0000     140.0000       0.0000       
 472                             1179                            1180                                 25.0000      63.0000     140.0000       0.0000       
 473                             1180                            1181                                 17.1200      63.0000     140.0000       0.0000       
 474                             1153                            1182                                 31.9900      63.0000     140.0000       0.0000       
 475                             1149                            1171                                 29.1000      63.0000     140.0000       0.0000       
 476                             1206                            1207                                 36.3100      63.0000     140.0000       0.0000       
 477                             1207                            1208                                 40.7700      63.0000     140.0000       0.0000       
 478                             1208                            1209                                 29.6400      63.0000     140.0000       0.0000       
 479                             1235                            1236                                 24.6900      90.0000     140.0000       0.0000       
 480                             1236                            1237                                 30.3300      63.0000     140.0000       0.0000       
 481                             1237                            1238                                 48.9600      63.0000     140.0000       0.0000       
 482                             1238                            1239                                 41.3900      63.0000     140.0000       0.0000       
 483                             1239                            1240                                  4.7900      63.0000     140.0000       0.0000       
 484                             1240                            1241                                 40.9300      63.0000     140.0000       0.0000       
 485                             1241                            1242                                 46.1000      63.0000     140.0000       0.0000       
 486                             1242                            1243                                 33.4600      63.0000     140.0000       0.0000       
 487                             1236                            1243                                  4.3800      90.0000     140.0000       0.0000       
 488                             1243                            1244                                 25.8000      90.0000     140.0000       0.0000       
 489                             1244                            1245                                  6.4900      90.0000     140.0000       0.0000       
 490                             1234                            1235                                  6.9100      90.0000     140.0000       0.0000       
 491                             1245                            1246                                 11.6200      90.0000     140.0000       0.0000       
 492                             1247                            1248                                 52.3200      63.0000     140.0000       0.0000       
 493                             1248                            1249                                 40.0700      63.0000     140.0000       0.0000       
 494                             1249                            1250                                 20.6700      63.0000     140.0000       0.0000       
 495                             1250                            1251                                  5.1100      63.0000     140.0000       0.0000       
 496                             1251                            1252                                 17.8500      63.0000     140.0000       0.0000       
 497                             1252                            1253                                 45.3600      63.0000     140.0000       0.0000       
 498                             1253                            1254                                 50.1800      63.0000     140.0000       0.0000       
 499                             1254                            1255                                  5.0100      63.0000     140.0000       0.0000       
 500                             1246                            1255                                  4.4400      90.0000     140.0000       0.0000       
 501                             1245                            1256                                 35.5600      63.0000     140.0000       0.0000       
 502                             1256                            1257                                 55.5600      63.0000     140.0000       0.0000       
 503                             1246                            1247                                  4.8400      63.0000     140.0000       0.0000       
 504                             1233                            1234                                 12.1600      90.0000     140.0000       0.0000       
 505                             1226                            1233                                  5.1100      90.0000     140.0000       0.0000       
 506                             1232                            1233                                 33.9700      63.0000     140.0000       0.0000       
 507                             1209                            1210                                  6.0800      63.0000     140.0000       0.0000       
 508                             1210                            1211                                 30.4400      63.0000     140.0000       0.0000       
 509                             1211                            1212                                 41.5300      63.0000     140.0000       0.0000       
 510                             1212                            1213                                 34.7600      63.0000     140.0000       0.0000       
 511                             1214                            1215                                 35.7300      63.0000     140.0000       0.0000       
 512                             1215                            1216                                 48.1200      63.0000     140.0000       0.0000       
 513                             1216                            1217                                 34.7100      63.0000     140.0000       0.0000       
 514                             1217                            1218                                  5.9800      63.0000     140.0000       0.0000       
 515                             1218                            1219                                 35.8100      63.0000     140.0000       0.0000       
 516                             1219                            1220                                 46.7600      63.0000     140.0000       0.0000       
 517                             1220                            1221                                 36.9000      63.0000     140.0000       0.0000       
 518                             1206                            1213                                  5.3400      90.0000     140.0000       0.0000       
 519                             1222                            1223                                 21.7500      90.0000     140.0000       0.0000       
 520                             1223                            1206                                 19.9700      90.0000     140.0000       0.0000       
 521                             1213                            1214                                 44.3400      90.0000     140.0000       0.0000       
 522                             1214                            1221                                  4.9200      90.0000     140.0000       0.0000       
 523                             1221                            1224                                  2.8100      90.0000     140.0000       0.0000       
 524                             1224                            1225                                  4.9700      90.0000     140.0000       0.0000       
 525                             1225                            1226                                 38.9100      90.0000     140.0000       0.0000       
 526                             1226                            1227                                 24.6000      63.0000     140.0000       0.0000       
 527                             1227                            1228                                 68.5600      63.0000     140.0000       0.0000       
 528                             1228                            1229                                 20.1700      63.0000     140.0000       0.0000       
 529                             1229                            1230                                  4.3600      63.0000     140.0000       0.0000       
 530                             1230                            1231                                 19.8900      63.0000     140.0000       0.0000       
 531                             1231                            1232                                 60.3900      63.0000     140.0000       0.0000       
 532                             1258                            1259                                 49.7600      63.0000     140.0000       0.0000       
 533                             1092                            1084                                  1.5100      63.0000     140.0000       0.0000       
 535                             1349                            1350                                139.1100      32.0000     140.0000       0.0000       
 536                             1351                            1352                                 84.8100      32.0000     140.0000       0.0000       
 537                             381                             1353                                 26.0700      32.0000     140.0000       0.0000       
 538                             1353                            1354                                 40.3300      32.0000     140.0000       0.0000       
 539                             1354                            1355                                136.7000      32.0000     140.0000       0.0000       
 540                             1356                            1357                                163.0700      32.0000     140.0000       0.0000       
 541                             1357                            49                                   57.6800      32.0000     140.0000       0.0000       
 542                             1355                            1356                                 47.1900      32.0000     140.0000       0.0000       
 543                             557                             558                                  13.5400      85.0000     135.0000       0.0000       
 544                             203                             204                                  41.6700      85.0000     135.0000       0.0000       
 545                             101                             205                                  17.4800      60.0000     135.0000       0.0000       
 546                             205                             Dom_Francisco_CH12_LT14              81.6400      60.0000     135.0000       0.0000       
 547                             Dom_Francisco_CH12_LT14         207                                   3.5400      60.0000     135.0000       0.0000       
 548                             208                             209                                  35.6500      85.0000     135.0000       0.0000       
 549                             209                             101                                   9.3500      85.0000     135.0000       0.0000       
 550                             112                             113                                  64.5500      60.0000     135.0000       0.0000       
 551                             210                             211                                   6.6900      32.0000     137.0000       0.0000       
 552                             211                             212                                  21.2800      32.0000     137.0000       0.0000       
 553                             111                             212                                  17.5400      60.0000     135.0000       0.0000       
 554                             117                             213                                   9.0100      32.0000     137.0000       0.0000       
 555                             214                             215                                  59.9000      32.0000     137.0000       0.0000       
 556                             215                             210                                   2.3400      32.0000     137.0000       0.0000       
 557                             202                             203                                   9.5000      85.0000     135.0000       0.0000       
 558                             44                              103                                  59.7700      85.0000     135.0000       0.0000       
 559                             199                             47                                   46.0200      85.0000     135.0000       0.0000       
 560                             200                             201                                  38.2300      85.0000     135.0000       0.0000       
 561                             47                              200                                   3.3400      85.0000     135.0000       0.0000       
 562                             117                             216                                  22.9900      85.0000     135.0000       0.0000       
 563                             198                             199                                   6.4700      85.0000     135.0000       0.0000       
 564                             53                              197                                   5.5900      85.0000     135.0000       0.0000       
 565                             195                             196                                   1.0000      50.0000     135.0000       0.0000       
 566                             196                             193                                   8.4000      60.0000     135.0000       0.0000       
 567                             5                               195                                   4.1000      50.0000     135.0000       0.0000       
 568                             54                              193                                   7.8800      85.0000     135.0000       0.0000       
 569                             194                             12                                  161.9100      85.0000     135.0000       0.0000       
 570                             193                             194                                  23.8000      85.0000     135.0000       0.0000       
 571                             192                             188                                  55.6300      85.0000     135.0000       0.0000       
 572                             192                             190                                  34.4500      85.0000     135.0000       0.0000       
 573                             53                              191                                   8.9200      60.0000     135.0000       0.0000       
 574                             201                             41                                    9.8900      85.0000     135.0000       0.0000       
 575                             180                             217                                 345.9200      60.0000     135.0000       0.0000       
 576                             220                             184                                  14.8900      60.0000     135.0000       0.0000       
 577                             183                             219                                 156.4500      60.0000     135.0000       0.0000       
 578                             253                             245                                   0.3900     110.0000     135.0000       0.0000       
 579                             252                             253                                   2.3500     110.0000     135.0000       0.0000       
 580                             251                             252                                   0.2100     110.0000     135.0000       0.0000       
 581                             250                             251                                   0.3200     110.0000     135.0000       0.0000       
 582                             248                             249                                   1.0600     110.0000     135.0000       0.0000       
 583                             247                             248                                   0.7800     110.0000     135.0000       0.0000       
 584                             246                             149                                   1.2100     110.0000     135.0000       0.0000       
 585                             245                             246                                   1.2100     110.0000     135.0000       0.0000       
 586                             243                             244                                  12.1400      85.0000     135.0000       0.0000       
 587                             242                             243                                  21.5800      85.0000     135.0000       0.0000       
 588                             159                             242                                  21.2200      85.0000     135.0000       0.0000       
 589                             240                             241                                  70.8100      85.0000     135.0000       0.0000       
 590                             238                             239                                  14.3200     110.0000     135.0000       0.0000       
 591                             237                             238                                  20.7200     110.0000     135.0000       0.0000       
 592                             236                             237                                  11.5400     110.0000     135.0000       0.0000       
 593                             235                             236                                  11.5400     110.0000     135.0000       0.0000       
 594                             234                             235                                  18.9400     110.0000     135.0000       0.0000       
 595                             220                             221                                   8.2000      32.0000     137.0000       0.0000       
 596                             221                             222                                  35.8000      32.0000     137.0000       0.0000       
 597                             190                             121                                  86.4400      85.0000     135.0000       0.0000       
 598                             223                             224                                   6.0600     110.0000     135.0000       0.0000       
 599                             224                             225                                  19.6900     110.0000     135.0000       0.0000       
 600                             225                             226                                  21.2300     110.0000     135.0000       0.0000       
 601                             217                             218                                  12.1700      60.0000     135.0000       0.0000       
 602                             226                             227                                  21.6800     110.0000     135.0000       0.0000       
 603                             228                             229                                  16.5800     110.0000     135.0000       0.0000       
 604                             229                             230                                  21.6200     110.0000     135.0000       0.0000       
 605                             230                             231                                  21.4900     110.0000     135.0000       0.0000       
 606                             231                             232                                  12.5400     110.0000     135.0000       0.0000       
 607                             232                             233                                  21.0100     110.0000     135.0000       0.0000       
 608                             233                             234                                  19.9200     110.0000     135.0000       0.0000       
 609                             227                             228                                  21.8200     110.0000     135.0000       0.0000       
 610                             29                              189                                 152.2000      60.0000     135.0000       0.0000       
 611                             184                             185                                  57.1600      60.0000     135.0000       0.0000       
 612                             19                              15                                   78.5600      60.0000     135.0000       0.0000       
 613                             152                             137                                 196.0400      50.0000     135.0000       0.0000       
 614                             139                             152                                  37.6800      50.0000     135.0000       0.0000       
 615                             140                             11                                   75.1700      60.0000     135.0000       0.0000       
 616                             51                              6                                   136.0300      50.0000     135.0000       0.0000       
 617                             140                             4                                   159.0000      50.0000     135.0000       0.0000       
 618                             139                             20                                   74.0000      50.0000     135.0000       0.0000       
 619                             130                             7                                    73.8700      50.0000     135.0000       0.0000       
 620                             130                             151                                  73.0000      50.0000     135.0000       0.0000       
 621                             6                               151                                  90.6900      50.0000     135.0000       0.0000       
 622                             150                             100                                  66.0000      50.0000     135.0000       0.0000       
 623                             148                             149                                   0.9900     110.0000     135.0000       0.0000       
 624                             63                              147                                   5.8100      40.0000     135.0000       0.0000       
 625                             145                             146                                   3.2900     110.0000     135.0000       0.0000       
 626                             144                             145                                   5.0500     110.0000     135.0000       0.0000       
 627                             143                             144                                   5.2000     110.0000     135.0000       0.0000       
 628                             141                             142                                   4.4000      60.0000     135.0000       0.0000       
 629                             51                              140                                  69.9000      60.0000     135.0000       0.0000       
 630                             1369                            1370                                 20.6600     110.0000     135.0000       0.0000       
 631                             1368                            1369                                 21.2200     110.0000     135.0000       0.0000       
 632                             1367                            1368                                 21.3700     110.0000     135.0000       0.0000       
 633                             1366                            1367                                  9.5200     110.0000     135.0000       0.0000       
 634                             1365                            1366                                  6.3500     110.0000     135.0000       0.0000       
 635                             1364                            1365                                  8.1700     110.0000     135.0000       0.0000       
 636                             20                              138                                 233.0200      50.0000     135.0000       0.0000       
 637                             1363                            1364                                 20.0700     110.0000     135.0000       0.0000       
 638                             1361                            1362                                 19.5800     110.0000     135.0000       0.0000       
 639                             1360                            1361                                 20.2700     110.0000     135.0000       0.0000       
 640                             1358                            1359                                112.4400     110.0000     135.0000       0.0000       
 641                             1348                            1347                                 47.5200      60.0000     135.0000       0.0000       
 642                             219                             1348                                  3.4800      60.0000     135.0000       0.0000       
 643                             1347                            1124                                 51.0000      60.0000     135.0000       0.0000       
 644                             1362                            1363                                 20.6600     110.0000     135.0000       0.0000       
 645                             188                             109                                   3.4600      85.0000     135.0000       0.0000       
 646                             153                             154                                  76.0000      50.0000     135.0000       0.0000       
 647                             155                             156                                 230.1300      60.0000     135.0000       0.0000       
 648                             185                             187                                   6.0000      60.0000     135.0000       0.0000       
 649                             186                             178                                  50.9400      60.0000     135.0000       0.0000       
 650                             254                             255                                   2.0300     110.0000     135.0000       0.0000       
 651                             182                             183                                  11.5900      60.0000     135.0000       0.0000       
 652                             181                             182                                   9.0400      60.0000     135.0000       0.0000       
 653                             179                             180                                  28.9000      60.0000     135.0000       0.0000       
 654                             178                             179                                  14.0300      60.0000     135.0000       0.0000       
 655                             19                              138                                  73.3800      60.0000     135.0000       0.0000       
 656                             21                              26                                   73.7400      60.0000     135.0000       0.0000       
 657                             177                             175                                  26.4100      60.0000     135.0000       0.0000       
 658                             21                              177                                  22.5500      60.0000     135.0000       0.0000       
 659                             175                             176                                   4.1000      60.0000     135.0000       0.0000       
 660                             142                             135                                   6.8000      60.0000     135.0000       0.0000       
 661                             126                             23                                   16.9800      60.0000     135.0000       0.0000       
 662                             9                               174                                  14.9700      60.0000     135.0000       0.0000       
 663                             174                             172                                  39.0700      60.0000     135.0000       0.0000       
 664                             172                             173                                  20.1300      60.0000     135.0000       0.0000       
 665                             157                             158                                  11.9300      60.0000     135.0000       0.0000       
 666                             158                             156                                  48.5600      60.0000     135.0000       0.0000       
 667                             159                             160                                  13.5300      60.0000     135.0000       0.0000       
 668                             160                             157                                 230.5300      60.0000     135.0000       0.0000       
 669                             161                             162                                  20.7200      85.0000     135.0000       0.0000       
 670                             162                             163                                  21.8700      85.0000     135.0000       0.0000       
 671                             91                              153                                  41.3400      50.0000     135.0000       0.0000       
 672                             163                             159                                  17.6800      85.0000     135.0000       0.0000       
 673                             165                             161                                  21.4500     110.0000     135.0000       0.0000       
 674                             166                             167                                   8.3100     110.0000     135.0000       0.0000 CLOSED
 675                             167                             168                                   5.9500     110.0000     135.0000       0.0000       
 676                             168                             169                                  13.8000     110.0000     135.0000       0.0000       
 677                             169                             170                                  13.8000     110.0000     135.0000       0.0000       
 678                             170                             171                                  14.3200     110.0000     135.0000       0.0000       
 679                             164                             165                                  19.9000     110.0000     135.0000       0.0000       
 680                             1370                            1371                                 21.3900     110.0000     135.0000       0.0000       
 681                             256                             254                                   2.8000     110.0000     135.0000       0.0000       
 682                             257                             258                                  80.9600      32.0000     137.0000       0.0000       
 690                             644                             606                                  25.5700      32.0000     137.0000       0.0000       
 717                             114                             213                                   8.6100      60.0000     135.0000       0.0000       
 718                             642                             683                                  13.5200      32.0000     137.0000       0.0000       
 719                             1124                            1125                                114.9700      60.0000     135.0000       0.0000       
 721                             1121                            1122                                 47.1200      32.0000     137.0000       0.0000       
 722                             1120                            1121                                171.6800      32.0000     137.0000       0.0000       
 723                             1119                            93                                    0.3500     110.0000     135.0000       0.0000       
 724                             1118                            1119                                  0.1800     110.0000     135.0000       0.0000       
 725                             1125                            482                                   7.4700      60.0000     135.0000       0.0000       
 726                             1117                            1118                                  0.0400     110.0000     135.0000       0.0000       
 727                             1114                            1115                                 13.4900      32.0000     137.0000       0.0000       
 728                             1113                            1114                                 15.9800      32.0000     137.0000       0.0000       
 729                             1112                            1113                                 21.8000      32.0000     137.0000       0.0000       
 730                             1111                            1112                                 13.9200      32.0000     137.0000       0.0000       
 731                             1110                            1111                                 24.0400      32.0000     137.0000       0.0000       
 732                             1109                            1110                                 68.7100      32.0000     137.0000       0.0000       
 733                             1116                            1117                                  0.5700     110.0000     135.0000       0.0000       
 735                             555                             571                                  10.7900     110.0000     135.0000       0.0000       
 736                             571                             1128                                 19.9600     110.0000     135.0000       0.0000       
 737                             625                             115                                  13.4200      32.0000     137.0000       0.0000       
 738                             285                             274                                  13.0100     110.0000     137.0000       0.0000       
 741                             541                             392                                   0.7100     110.0000     135.0000       0.0000 CLOSED
 742                             1134                            250                                   0.8700     110.0000     135.0000       0.0000       
 743                             1132                            1134                                  0.1800     110.0000     135.0000       0.0000       
 744                             402                             92                                    0.2200     110.0000     135.0000       0.0000       
 745                             1133                            245                                   1.0100     110.0000     135.0000       0.0000       
 747                             556                             557                                  22.0200      85.0000     135.0000       0.0000       
 748                             392                             1131                                  2.7200     110.0000     135.0000       0.0000       
 749                             1130                            1131                                 17.3700     110.0000     135.0000       0.0000       
 750                             1129                            1130                                 17.4300     110.0000     135.0000       0.0000       
 751                             1128                            1129                                 21.7700     110.0000     135.0000       0.0000       
 756                             271                             272                                  69.8600      32.0000     137.0000       0.0000       
 757                             272                             273                                   3.6200      32.0000     137.0000       0.0000       
 758                             274                             275                                  39.8100      32.0000     137.0000       0.0000       
 759                             275                             276                                  14.4000      32.0000     137.0000       0.0000       
 760                             276                             277                                  41.4200      32.0000     137.0000       0.0000       
 761                             277                             278                                  12.7300      32.0000     137.0000       0.0000       
 762                             270                             271                                  29.5900      32.0000     137.0000       0.0000       
 763                             279                             280                                 107.7500      32.0000     137.0000       0.0000       
 764                             97                              282                                  52.3300      60.0000     135.0000       0.0000       
 765                             283                             284                                  46.1400      85.0000     135.0000       0.0000       
 766                             281                             283                                  28.1500      85.0000     135.0000       0.0000       
 767                             278                             281                                  51.3900      85.0000     135.0000       0.0000       
 768                             285                             286                                   5.1800     110.0000     135.0000       0.0000       
 769                             286                             287                                  19.2900     110.0000     135.0000       0.0000       
 770                             280                             281                                  22.5900      32.0000     137.0000       0.0000       
 771                             134                             198                                  50.8000      85.0000     135.0000       0.0000       
 772                             269                             202                                  35.5100      32.0000     137.0000       0.0000       
 773                             103                             269                                   6.5400      32.0000     137.0000       0.0000       
 774                             258                             259                                   6.5900      32.0000     137.0000       0.0000       
 775                             41                              260                                 135.5200      32.0000     137.0000       0.0000       
 776                             44                              261                                 132.3400      32.0000     137.0000       0.0000       
 777                             208                             262                                  10.4800      32.0000     137.0000       0.0000       
 778                             262                             263                                  82.8900      32.0000     137.0000       0.0000       
 779                             263                             123                                   6.8600      32.0000     137.0000       0.0000       
 780                             204                             264                                  10.2300      32.0000     137.0000       0.0000       
 781                             264                             265                                  84.5000      32.0000     137.0000       0.0000       
 782                             265                             124                                   6.0000      32.0000     137.0000       0.0000       
 783                             266                             267                                   6.2900      60.0000     135.0000       0.0000       
 784                             267                             268                                  80.7100      60.0000     135.0000       0.0000       
 785                             268                             202                                  12.8700      60.0000     135.0000       0.0000       
 786                             124                             266                                  53.4800      60.0000     135.0000       0.0000       
 787                             207                             123                                  45.1600      60.0000     135.0000       0.0000       
 788                             204                             208                                  52.5400      85.0000     135.0000       0.0000       
 789                             287                             288                                  16.0600     110.0000     135.0000       0.0000       
 790                             134                             257                                   7.0500      32.0000     137.0000       0.0000       
 791                             288                             289                                  27.4700     110.0000     135.0000       0.0000       
 792                             291                             292                                  25.2700     110.0000     135.0000       0.0000       
 811                             292                             293                                  20.8000     110.0000     135.0000       0.0000       
 812                             293                             294                                  11.7700     110.0000     135.0000       0.0000       
 813                             294                             295                                  16.2100     110.0000     135.0000       0.0000       
 814                             178                             296                                  28.0800      60.0000     135.0000       0.0000       
 815                             296                             181                                  29.8000      60.0000     135.0000       0.0000       
 826                             289                             290                                   8.9700     110.0000     135.0000       0.0000       
 827                             1371                            1372                                 19.4300     110.0000     135.0000       0.0000       
 828                             1372                            1373                                 19.8400     110.0000     135.0000       0.0000       
 829                             1373                            1374                                 21.3400     110.0000     135.0000       0.0000       
 830                             1574                            1575                                  2.3700     110.0000     135.0000       0.0000       
 831                             1573                            1574                                  2.3500     110.0000     135.0000       0.0000       
 832                             1572                            1573                                  2.5500     110.0000     135.0000       0.0000       
 833                             1571                            1572                                  2.5400     110.0000     135.0000       0.0000       
 834                             1570                            1571                                  3.7300     110.0000     135.0000       0.0000       
 835                             1568                            1569                                 26.9400     110.0000     135.0000       0.0000       
 836                             1575                            1576                                  2.7400     110.0000     135.0000       0.0000       
 837                             1566                            386                                   0.8200      85.0000     135.0000       0.0000       
 838                             1565                            1566                                  4.8500      85.0000     135.0000       0.0000       
 839                             1564                            1565                                  2.2000      85.0000     135.0000       0.0000       
 840                             1563                            1411                                  7.5200     110.0000     135.0000       0.0000       
 841                             1562                            1563                                  0.0200     110.0000     135.0000       0.0000       
 842                             1498                            1562                                  2.4100     110.0000     135.0000       0.0000       
 843                             59                              60                                   14.8400      32.0000     137.0000       0.0000       
 844                             1499                            1567                                  1.4100     110.0000     135.0000       0.0000       
 845                             61                              62                                   30.2500      85.0000     135.0000       0.0000       
 846                             1576                            1577                                  2.7400     110.0000     135.0000       0.0000       
 847                             1578                            1579                                  6.2000     110.0000     135.0000       0.0000       
 848                             1593                            1594                                 26.6200     110.0000     135.0000       0.0000       
 849                             1592                            1593                                 28.4000     110.0000     135.0000       0.0000       
 850                             1591                            1592                                 26.8500     110.0000     135.0000       0.0000       
 851                             1590                            1591                                 11.4900     110.0000     135.0000       0.0000       
 852                             1589                            1590                                 11.4900     110.0000     135.0000       0.0000       
 853                             1588                            1589                                 16.5600     110.0000     135.0000       0.0000       
 854                             1577                            1578                                  6.2000     110.0000     135.0000       0.0000       
 855                             1586                            1587                                  4.4600     110.0000     135.0000       0.0000       
 856                             1584                            1585                                  5.6500     110.0000     135.0000       0.0000       
 857                             1583                            1584                                  5.6400     110.0000     135.0000       0.0000       
 858                             1582                            1583                                 18.5000     110.0000     135.0000       0.0000       
 859                             1581                            1582                                 19.6100     110.0000     135.0000       0.0000       
 860                             1580                            1581                                 18.9200     110.0000     135.0000       0.0000       
 861                             1579                            1580                                 22.6500     110.0000     135.0000       0.0000       
 862                             1585                            1586                                 21.9500     110.0000     135.0000       0.0000       
 863                             63                              64                                   88.4500      60.0000     135.0000       0.0000       
 864                             1559                            1554                                  0.7000      60.0000     135.0000       0.0000       
 865                             1557                            1558                                 29.6500      60.0000     135.0000       0.0000       
 866                             1536                            1537                                 20.1000     150.0000     137.0000       0.0000       
 867                             1535                            1536                                 20.6500     150.0000     137.0000       0.0000       
 868                             1534                            1535                                 19.5300     150.0000     137.0000       0.0000       
 869                             1533                            1534                                 20.2200     150.0000     137.0000       0.0000       
 870                             1531                            1532                                 20.8200     150.0000     137.0000       0.0000       
 871                             1530                            1531                                 23.7900     150.0000     137.0000       0.0000       
 872                             1537                            1538                                  8.2800     150.0000     137.0000       0.0000       
 873                             1529                            1496                                 19.8400     150.0000     137.0000       0.0000       
 874                             1526                            1527                                 13.9800     150.0000     137.0000       0.0000       
 875                             1525                            1526                                 20.5200     150.0000     137.0000       0.0000       
 876                             1524                            1525                                 20.4700     150.0000     137.0000       0.0000       
 877                             1523                            1524                                 20.0100     150.0000     137.0000       0.0000       
 878                             1522                            1523                                 20.1400     150.0000     137.0000       0.0000       
 879                             1521                            1522                                 20.1000     150.0000     137.0000       0.0000       
 880                             1527                            1528                                 18.2700     150.0000     137.0000       0.0000       
 881                             1538                            1539                                  6.4900     150.0000     137.0000       0.0000       
 882                             1539                            1540                                  9.5100     150.0000     137.0000       0.0000       
 883                             1540                            1541                                 21.2400     150.0000     137.0000       0.0000       
 884                             1555                            1557                                204.1200      60.0000     135.0000       0.0000       
 886                             1554                            1555                                104.5900      60.0000     135.0000       0.0000       
 887                             1553                            1502                                  1.0900     150.0000     137.0000       0.0000       
 888                             1552                            1553                                 49.6300     150.0000     137.0000       0.0000       
 889                             1550                            1551                                  1.1900     150.0000     137.0000       0.0000       
 890                             1549                            1550                                 21.9300     150.0000     137.0000       0.0000       
 891                             1548                            1549                                 20.1000     150.0000     137.0000       0.0000       
 892                             1547                            1548                                 19.4000     150.0000     137.0000       0.0000       
 893                             1546                            1547                                 21.3100     150.0000     137.0000       0.0000       
 894                             1545                            1546                                 19.8300     150.0000     137.0000       0.0000       
 895                             1544                            1545                                 19.4300     150.0000     137.0000       0.0000       
 896                             1543                            1544                                 21.3900     150.0000     137.0000       0.0000       
 897                             1542                            1543                                 20.6800     150.0000     137.0000       0.0000       
 898                             1541                            1542                                 21.1800     150.0000     137.0000       0.0000       
 899                             1594                            1568                                 21.6000     110.0000     135.0000       0.0000       
 900                             1569                            1570                                 15.2700     110.0000     135.0000       0.0000       
 901                             1595                            1596                                  5.9700     110.0000     135.0000       0.0000       
 902                             1596                            1588                                  2.3300     110.0000     135.0000       0.0000       
 903                             24                              25                                   78.4700      50.0000     135.0000       0.0000       
 904                             25                              26                                  153.5100      50.0000     135.0000       0.0000       
 905                             15                              29                                    6.4600      60.0000     135.0000       0.0000       
 909                             22                              23                                   91.5400      50.0000     135.0000       0.0000       
 916                             1483                            1358                                  0.0500      32.0000     135.0000       0.0000       
 918                             21                              22                                  140.1500      50.0000     135.0000       0.0000       
 919                             20                              18                                   71.1500      50.0000     135.0000       0.0000       
 920                             19                              18                                  209.0500      50.0000     135.0000       0.0000       
 921                             146                             1683                                  2.2600     110.0000     135.0000       0.0000       
 922                             1682                            397                                   2.0900     110.0000     135.0000       0.0000       
 923                             249                             1682                                  2.6900     110.0000     135.0000       0.0000       
 924                             2                               3                                     1.5000      60.0000     135.0000       0.0000       
 925                             4                               5                                    77.5900      50.0000     135.0000       0.0000       
 926                             6                               4                                    73.1400      50.0000     135.0000       0.0000       
 927                             7                               3                                    22.5100      50.0000     135.0000       0.0000       
 928                             8                               1                                    35.5000      50.0000     135.0000       0.0000       
 929                             9                               10                                  328.2100      60.0000     135.0000       0.0000       
 930                             11                              12                                    8.3800      60.0000     135.0000       0.0000       
 931                             12                              13                                   21.3900      60.0000     135.0000       0.0000       
 932                             13                              14                                   27.6400      60.0000     135.0000       0.0000       
 933                             15                              16                                  144.7200      50.0000     135.0000       0.0000       
 934                             16                              17                                   38.2000      50.0000     135.0000       0.0000       
 935                             18                              17                                   65.0000      50.0000     135.0000       0.0000       
 936                             1478                            1617                                  0.5500     150.0000     137.0000       0.0000       
 937                             1520                            1521                                 23.1400     150.0000     137.0000       0.0000       
 938                             41                              42                                   12.4500      85.0000     135.0000       0.0000       
 939                             1623                            1478                                  0.9700     150.0000     137.0000       0.0000 CLOSED
 940                             1605                            1608                                 11.6200     110.0000     135.0000       0.0000       
 941                             1608                            1607                                 90.2400     110.0000     135.0000       0.0000       
 942                             1607                            1606                                 52.8500     110.0000     135.0000       0.0000       
 943                             1606                            815                                  13.2600     110.0000     135.0000       0.0000       
 944                             1604                            1605                                 61.4500     110.0000     135.0000       0.0000       
 945                             1603                            1604                                 29.5400     110.0000     135.0000       0.0000       
 946                             58                              59                                    3.1600      32.0000     137.0000       0.0000       
 947                             1602                            1603                                 65.4400     110.0000     135.0000       0.0000       
 948                             1600                            1601                                  5.9600     110.0000     135.0000       0.0000       
 949                             1599                            1600                                  5.7300     110.0000     135.0000       0.0000       
 950                             1598                            1599                                  4.6700     110.0000     135.0000       0.0000       
 951                             1587                            1598                                  3.4200     110.0000     135.0000       0.0000       
 952                             1597                            1595                                  3.8600     110.0000     135.0000       0.0000       
 953                             1567                            1597                                  3.8400     110.0000     135.0000       0.0000       
 954                             1601                            1602                                  5.1100     110.0000     135.0000       0.0000       
 955                             56                              57                                    1.8400     110.0000     135.0000       0.0000       
 956                             55                              56                                    2.1700     110.0000     135.0000       0.0000       
 957                             54                              52                                   38.6200      85.0000     135.0000       0.0000       
 958                             1622                            1623                                  5.2700     150.0000     137.0000       0.0000       
 959                             1621                            1619                                  0.6800     110.0000     135.0000       0.0000       
 960                             1619                            993                                   0.6300     110.0000     135.0000       0.0000       
 961                             1620                            1622                                  1.1800     150.0000     137.0000       0.0000       
 962                             1025                            1621                                  4.8600     110.0000     135.0000       0.0000       
 963                             1484                            1620                                  3.4600     150.0000     137.0000       0.0000       
 964                             43                              44                                    5.7900      85.0000     135.0000       0.0000       
 965                             1618                            1551                                 97.6600     150.0000     137.0000       0.0000       
 966                             1617                            1618                                  4.4500     150.0000     137.0000       0.0000       
 967                             1567                            1497                                  0.5800     110.0000     135.0000       0.0000       
 968                             45                              46                                   56.5300      85.0000     135.0000       0.0000       
 969                             47                              48                                    7.6100      32.0000     137.0000       0.0000       
 970                             48                              49                                   77.3900      32.0000     137.0000       0.0000       
 971                             50                              51                                   74.2400      60.0000     135.0000       0.0000       
 972                             52                              53                                   39.5000      85.0000     135.0000       0.0000       
 973                             42                              43                                   27.7400      85.0000     135.0000       0.0000       
 974                             1519                            1520                                 19.5900     150.0000     137.0000       0.0000       
 975                             1518                            1519                                 19.8200     150.0000     137.0000       0.0000       
 976                             1517                            1518                                 18.3900     150.0000     137.0000       0.0000       
 979                             1423                            1424                                  0.7400     110.0000     135.0000       0.0000       
 980                             1360                            1423                                 18.7400     110.0000     135.0000       0.0000       
 981                             1422                            1420                                  4.5200     110.0000     135.0000       0.0000       
 982                             1421                            1422                                 35.9700     110.0000     135.0000       0.0000       
 985                             1418                            1419                                 20.0100     110.0000     135.0000       0.0000       
 986                             1417                            1418                                 12.0400     110.0000     135.0000       0.0000       
 987                             1416                            1417                                  8.5000     110.0000     135.0000       0.0000       
 988                             1415                            1416                                  6.0800     110.0000     135.0000       0.0000       
 989                             1414                            1415                                 13.8500     110.0000     135.0000       0.0000       
 990                             1413                            1414                                 20.7300     110.0000     135.0000       0.0000       
 991                             1419                            1420                                 20.0800     110.0000     135.0000       0.0000       
 995                             131                             106                                  25.6200      85.0000     135.0000       0.0000       
 996                             46                              132                                   1.2400      85.0000     135.0000       0.0000       
 997                             132                             133                                   3.9600      85.0000     135.0000       0.0000       
 998                             133                             134                                  36.0900      85.0000     135.0000       0.0000       
 999                             135                             136                                   4.5000      60.0000     135.0000       0.0000       
 1000                            137                             138                                  76.3400      60.0000     135.0000       0.0000       
 1001                            26                              137                                  72.3800      60.0000     135.0000       0.0000       
 1002                            24                              23                                   74.0000      60.0000     135.0000       0.0000       
 1003                            24                              139                                  73.5900      60.0000     135.0000       0.0000       
 1004                            1008                            1434                                  2.5600     150.0000     137.0000       0.0000       
 1010                            1412                            1413                                 18.1500     110.0000     135.0000       0.0000       
 1011                            127                             50                                   73.3300      60.0000     135.0000       0.0000       
 1012                            1411                            1412                                 12.9800     110.0000     135.0000       0.0000       
 1013                            1409                            1410                                 23.7900     110.0000     135.0000       0.0000       
 1014                            1386                            1387                                 25.7000     110.0000     135.0000       0.0000       
 1015                            1385                            1386                                 18.6000     110.0000     135.0000       0.0000       
 1016                            1384                            1385                                 22.9600     110.0000     135.0000       0.0000       
 1017                            1383                            1384                                 18.5800     110.0000     135.0000       0.0000       
 1018                            1382                            1383                                 17.6400     110.0000     135.0000       0.0000       
 1019                            1381                            1382                                 26.7900     110.0000     135.0000       0.0000       
 1020                            1387                            1388                                 21.8600     110.0000     135.0000       0.0000       
 1021                            1380                            1381                                 22.7700     110.0000     135.0000       0.0000       
 1022                            1378                            1379                                 25.2800     110.0000     135.0000       0.0000       
 1023                            1377                            1378                                 12.9300     110.0000     135.0000       0.0000       
 1024                            1377                            1360                                 49.6300     110.0000     135.0000       0.0000       
 1025                            1376                            1359                                 21.9200     110.0000     135.0000       0.0000       
 1026                            1375                            1376                                 20.0900     110.0000     135.0000       0.0000       
 1027                            1374                            1375                                 19.4100     110.0000     135.0000       0.0000       
 1028                            1379                            1380                                 23.0900     110.0000     135.0000       0.0000       
 1029                            1388                            1389                                 21.5300     110.0000     135.0000       0.0000       
 1030                            1389                            1390                                 22.9400     110.0000     135.0000       0.0000       
 1031                            1390                            1391                                 23.0000     110.0000     135.0000       0.0000       
 1032                            1407                            1408                                 19.8400     110.0000     135.0000       0.0000       
 1033                            1405                            1406                                 32.9900     110.0000     135.0000       0.0000       
 1034                            1404                            1405                                305.2500     110.0000     135.0000       0.0000       
 1035                            1403                            1404                                  0.4000     110.0000     135.0000       0.0000       
 1036                            1401                            1402                                  6.4800     110.0000     135.0000       0.0000       
 1037                            1400                            1401                                 13.9300     110.0000     135.0000       0.0000       
 1038                            1399                            1400                                 20.6000     110.0000     135.0000       0.0000       
 1039                            1398                            1399                                 20.5600     110.0000     135.0000       0.0000       
 1040                            1397                            1398                                 20.0500     110.0000     135.0000       0.0000       
 1041                            1396                            1397                                 20.1200     110.0000     135.0000       0.0000       
 1042                            1395                            1396                                 20.0800     110.0000     135.0000       0.0000       
 1043                            1394                            1395                                 23.1500     110.0000     135.0000       0.0000       
 1044                            1393                            1394                                 19.6000     110.0000     135.0000       0.0000       
 1045                            1392                            1393                                 19.8200     110.0000     135.0000       0.0000       
 1046                            1391                            1392                                 18.3800     110.0000     135.0000       0.0000       
 1047                            1410                            1407                                 20.8300     110.0000     135.0000       0.0000       
 1048                            372                             1109                                 10.8800      32.0000     137.0000       0.0000       
 1049                            129                             130                                  45.4700      50.0000     135.0000       0.0000       
 1050                            50                              128                                  47.9000      50.0000     135.0000       0.0000       
 1051                            1403                            1493                                  0.7000     110.0000     135.0000       0.0000       
 1052                            1495                            1496                                 18.6400     150.0000     137.0000       0.0000       
 1053                            1494                            1495                                 19.3800     150.0000     137.0000       0.0000       
 1054                            1492                            1408                                 18.6900     110.0000     135.0000       0.0000       
 1055                            1491                            1492                                 13.5000     110.0000     135.0000       0.0000       
 1056                            187                             186                                   0.8000      60.0000     135.0000       0.0000       
 1057                            1497                            1498                                 31.0200     110.0000     135.0000       0.0000       
 1058                            1402                            1409                                 11.7200     110.0000     135.0000       0.0000       
 1066                            1499                            1500                                305.2300     150.0000     137.0000       0.0000       
 1067                            1500                            1501                                  0.4000     150.0000     137.0000       0.0000       
 1068                            1501                            1494                                  0.7000     150.0000     137.0000       0.0000       
 1069                            1516                            1517                                 22.9900     150.0000     137.0000       0.0000       
 1070                            1515                            1516                                 22.9300     150.0000     137.0000       0.0000       
 1071                            1514                            1515                                 21.5400     150.0000     137.0000       0.0000       
 1072                            1513                            1514                                 21.8600     150.0000     137.0000       0.0000       
 1073                            1512                            1513                                 25.6800     150.0000     137.0000       0.0000       
 1074                            1511                            1512                                 18.6200     150.0000     137.0000       0.0000       
 1075                            1510                            1511                                 22.9800     150.0000     137.0000       0.0000       
 1076                            1509                            1510                                 18.5900     150.0000     137.0000       0.0000       
 1077                            1508                            1509                                 17.6100     150.0000     137.0000       0.0000       
 1078                            1507                            1508                                 26.7500     150.0000     137.0000       0.0000       
 1079                            1506                            1507                                 22.7800     150.0000     137.0000       0.0000       
 1080                            1505                            1506                                 23.0600     150.0000     137.0000       0.0000       
 1081                            1504                            1505                                 25.2500     150.0000     137.0000       0.0000       
 1082                            1503                            1504                                 12.9300     150.0000     137.0000       0.0000       
 1083                            1502                            1503                                  1.0900     150.0000     137.0000       0.0000       
 1085                            128                             129                                 132.9300      50.0000     135.0000       0.0000       
 1088                            111                             112                                  50.6800      60.0000     135.0000       0.0000       
 1089                            113                             114                                  55.9300      60.0000     135.0000       0.0000       
 1090                            115                             116                                  13.5000      85.0000     135.0000       0.0000       
 1091                            116                             117                                  22.4900      85.0000     135.0000       0.0000       
 1092                            1009                            1460                                  0.3000     100.0000      97.0000       0.0000       
 1093                            1459                            1007                                  0.3000     100.0000      97.0000       0.0000       
 1094                            109                             110                                  13.4900      85.0000     135.0000       0.0000       
 1098                            121                             122                                  35.6700      85.0000     135.0000       0.0000       
 1099                            123                             124                                  51.2800      60.0000     135.0000       0.0000       
 1100                            125                             126                                  31.0000      50.0000     135.0000       0.0000       
 1101                            127                             7                                   226.3000      50.0000     135.0000       0.0000       
 1105                            1434                            1466                                  0.5000     200.0000     137.0000       0.0000       
 1110                            14                              91                                   71.6000      50.0000     135.0000       0.0000       
 1111                            92                              93                                    2.2900     110.0000     135.0000       0.0000       
 1112                            96                              97                                   35.5800      60.0000     135.0000       0.0000       
 1113                            98                              99                                   26.6500      50.0000     135.0000       0.0000       
 1114                            99                              100                                  84.6400      50.0000     135.0000       0.0000       
 1115                            101                             102                                  32.7200      85.0000     135.0000       0.0000       
 1116                            103                             104                                   6.6800      60.0000     135.0000       0.0000       
 1117                            104                             105                                   0.5300      60.0000     135.0000       0.0000       
 1118                            106                             45                                    0.5000      85.0000     135.0000       0.0000       
 1119                            107                             108                                 100.3700      60.0000     135.0000       0.0000       
 1120                            108                             45                                    9.7500      60.0000     135.0000       0.0000       
 1122                            637                             612                                  22.4100      32.0000     137.0000       0.0000       
 1123                            255                             1132                                  2.0300     110.0000     135.0000       0.0000       
 1124                            636                             1108                                 22.7000      32.0000     137.0000       0.0000       
 1125                            746                             747                                  19.5500      50.0000     135.0000       0.0000       
 1126                            735                             748                                  20.8600      50.0000     135.0000       0.0000       
 1127                            748                             749                                  21.7000      50.0000     135.0000       0.0000       
 1128                            749                             750                                  19.6900      50.0000     135.0000       0.0000       
 1129                            750                             751                                  22.5100      50.0000     135.0000       0.0000       
 1130                            751                             752                                  21.9600      50.0000     135.0000       0.0000       
 1131                            752                             753                                  20.3700      50.0000     135.0000       0.0000       
 1132                            753                             754                                  19.3200      50.0000     135.0000       0.0000       
 1133                            740                             755                                  17.9000      50.0000     135.0000       0.0000       
 1134                            755                             756                                  20.5300      50.0000     135.0000       0.0000       
 1135                            756                             757                                  20.9400      50.0000     135.0000       0.0000       
 1136                            757                             758                                  16.9300      50.0000     135.0000       0.0000       
 1137                            758                             759                                  21.9300      50.0000     135.0000       0.0000       
 1138                            759                             760                                  21.3700      50.0000     135.0000       0.0000       
 1139                            745                             746                                  21.4200      50.0000     135.0000       0.0000       
 1140                            760                             761                                  20.3900      50.0000     135.0000       0.0000       
 1141                            763                             764                                   1.7400      50.0000     135.0000       0.0000       
 1142                            764                             765                                   2.3300      50.0000     135.0000       0.0000       
 1143                            722                             766                                  20.2400      50.0000     135.0000       0.0000       
 1144                            766                             767                                  12.0900      50.0000     135.0000       0.0000       
 1145                            767                             765                                   8.7400      50.0000     135.0000       0.0000       
 1146                            765                             768                                  21.9500      50.0000     135.0000       0.0000       
 1147                            768                             769                                   0.5400      50.0000     135.0000       0.0000       
 1148                            769                             770                                  21.5900      50.0000     135.0000       0.0000       
 1149                            770                             771                                  20.2000      50.0000     135.0000       0.0000       
 1150                            771                             772                                  10.6400      50.0000     135.0000       0.0000       
 1151                            772                             773                                   5.2000      50.0000     135.0000       0.0000       
 1152                            773                             774                                   9.0900      50.0000     135.0000       0.0000       
 1153                            754                             775                                  15.8700      50.0000     135.0000       0.0000       
 1154                            775                             776                                  11.9900      50.0000     135.0000       0.0000       
 1155                            762                             763                                   6.1200      50.0000     135.0000       0.0000       
 1156                            776                             777                                   6.1500      50.0000     135.0000       0.0000       
 1157                            744                             745                                  20.8600      50.0000     135.0000       0.0000       
 1158                            742                             743                                  19.6200      50.0000     135.0000       0.0000       
 1159                            564                             574                                   1.9800     110.0000     135.0000       0.0000       
 1160                            574                             562                                   1.9800     110.0000     135.0000       0.0000       
 1161                            563                             719                                   1.9800     110.0000     135.0000       0.0000       
 1162                            719                             559                                   1.9800     110.0000     135.0000       0.0000       
 1163                            561                             587                                   1.9800     110.0000     135.0000       0.0000       
 1164                            587                             553                                   1.9800     110.0000     135.0000       0.0000       
 1165                            151                             150                                   0.2700      50.0000     135.0000       0.0000       
 1166                            492                             720                                   7.5400      60.0000     135.0000       0.0000       
 1167                            554                             555                                 106.5400     110.0000     135.0000       0.0000       
 1168                            722                             723                                  20.0900      50.0000     135.0000       0.0000       
 1169                            723                             724                                  19.7200      50.0000     135.0000       0.0000       
 1170                            724                             725                                   5.8800      50.0000     135.0000       0.0000       
 1171                            725                             726                                   2.3200      50.0000     135.0000       0.0000       
 1172                            726                             727                                  20.3900      50.0000     135.0000       0.0000       
 1173                            736                             744                                  21.2800      50.0000     135.0000       0.0000       
 1174                            727                             728                                  20.6000      50.0000     135.0000       0.0000       
 1175                            729                             730                                  14.4200      50.0000     135.0000       0.0000       
 1176                            730                             731                                  20.2200      50.0000     135.0000       0.0000       
 1177                            731                             732                                   6.2300     100.0000      97.0000       0.0000       
 1178                            732                             733                                   1.7900     100.0000      97.0000       0.0000       
 1179                            733                             410                                   2.4900     100.0000      97.0000       0.0000       
 1180                            731                             734                                  17.4400      50.0000     135.0000       0.0000       
 1181                            734                             735                                  19.8800      50.0000     135.0000       0.0000       
 1182                            735                             736                                   7.5300      50.0000     135.0000       0.0000       
 1183                            736                             737                                   4.6300      50.0000     135.0000       0.0000       
 1184                            737                             738                                  20.7400      50.0000     135.0000       0.0000       
 1185                            738                             739                                  19.1100      50.0000     135.0000       0.0000       
 1186                            739                             740                                  20.1500      50.0000     135.0000       0.0000       
 1187                            740                             741                                   9.2500      50.0000     135.0000       0.0000       
 1188                            741                             742                                  20.0600      50.0000     135.0000       0.0000       
 1189                            728                             729                                  22.7200      50.0000     135.0000       0.0000       
 1190                            777                             778                                  10.4000      50.0000     135.0000       0.0000       
 1191                            778                             779                                  19.9100      50.0000     135.0000       0.0000       
 1192                            779                             780                                  20.1000      50.0000     135.0000       0.0000       
 1193                            812                             813                                  20.4800      50.0000     135.0000       0.0000       
 1194                            813                             814                                  20.8600      50.0000     135.0000       0.0000       
 1195                            814                             815                                   2.1000      50.0000     135.0000       0.0000       
 1196                            815                             816                                  18.0300      50.0000     135.0000       0.0000       
 1197                            816                             817                                  21.4000      50.0000     135.0000       0.0000       
 1198                            817                             818                                   4.9200      50.0000     135.0000       0.0000       
 1199                            818                             819                                   4.2900      50.0000     135.0000       0.0000       
 1200                            819                             820                                   5.7300      50.0000     135.0000       0.0000       
 1201                            820                             821                                   4.7900      50.0000     135.0000       0.0000       
 1202                            821                             822                                   8.4400      50.0000     135.0000       0.0000       
 1203                            743                             823                                  21.5000      50.0000     135.0000       0.0000       
 1204                            823                             824                                  19.3500      50.0000     135.0000       0.0000       
 1205                            824                             825                                  21.8400      50.0000     135.0000       0.0000       
 1206                            825                             826                                  18.2500      50.0000     135.0000       0.0000       
 1207                            811                             812                                  20.8800      50.0000     135.0000       0.0000       
 1208                            826                             827                                  20.5200      50.0000     135.0000       0.0000       
 1209                            828                             829                                  20.4700      50.0000     135.0000       0.0000       
 1210                            829                             830                                  25.0400      50.0000     135.0000       0.0000       
 1211                            830                             831                                  19.8900      50.0000     135.0000       0.0000       
 1212                            831                             832                                  20.0900      50.0000     135.0000       0.0000       
 1213                            832                             833                                  21.5000      50.0000     135.0000       0.0000       
 1214                            833                             834                                  20.1500      50.0000     135.0000       0.0000       
 1215                            834                             835                                  17.0700      50.0000     135.0000       0.0000       
 1216                            835                             836                                   8.2600      50.0000     135.0000       0.0000       
 1217                            836                             837                                   7.2200      50.0000     135.0000       0.0000       
 1218                            837                             838                                   4.3800      50.0000     135.0000       0.0000       
 1219                            838                             839                                   4.8800      50.0000     135.0000       0.0000       
 1220                            839                             840                                  20.0800      50.0000     135.0000       0.0000       
 1221                            840                             841                                  19.0900      50.0000     135.0000       0.0000       
 1222                            841                             842                                  19.0600      50.0000     135.0000       0.0000       
 1223                            827                             828                                  20.9600      50.0000     135.0000       0.0000       
 1224                            747                             811                                  24.0100      50.0000     135.0000       0.0000       
 1225                            809                             810                                   9.9300      50.0000     135.0000       0.0000       
 1226                            808                             809                                   4.4900      50.0000     135.0000       0.0000       
 1227                            780                             781                                  22.8500      50.0000     135.0000       0.0000       
 1228                            781                             782                                  21.8000      50.0000     135.0000       0.0000       
 1229                            782                             761                                  20.5800      50.0000     135.0000       0.0000       
 1230                            768                             783                                   7.2700      50.0000     135.0000       0.0000       
 1231                            783                             776                                   3.5100      50.0000     135.0000       0.0000       
 1232                            781                             784                                  18.2700      50.0000     135.0000       0.0000       
 1233                            784                             785                                  21.7100      50.0000     135.0000       0.0000       
 1234                            785                             786                                  17.3100      50.0000     135.0000       0.0000       
 1235                            786                             787                                  12.9300      50.0000     135.0000       0.0000       
 1236                            787                             788                                  11.3300      50.0000     135.0000       0.0000       
 1237                            788                             789                                  11.3300      50.0000     135.0000       0.0000       
 1238                            789                             790                                  19.5500      50.0000     135.0000       0.0000       
 1239                            790                             791                                  21.1600      50.0000     135.0000       0.0000       
 1240                            791                             792                                  22.0000      50.0000     135.0000       0.0000       
 1241                            792                             793                                  19.8700      50.0000     135.0000       0.0000       
 1242                            793                             794                                  20.7900      50.0000     135.0000       0.0000       
 1243                            794                             795                                  19.9100      50.0000     135.0000       0.0000       
 1244                            801                             808                                  11.3000      50.0000     135.0000       0.0000       
 1245                            806                             807                                   8.1200      50.0000     135.0000       0.0000       
 1246                            801                             806                                   0.2100      50.0000     135.0000       0.0000       
 1247                            805                             741                                  16.2000      50.0000     135.0000       0.0000       
 1248                            804                             805                                  17.0800      50.0000     135.0000       0.0000       
 1249                            803                             804                                  12.4600      50.0000     135.0000       0.0000       
 1250                            718                             598                                   4.3200     110.0000     135.0000       0.0000       
 1251                            802                             803                                   5.0300      50.0000     135.0000       0.0000       
 1252                            800                             801                                  16.1600      50.0000     135.0000       0.0000       
 1253                            1108                            279                                   0.1000      32.0000     137.0000       0.0000       
 1254                            798                             799                                   2.2300      50.0000     135.0000       0.0000       
 1255                            797                             798                                   3.9600      50.0000     135.0000       0.0000       
 1256                            796                             797                                   1.8200      50.0000     135.0000       0.0000       
 1257                            795                             796                                  19.9700      50.0000     135.0000       0.0000       
 1258                            801                             802                                  20.9400      50.0000     135.0000       0.0000       
 1259                            842                             843                                  20.6800      50.0000     135.0000       0.0000       
 1260                            717                             718                                  42.1100     110.0000     135.0000       0.0000       
 1261                            715                             716                                   2.5200     110.0000     135.0000       0.0000       
 1262                            594                             595                                  16.9900      85.0000     135.0000       0.0000       
 1263                            244                             596                                  20.8900      85.0000     135.0000       0.0000       
 1264                            596                             597                                  20.7200      85.0000     135.0000       0.0000       
 1265                            597                             592                                  18.9800      85.0000     135.0000       0.0000       
 1266                            598                             599                                  13.0200      85.0000     135.0000       0.0000       
 1267                            599                             600                                  28.2700      85.0000     135.0000       0.0000       
 1268                            600                             589                                  19.8300      85.0000     135.0000       0.0000       
 1269                            601                             602                                  12.9500      32.0000     137.0000       0.0000       
 1270                            602                             603                                 111.5600      32.0000     137.0000       0.0000       
 1271                            604                             605                                  29.9600      32.0000     137.0000       0.0000       
 1272                            605                             603                                  27.8400      32.0000     137.0000       0.0000       
 1273                            606                             607                                  88.2800      32.0000     137.0000       0.0000       
 1274                            607                             604                                   5.6300      32.0000     137.0000       0.0000       
 1275                            608                             609                                  77.7600      32.0000     137.0000       0.0000       
 1276                            593                             594                                  20.3500      85.0000     135.0000       0.0000       
 1277                            609                             610                                  11.4900      32.0000     137.0000       0.0000       
 1278                            291                             611                                  11.1000      32.0000     137.0000       0.0000       
 1279                            611                             276                                  53.0000      32.0000     137.0000       0.0000       
 1280                            612                             613                                   0.0300      32.0000     137.0000       0.0000       
 1281                            613                             614                                  76.9600      32.0000     137.0000       0.0000       
 1282                            614                             615                                  10.1700      32.0000     137.0000       0.0000       
 1283                            615                             616                                  34.8400      32.0000     137.0000       0.0000       
 1284                            616                             283                                  14.2700      32.0000     137.0000       0.0000       
 1285                            617                             618                                  43.8000      60.0000     135.0000       0.0000       
 1286                            619                             617                                   1.9300      60.0000     135.0000       0.0000       
 1287                            282                             620                                  38.5100      60.0000     135.0000       0.0000       
 1288                            620                             619                                  13.0400      60.0000     135.0000       0.0000       
 1289                            621                             622                                  77.1800      32.0000     137.0000       0.0000       
 1290                            622                             623                                  54.5700      32.0000     137.0000       0.0000       
 1291                            623                             97                                    9.2100      32.0000     137.0000       0.0000       
 1292                            273                             610                                  54.9500      32.0000     137.0000       0.0000       
 1293                            617                             624                                  25.7200      32.0000     137.0000       0.0000       
 1294                            592                             593                                  22.4600      85.0000     135.0000       0.0000       
 1295                            589                             590                                  63.1800      85.0000     135.0000       0.0000       
 1296                            559                             560                                  44.3400      60.0000     135.0000       0.0000       
 1297                            560                             561                                  11.4600      60.0000     135.0000       0.0000       
 1298                            562                             563                                 161.6300     110.0000     135.0000       0.0000       
 1299                            554                             564                                   1.3900      60.0000     135.0000       0.0000       
 1300                            565                             566                                   7.6200      32.0000     137.0000       0.0000       
 1301                            566                             567                                 102.4500      32.0000     137.0000       0.0000       
 1302                            567                             568                                  57.5900      32.0000     137.0000       0.0000       
 1303                            569                             570                                 164.1300      32.0000     137.0000       0.0000       
 1304                            570                             571                                   6.8200      32.0000     137.0000       0.0000       
 1305                            572                             505                                 226.5700      60.0000     135.0000       0.0000       
 1307                            573                             575                                  39.0800      60.0000     135.0000       0.0000       
 1308                            575                             576                                  10.4000      60.0000     135.0000       0.0000       
 1309                            576                             577                                 215.9500      60.0000     135.0000       0.0000       
 1310                            590                             591                                  22.0800      85.0000     135.0000       0.0000       
 1311                            578                             579                                   4.7700      60.0000     135.0000       0.0000       
 1312                            580                             581                                  37.9800      60.0000     135.0000       0.0000       
 1313                            579                             582                                  26.4000      60.0000     135.0000       0.0000       
 1314                            582                             583                                  25.9200      60.0000     135.0000       0.0000       
 1315                            583                             584                                   8.7500      60.0000     135.0000       0.0000       
 1316                            569                             585                                   4.9800      60.0000     135.0000       0.0000       
 1317                            585                             568                                  55.0400      60.0000     135.0000       0.0000       
 1318                            480                             569                                  20.0900      60.0000     135.0000       0.0000       
 1319                            218                             586                                  32.0200      85.0000     135.0000       0.0000       
 1320                            586                             482                                  23.5300      85.0000     135.0000       0.0000       
 1321                            549                             218                                  52.1500      85.0000     135.0000       0.0000       
 1322                            584                             588                                   2.3900      85.0000     135.0000       0.0000       
 1324                            588                             549                                  29.3200      85.0000     135.0000       0.0000       
 1325                            558                             584                                  13.3900      85.0000     135.0000       0.0000       
 1326                            568                             580                                   3.4700      60.0000     135.0000       0.0000       
 1327                            624                             625                                  63.2000      32.0000     137.0000       0.0000       
 1328                            626                             627                                   0.0400      32.0000     137.0000       0.0000       
 1329                            627                             628                                  75.5700      32.0000     137.0000       0.0000       
 1333                            284                             96                                    2.6600      60.0000     135.0000       0.0000       
 1334                            284                             131                                  10.8600      85.0000     135.0000       0.0000 CLOSED
 1335                            413                             693                                  61.9900      50.0000     135.0000       0.0000       
 1336                            693                             694                                 106.2800      50.0000     135.0000       0.0000       
 1337                            694                             695                                  39.8900      50.0000     135.0000       0.0000       
 1338                            695                             125                                  11.2700      50.0000     135.0000       0.0000       
 1339                            154                             696                                  13.1900      50.0000     135.0000       0.0000       
 1340                            191                             696                                   8.1000      60.0000     135.0000       0.0000       
 1341                            533                             697                                   5.7600     110.0000     135.0000       0.0000       
 1342                            697                             698                                   8.4800     110.0000     135.0000       0.0000       
 1343                            698                             699                                  12.0800     110.0000     135.0000       0.0000       
 1345                            699                             700                                  20.8700     110.0000     135.0000       0.0000       
 1346                            701                             702                                  17.4900     110.0000     135.0000       0.0000       
 1347                            702                             703                                  26.9300     110.0000     135.0000       0.0000       
 1348                            703                             704                                   5.4400     110.0000     135.0000       0.0000       
 1349                            704                             705                                   5.6600     110.0000     135.0000       0.0000       
 1350                            705                             706                                  10.7900     110.0000     135.0000       0.0000       
 1351                            706                             707                                  24.8000     110.0000     135.0000       0.0000       
 1352                            707                             708                                  25.9200     110.0000     135.0000       0.0000       
 1353                            708                             709                                  40.6100     110.0000     135.0000       0.0000       
 1354                            709                             710                                  13.0700     110.0000     135.0000       0.0000       
 1355                            710                             711                                  21.5800     110.0000     135.0000       0.0000       
 1356                            711                             712                                  22.2600     110.0000     135.0000       0.0000       
 1357                            712                             713                                  40.2400     110.0000     135.0000       0.0000       
 1358                            713                             714                                  21.2900     110.0000     135.0000       0.0000       
 1359                            714                             715                                  18.5300     110.0000     135.0000       0.0000       
 1360                            700                             701                                  24.3900     110.0000     135.0000       0.0000       
 1362                            687                             515                                   2.8300      90.0000     135.0000       0.0000       
 1363                            686                             256                                   8.5600     110.0000     135.0000       0.0000       
 1364                            628                             629                                  14.4000      32.0000     137.0000       0.0000       
 1365                            630                             631                                  72.8600      32.0000     137.0000       0.0000       
 1366                            631                             632                                  16.5200      32.0000     137.0000       0.0000       
 1367                            632                             63                                   45.6100      60.0000     135.0000       0.0000       
 1368                            629                             632                                  52.7600      60.0000     135.0000       0.0000       
 1369                            618                             629                                  59.5200      60.0000     135.0000       0.0000       
 1370                            58                              633                                   4.1300     110.0000     135.0000       0.0000       
 1371                            633                             634                                   5.8300     110.0000     135.0000       0.0000       
 1372                            634                             635                                  15.5600     110.0000     135.0000       0.0000       
 1373                            635                             291                                  27.7400     110.0000     135.0000       0.0000       
 1374                            636                             58                                   12.0000      85.0000     135.0000       0.0000       
 1375                            637                             638                                  24.7100      85.0000     135.0000       0.0000       
 1376                            638                             636                                  24.0200      85.0000     135.0000       0.0000       
 1377                            216                             639                                   2.4800      85.0000     135.0000       0.0000       
 1378                            639                             640                                   9.5200      85.0000     135.0000       0.0000       
 1379                            640                             641                                   0.0100      85.0000     135.0000       0.0000       
 1380                            641                             637                                  41.9700      85.0000     135.0000       0.0000       
 1381                            393                             686                                   1.7000     110.0000     135.0000       0.0000       
 1382                            684                             618                                  16.8800      32.0000     137.0000       0.0000       
 1383                            683                             684                                  70.8500      32.0000     137.0000       0.0000       
 1384                            682                             573                                 145.6800      60.0000     135.0000       0.0000       
 1386                            62                              647                                  17.9500      85.0000     135.0000       0.0000       
 1387                            716                             717                                   1.4500     110.0000     135.0000       0.0000       
 1388                            648                             646                                  12.7900      85.0000     135.0000       0.0000       
 1389                            646                             645                                  12.2500      85.0000     135.0000       0.0000       
 1390                            645                             644                                  35.6200      85.0000     135.0000       0.0000       
 1391                            644                             642                                  22.7500      85.0000     135.0000       0.0000       
 1392                            643                             601                                  18.3200      85.0000     135.0000       0.0000       
 1393                            642                             643                                  19.8100      85.0000     135.0000       0.0000       
 1394                            601                             115                                   7.8200      85.0000     135.0000       0.0000       
 1395                            647                             648                                  27.3600      85.0000     135.0000       0.0000       
 1396                            843                             844                                  21.0800      50.0000     135.0000       0.0000       
 1397                            799                             800                                   4.1300      50.0000     135.0000       0.0000       
 1398                            845                             846                                  24.4700      50.0000     135.0000       0.0000       
 1401                            1024                            1025                                  1.4700     110.0000     135.0000       0.0000       
 1415                            176                             413                                  10.5700      60.0000     135.0000       0.0000       
 1416                            412                             98                                    1.4100      60.0000     135.0000       0.0000       
 1417                            411                             412                                  55.8300      60.0000     135.0000       0.0000       
 1418                            8                               411                                   8.0900      60.0000     135.0000       0.0000       
 1419                            409                             410                                  11.0700      60.0000     135.0000       0.0000       
 1420                            408                             409                                  26.3000      60.0000     135.0000       0.0000       
 1421                            407                             408                                  16.8400      60.0000     135.0000       0.0000       
 1422                            173                             407                                  89.3900      60.0000     135.0000       0.0000       
 1423                            406                             1                                    70.8800      60.0000     135.0000       0.0000       
 1428                            578                             682                                  18.3900      60.0000     135.0000       0.0000       
 1429                            239                             57                                   39.8200     110.0000     135.0000       0.0000       
 1430                            577                             556                                  11.5000      60.0000     135.0000       0.0000       
 1431                            556                             595                                   5.4500      85.0000     135.0000       0.0000       
 1432                            592                             572                                  16.6600      60.0000     135.0000       0.0000       
 1433                            993                             994                                   0.8600     110.0000     135.0000       0.0000       
 1434                            994                             995                                  13.8300     110.0000     135.0000       0.0000       
 1435                            995                             996                                  13.8300     110.0000     135.0000       0.0000       
 1436                            996                             223                                  14.2800     110.0000     135.0000       0.0000       
 1437                            161                             155                                  14.5100      60.0000     135.0000       0.0000       
 1438                            244                             240                                  14.4400      85.0000     135.0000       0.0000       
 1440                            405                             406                                 104.3800      60.0000     135.0000       0.0000       
 1442                            171                             164                                   5.9300     110.0000     135.0000       0.0000       
 1443                            417                             418                                   0.7600      32.0000     137.0000       0.0000       
 1444                            185                             417                                  66.4900      32.0000     137.0000       0.0000       
 1446                            1005                            1006                                  4.1900     150.0000     137.0000       0.0000       
 1447                            1007                            1006                                  0.9300     100.0000      97.0000       0.0000       
 1448                            1006                            1008                                  3.9900     150.0000     137.0000       0.0000       
 1449                            1008                            1009                                  1.2200     100.0000      97.0000       0.0000       
 1453                            844                             845                                  13.1300      50.0000     135.0000       0.0000       
 1454                            164                             497                                  17.3600      60.0000     135.0000       0.0000       
 1455                            141                             405                                   2.4600      60.0000     135.0000       0.0000       
 1456                            290                             404                                  13.5300     110.0000     135.0000       0.0000       
 1457                            404                             278                                 103.3700      85.0000     135.0000       0.0000       
 1458                            282                             374                                   5.7600      32.0000     137.0000       0.0000       
 1459                            210                             373                                   6.0700      32.0000     137.0000       0.0000       
 1460                            371                             372                                   0.0100      32.0000     137.0000       0.0000       
 1461                            370                             371                                  64.4800      32.0000     137.0000       0.0000       
 1462                            369                             370                                 100.9800      32.0000     137.0000       0.0000       
 1463                            60                              369                                   6.3200      32.0000     137.0000       0.0000       
 1468                            64                              1100                                  0.0600      60.0000     135.0000       0.0000       
 1469                            1100                            61                                   14.0000      60.0000     135.0000       0.0000       
 1470                            374                             375                                  72.5900      32.0000     137.0000       0.0000       
 1475                            62                              1105                                  7.1300      32.0000     137.0000       0.0000       
 1476                            1105                            270                                   0.6700      32.0000     137.0000       0.0000       
 1477                            645                             626                                  11.5300      32.0000     137.0000       0.0000       
 1478                            646                             608                                  25.9800      32.0000     137.0000       0.0000       
 1479                            647                             1106                                 12.5900      32.0000     137.0000       0.0000       
 1480                            1106                            630                                   0.0300      32.0000     137.0000       0.0000       
 1481                            213                             1107                                 14.3600      32.0000     137.0000       0.0000       
 1482                            1107                            214                                   0.0600      32.0000     137.0000       0.0000       
 1483                            216                             621                                  14.8900      32.0000     137.0000       0.0000       
 1485                            992                             578                                   7.2600      60.0000     135.0000       0.0000       
 1486                            106                             376                                   4.8700      32.0000     137.0000       0.0000       
 1487                            46                              378                                   6.0800      32.0000     137.0000       0.0000       
 1488                            222                             403                                  24.5500      32.0000     137.0000       0.0000       
 1489                            401                             402                                   0.8200     110.0000     135.0000       0.0000       
 1490                            400                             401                                   0.3400     110.0000     135.0000       0.0000       
 1491                            399                             400                                   0.9100     110.0000     135.0000       0.0000       
 1492                            398                             399                                   0.6400     110.0000     135.0000       0.0000       
 1493                            397                             398                                   2.8800     110.0000     135.0000       0.0000       
 1494                            395                             396                                   2.2300     110.0000     135.0000       0.0000       
 1495                            394                             395                                   3.1300     110.0000     135.0000       0.0000       
 1496                            392                             393                                   2.7400     110.0000     135.0000       0.0000       
 1497                            391                             387                                   0.1700      60.0000     135.0000       0.0000       
 1498                            188                             391                                   3.2800      60.0000     135.0000       0.0000       
 1499                            390                             10                                   14.1100      60.0000     135.0000       0.0000       
 1500                            376                             377                                 146.7800      32.0000     137.0000       0.0000       
 1501                            389                             390                                   3.3000      60.0000     135.0000       0.0000       
 1502                            387                             388                                   4.5800      60.0000     135.0000       0.0000       
 1503                            197                             122                                   0.4500      85.0000     135.0000       0.0000       
 1504                            386                             122                                   1.6700      85.0000     135.0000       0.0000       
 1505                            189                             110                                  20.5700      60.0000     135.0000       0.0000       
 1506                            196                             385                                   2.2200      50.0000     135.0000       0.0000       
 1507                            385                             11                                  183.4400      50.0000     135.0000       0.0000       
 1508                            105                             384                                   8.4700      60.0000     135.0000       0.0000       
 1509                            261                             383                                  12.6300      32.0000     137.0000       0.0000       
 1510                            260                             382                                   7.3600      32.0000     137.0000       0.0000       
 1511                            380                             381                                  84.6600      32.0000     137.0000       0.0000       
 1512                            198                             380                                   7.3900      32.0000     137.0000       0.0000       
 1513                            378                             379                                 161.8200      32.0000     137.0000       0.0000       
 1514                            388                             389                                   4.9600      60.0000     135.0000       0.0000       
 1515                            581                             992                                   6.0600      60.0000     135.0000       0.0000       
 1516                            1                               2                                    19.0600      60.0000     135.0000       0.0000       
 1517                            492                             493                                   4.4700      60.0000     135.0000       0.0000       
 1518                            529                             530                                  14.7200      32.0000     137.0000       0.0000       
 1519                            530                             531                                  48.7600      32.0000     137.0000       0.0000       
 1520                            531                             532                                   5.4100      32.0000     137.0000       0.0000       
 1521                            533                             534                                   8.6100     110.0000     135.0000       0.0000       
 1522                            534                             535                                  17.0700     110.0000     135.0000       0.0000       
 1523                            1683                            396                                   1.6000     110.0000     135.0000       0.0000       
 1524                            535                             536                                   8.4100     110.0000     135.0000       0.0000       
 1525                            536                             537                                   8.4100     110.0000     135.0000       0.0000       
 1526                            537                             394                                   4.4900     110.0000     135.0000       0.0000       
 1527                            295                             538                                   6.6200     110.0000     135.0000       0.0000       
 1528                            527                             528                                  61.1600      32.0000     137.0000       0.0000       
 1529                            538                             539                                  18.3700     110.0000     135.0000       0.0000       
 1530                            540                             247                                   3.1100     110.0000     135.0000       0.0000       
 1532                            247                             541                                   4.0600     110.0000     135.0000       0.0000       
 1533                            295                             542                                   1.6500     110.0000     135.0000       0.0000       
 1534                            542                             543                                   3.1300     110.0000     135.0000       0.0000       
 1535                            543                             285                                   9.7300     110.0000     135.0000       0.0000       
 1536                            477                             478                                   6.3400      60.0000     135.0000       0.0000       
 1537                            544                             545                                  13.8300      32.0000     137.0000       0.0000       
 1538                            545                             546                                  52.1200      32.0000     137.0000       0.0000       
 1539                            544                             547                                   5.3400      60.0000     135.0000       0.0000       
 1540                            539                             540                                  17.0400     110.0000     135.0000       0.0000       
 1541                            526                             527                                   7.9900      32.0000     137.0000       0.0000       
 1542                            524                             525                                   7.9100      32.0000     137.0000       0.0000       
 1543                            523                             524                                  52.0600      32.0000     137.0000       0.0000       
 1545                            148                             512                                   0.7100     110.0000     135.0000       0.0000       
 1546                            512                             513                                   0.2300     110.0000     135.0000       0.0000       
 1547                            514                             143                                   6.5600     110.0000     135.0000       0.0000       
 1548                            497                             488                                 221.1900      60.0000     135.0000       0.0000       
 1549                            496                             491                                 211.7200      60.0000     135.0000       0.0000       
 1550                            495                             496                                  10.0300      60.0000     135.0000       0.0000       
 1551                            494                             495                                  10.0300      60.0000     135.0000       0.0000       
 1552                            493                             494                                   5.0000      60.0000     135.0000       0.0000       
 1553                            515                             516                                   1.0700     110.0000     135.0000       0.0000       
 1554                            490                             491                                   5.6900      60.0000     135.0000       0.0000       
 1555                            489                             490                                  37.5800      60.0000     135.0000       0.0000       
 1556                            488                             489                                   8.6700      60.0000     135.0000       0.0000       
 1557                            241                             487                                 159.0500      60.0000     135.0000       0.0000       
 1558                            486                             487                                  14.4600      60.0000     135.0000       0.0000       
 1559                            485                             486                                  46.0200      60.0000     135.0000       0.0000       
 1560                            147                             484                                  16.3100      40.0000     135.0000       0.0000       
 1561                            516                             514                                   0.2300     110.0000     135.0000       0.0000       
 1562                            477                             259                                 168.3400      60.0000     135.0000       0.0000       
 1563                            481                             482                                  13.0000      60.0000     135.0000       0.0000       
 1564                            480                             481                                  43.8000      60.0000     135.0000       0.0000       
 1565                            478                             479                                  45.2000      60.0000     135.0000       0.0000       
 1566                            522                             523                                   9.8800      32.0000     137.0000       0.0000       
 1567                            547                             548                                  45.2500      60.0000     135.0000       0.0000       
 1568                            548                             220                                   3.4600      60.0000     135.0000       0.0000       
 1569                            505                             485                                   0.7000      60.0000     135.0000       0.0000       
 1570                            846                             847                                  25.3300      50.0000     135.0000       0.0000       
 1571                            526                             529                                  55.1500      60.0000     135.0000       0.0000       
 1572                            522                             526                                  65.7500      60.0000     135.0000       0.0000       
 1573                            847                             810                                  20.0300      50.0000     135.0000       0.0000       
 1574                            549                             550                                  15.9800      60.0000     135.0000       0.0000       
 1575                            550                             551                                   8.0500      60.0000     135.0000       0.0000       
 1576                            553                             55                                   13.7700     110.0000     135.0000       0.0000       
 1577                            552                             522                                   4.6300      60.0000     135.0000       0.0000       
 1578                            529                             544                                  66.5800      60.0000     135.0000       0.0000       
 1579                            551                             552                                  49.8900      60.0000     135.0000       0.0000       
 1580                            419                             420                                   9.5600      60.0000     135.0000       0.0000       
 1581                            428                             426                                  69.6900      60.0000     135.0000       0.0000       
 1582                            427                             423                                  47.7300      60.0000     135.0000       0.0000       
 1583                            426                             427                                  15.2000      60.0000     135.0000       0.0000       
 1584                            1667                            1668                                 15.2900      63.0000     140.0000       0.0000       
 1585                            425                             422                                   5.4700      60.0000     135.0000       0.0000       
 1586                            422                             419                                  52.2600      60.0000     135.0000       0.0000       
 1587                            1666                            1667                                 13.3900      63.0000     140.0000       0.0000       
 1588                            1665                            1666                                 14.4400      63.0000     140.0000       0.0000       
 1589                            423                             424                                  11.9800      60.0000     135.0000       0.0000       
 1590                            429                             428                                  98.5000      60.0000     135.0000       0.0000       
 1591                            1664                            1665                                 20.7200      63.0000     140.0000       0.0000       
 1592                            424                             425                                  35.9300      60.0000     135.0000       0.0000       
 1593                            36                              429                                 103.7300      85.0000     135.0000       0.0000       
 1594                            1672                            1673                                  7.8900      63.0000     140.0000       0.0000       
 1595                            1669                            1670                                 23.8800      63.0000     140.0000       0.0000       
 1596                            1670                            1671                                 32.2800      63.0000     140.0000       0.0000       
 1597                            1671                            1672                                  8.9700      63.0000     140.0000       0.0000       
 1598                            1663                            1664                                 21.3700      63.0000     140.0000       0.0000       
 1599                            1673                            1674                                 26.4200      63.0000     140.0000       0.0000       
 1600                            1674                            1675                                 12.5700      63.0000     140.0000       0.0000       
 1601                            1675                            1676                                  6.2600      63.0000     140.0000       0.0000       
 1602                            1676                            1677                                 18.5900      63.0000     140.0000       0.0000       
 1603                            1677                            1678                                  1.9900      63.0000     140.0000       0.0000       
 1604                            1678                            1679                                  1.9700      63.0000     140.0000       0.0000       
 1605                            1679                            1680                                  2.0000      63.0000     140.0000       0.0000       
 1606                            1680                            1677                                  1.9300      63.0000     140.0000       0.0000       
 1607                            1676                            665                                   2.5100      63.0000     140.0000       0.0000       
 1608                            1668                            1669                                 25.3500      63.0000     140.0000       0.0000       
 1609                            1662                            1663                                  5.5100      63.0000     140.0000       0.0000       
 1610                            420                             421                                 103.3000      60.0000     135.0000       0.0000       
 1611                            1660                            1661                                 13.2800      63.0000     140.0000       0.0000       
 1612                            421                             32                                    2.0000      60.0000     135.0000       0.0000       
 1613                            426                             1652                                  8.0900      63.0000     140.0000       0.0000       
 1614                            30                              31                                    8.0600      32.0000     137.0000       0.0000       
 1615                            1652                            1653                                 17.2500      63.0000     140.0000       0.0000       
 1616                            1661                            1662                                  4.2800      63.0000     140.0000       0.0000       
 1617                            1654                            1655                                  5.5600      63.0000     140.0000       0.0000       
 1618                            1655                            1656                                 20.9800      63.0000     140.0000       0.0000       
 1619                            1656                            1657                                 28.0800      63.0000     140.0000       0.0000       
 1620                            1652                            1658                                 18.7500      63.0000     140.0000       0.0000       
 1621                            32                              33                                    8.4600      60.0000     135.0000       0.0000       
 1622                            1658                            1659                                 20.3300      63.0000     140.0000       0.0000       
 1623                            1653                            1654                                 25.7900      63.0000     140.0000       0.0000       
 1624                            33                              669                                   6.0000      60.0000     135.0000       0.0000       
 1625                            665                             666                                  30.3700      32.0000     137.0000       0.0000       
 1626                            423                             30                                  137.8500      32.0000     137.0000       0.0000       
 1627                            422                             667                                   7.6800      32.0000     137.0000       0.0000       
 1628                            1659                            1660                                 22.1400      63.0000     140.0000       0.0000       
 1629                            667                             668                                 120.2200      32.0000     137.0000       0.0000       
 1630                            1096                            1099                                 13.4300     110.0000     132.0000       0.0000       
 1631                            1099                            67                                    0.0300     110.0000     132.0000       0.0000       
 1632                            462                             460                                   3.8400     110.0000     132.0000       0.0000       
 1633                            457                             518                                   5.0200      60.0000     132.0000       0.0000       
 1634                            39                              40                                  136.1000      60.0000     132.0000       0.0000       
 1635                            509                             444                                   7.8100      32.0000     135.0000       0.0000       
 1636                            508                             509                                 137.0600      32.0000     135.0000       0.0000       
 1637                            454                             508                                   9.0900      32.0000     135.0000       0.0000       
 1638                            507                             500                                  12.1700      32.0000     135.0000       0.0000       
 1639                            506                             507                                  87.0100      32.0000     135.0000       0.0000       
 1640                            1098                            517                                   0.0300      85.0000     132.0000       0.0000       
 1641                            1097                            1098                                 12.5400      85.0000     132.0000       0.0000       
 1642                            1095                            1094                                  0.2600      85.0000     132.0000       0.0000       
 1643                            27                              28                                    8.2600      85.0000     132.0000       0.0000       
 1644                            591                             1096                                  1.6800     110.0000     132.0000       0.0000       
 1645                            519                             520                                  88.9900      85.0000     132.0000       0.0000       
 1646                            448                             506                                   8.5300      32.0000     135.0000       0.0000       
 1647                            1094                            456                                   8.7500      85.0000     132.0000       0.0000       
 1648                            37                              38                                   31.8000      60.0000     132.0000       0.0000       
 1649                            35                              36                                   44.5500      85.0000     132.0000       0.0000       
 1650                            34                              35                                    2.4600      85.0000     132.0000       0.0000       
 1651                            459                             521                                 100.0000      85.0000     132.0000       0.0000       
 1652                            517                             28                                   84.4100      85.0000     132.0000       0.0000       
 1653                            518                             504                                  20.8500      60.0000     132.0000       0.0000       
 1654                            591                             1097                                  1.1800      85.0000     132.0000       0.0000       
 1655                            520                             1095                                  2.0100      85.0000     132.0000       0.0000       
 1656                            445                             446                                  16.7700      60.0000     132.0000       0.0000       
 1657                            503                             73                                   34.4700      85.0000     132.0000       0.0000       
 1658                            451                             452                                  12.5000      60.0000     132.0000       0.0000       
 1659                            452                             448                                  45.7100      60.0000     132.0000       0.0000       
 1660                            430                             453                                  16.7900      85.0000     132.0000       0.0000       
 1661                            453                             454                                  42.1100      85.0000     132.0000       0.0000       
 1662                            120                             434                                  33.7800      85.0000     132.0000       0.0000       
 1663                            434                             455                                   8.4200      85.0000     132.0000       0.0000       
 1664                            455                             430                                  38.7600      85.0000     132.0000       0.0000       
 1665                            456                             457                                  94.4900      85.0000     132.0000       0.0000       
 1666                            118                             119                                   2.4600      85.0000     132.0000       0.0000       
 1667                            458                             459                                 100.0000      85.0000     132.0000       0.0000       
 1668                            450                             445                                   8.1900      60.0000     132.0000       0.0000       
 1669                            460                             461                                  11.1600      60.0000     132.0000       0.0000       
 1670                            66                              462                                  23.7500     110.0000     132.0000       0.0000       
 1671                            119                             120                                  73.0900      85.0000     132.0000       0.0000       
 1672                            463                             464                                  10.3200      32.0000     135.0000       0.0000       
 1673                            464                             465                                  39.7600      32.0000     135.0000       0.0000       
 1674                            466                             463                                  55.7500      32.0000     135.0000       0.0000       
 1675                            463                             467                                   3.9900      60.0000     132.0000       0.0000       
 1676                            71                              463                                 123.3600      60.0000     132.0000       0.0000       
 1677                            468                             469                                   3.6800      32.0000     135.0000       0.0000       
 1678                            470                             468                                  32.2000      32.0000     135.0000       0.0000       
 1679                            471                             470                                  50.6500      32.0000     135.0000       0.0000       
 1680                            461                             458                                 100.0000      60.0000     132.0000       0.0000       
 1681                            449                             450                                  21.5000      60.0000     132.0000       0.0000       
 1682                            68                              69                                   10.6100      32.0000     135.0000       0.0000       
 1683                            448                             449                                   6.7200      60.0000     132.0000       0.0000       
 1684                            444                             433                                  59.9100      60.0000     132.0000       0.0000       
 1685                            443                             437                                  42.5600      60.0000     132.0000       0.0000       
 1686                            433                             443                                   5.5600      60.0000     132.0000       0.0000       
 1687                            442                             440                                   5.1000      60.0000     132.0000       0.0000       
 1688                            441                             442                                  17.0700      60.0000     132.0000       0.0000       
 1689                            94                              95                                   53.1100      60.0000     132.0000       0.0000       
 1690                            437                             441                                  10.7000      60.0000     132.0000       0.0000       
 1691                            439                             440                                   9.7800      60.0000     132.0000       0.0000       
 1692                            438                             439                                 164.9900      60.0000     132.0000       0.0000       
 1693                            120                             438                                   3.8200      60.0000     132.0000       0.0000       
 1694                            436                             437                                   9.8900      32.0000     135.0000       0.0000       
 1695                            435                             436                                 158.3200      32.0000     135.0000       0.0000       
 1696                            434                             435                                   7.2900      32.0000     135.0000       0.0000       
 1697                            432                             433                                   5.1500      32.0000     135.0000       0.0000       
 1698                            431                             432                                 146.0500      32.0000     135.0000       0.0000       
 1699                            430                             431                                  14.5800      32.0000     135.0000       0.0000       
 1700                            34                              27                                  103.1200      85.0000     132.0000       0.0000       
 1701                            27                              118                                  10.5900      85.0000     132.0000       0.0000       
 1702                            74                              71                                   10.3300      85.0000     132.0000       0.0000       
 1703                            73                              74                                    1.0600      85.0000     132.0000       0.0000       
 1704                            71                              72                                    5.6800      60.0000     132.0000       0.0000       
 1705                            68                              70                                   21.9200      32.0000     135.0000       0.0000       
 1706                            447                             444                                   7.3100      60.0000     132.0000       0.0000       
 1707                            471                             472                                  64.7900      60.0000     132.0000       0.0000       
 1708                            504                             39                                    6.0800      60.0000     132.0000       0.0000       
 1709                            473                             471                                   1.2100      60.0000     132.0000       0.0000       
 1710                            40                              476                                   8.3000      60.0000     132.0000       0.0000       
 1711                            660                             659                                  52.8000      32.0000     135.0000       0.0000       
 1712                            658                             659                                   3.0100      32.0000     135.0000       0.0000       
 1713                            657                             658                                  86.3600      32.0000     135.0000       0.0000       
 1714                            656                             657                                  21.5600      32.0000     135.0000       0.0000       
 1715                            655                             651                                  16.9200      32.0000     135.0000       0.0000       
 1716                            654                             655                                  91.8300      32.0000     135.0000       0.0000       
 1717                            653                             466                                  12.2300      32.0000     135.0000       0.0000       
 1718                            652                             653                                  34.0500      32.0000     135.0000       0.0000       
 1719                            651                             652                                   6.7200      32.0000     135.0000       0.0000       
 1720                            650                             466                                  18.7600      32.0000     135.0000       0.0000       
 1721                            656                             661                                  15.0300      32.0000     135.0000       0.0000       
 1722                            649                             650                                 106.6700      32.0000     135.0000       0.0000       
 1723                            467                             483                                   8.4400      60.0000     132.0000       0.0000       
 1724                            446                             447                                  29.9800      60.0000     132.0000       0.0000       
 1725                            69                              498                                   0.1400      32.0000     135.0000       0.0000       
 1726                            498                             499                                  44.9600      32.0000     135.0000       0.0000       
 1727                            499                             500                                   1.8900      32.0000     135.0000       0.0000       
 1728                            70                              501                                  64.8000      32.0000     135.0000       0.0000       
 1729                            501                             451                                  20.9900      32.0000     135.0000       0.0000       
 1730                            72                              502                                   6.2000      60.0000     132.0000       0.0000       
 1731                            502                             451                                  35.6700      60.0000     132.0000       0.0000       
 1732                            454                             503                                   6.9300      85.0000     132.0000       0.0000       
 1733                            37                              649                                  12.0000      32.0000     135.0000       0.0000       
 1734                            661                             662                                  31.6100      32.0000     135.0000       0.0000       
 1735                            65                              66                                   26.2500     110.0000     132.0000       0.0000       
 1736                            67                              65                                   71.5500     110.0000     132.0000       0.0000       
 1737                            476                             474                                  40.0200      60.0000     132.0000       0.0000       
 1738                            465                             68                                   24.1400      32.0000     135.0000       0.0000       
 1739                            521                             519                                 100.0000      85.0000     132.0000       0.0000       
 1740                            475                             674                                  53.9200      60.0000     132.0000       0.0000       
 1741                            674                             94                                   51.5500      60.0000     132.0000       0.0000       
 1742                            95                              473                                  54.0500      60.0000     132.0000       0.0000       
 1743                            680                             681                                  81.4400      60.0000     132.0000       0.0000       
 1744                            472                             680                                   4.3700      60.0000     132.0000       0.0000       
 1745                            678                             679                                 110.7300      32.0000     135.0000       0.0000       
 1746                            474                             678                                  12.7700      32.0000     135.0000       0.0000       
 1747                            475                             676                                 119.0000      32.0000     135.0000       0.0000       
 1748                            676                             677                                   6.1500      32.0000     135.0000       0.0000       
 1749                            674                             675                                 112.4000      32.0000     135.0000       0.0000       
 1750                            672                             673                                  79.7600      32.0000     135.0000       0.0000       
 1751                            94                              672                                  22.0500      32.0000     135.0000       0.0000       
 1752                            671                             37                                   40.5500      60.0000     132.0000       0.0000       
 1753                            71                              671                                  14.7700      60.0000     132.0000       0.0000       
 1754                            670                             664                                  10.6200      32.0000     135.0000       0.0000       
 1755                            38                              670                                  14.1600      32.0000     135.0000       0.0000       
 1756                            664                             654                                  37.3000      32.0000     135.0000       0.0000       
 1757                            654                             656                                  40.5500      32.0000     135.0000       0.0000       
 1758                            663                             660                                 101.9600      32.0000     135.0000       0.0000       
 1759                            662                             663                                   6.3500      32.0000     135.0000       0.0000       
 1760                            474                             475                                  50.5200      60.0000     132.0000       0.0000       
 1761                            673                             685                                   5.7800      32.0000     135.0000       0.0000       
 1770                            774                             848                                   0.1000      50.0000     132.0000       0.0000       
 1771                            1533                            1552                                  0.1000     150.0000     137.0000       0.0000       
 1772                            1528                            1530                                  0.1000     150.0000     137.0000       0.0000       
 1773                            1563                            1564                                  0.1000      85.0000     135.0000       0.0000       
 1774                            1532                            1529                                  0.1000     150.0000     137.0000       0.0000       
 32                              1133                            77                                    0.1000     110.0000     135.0000       0.0000       
 33                              77                              1116                                  0.1000     110.0000     135.0000       0.0000       
 34                              513                             76                                    0.1000     110.0000     135.0000       0.0000       
 35                              76                              687                                   0.1000     110.0000     135.0000       0.0000       
 26                              POCOS                           89                                    0.1000     150.0000     130.0000       0.0000       
 27                              89                              88                                    0.1000     100.0000     130.0000       0.0000       
 28                              88                              87                                    0.1000     100.0000     130.0000       0.0000       
 29                              87                              86                                    0.1000     100.0000     130.0000       0.0000       
 30                              86                              85                                    0.1000     100.0000     130.0000       0.0000       
 31                              85                              84                                    0.1000     100.0000     130.0000       0.0000       
 41                              84                              C6                                    0.1000     100.0000     130.0000       0.0000       
 42                              85                              C5                                    0.1000     100.0000     130.0000       0.0000       
 44                              87                              C4                                    0.1000     100.0000     130.0000       0.0000       
 48                              88                              C2                                    0.1000     100.0000     130.0000       0.0000       
 88                              89                              C1                                    0.1000     100.0000     130.0000       0.0000       
 92                              C1                              1474                                  0.1000     100.0000     130.0000       0.0000       
 93                              C2                              1472                                  0.1000     100.0000     130.0000       0.0000       
 94                              C4                              1470                                  0.1000     100.0000     130.0000       0.0000       
 96                              C5                              1459                                  0.1000     100.0000     130.0000       0.0000       
 97                              C6                              1458                                  0.1000     100.0000     130.0000       0.0000       
 43                              C7                              1465                                  0.1000     100.0000     130.0000       0.0000       
 95                              89                              C7                                    0.1000     100.0000     130.0000       0.0000       
 98                              1024                            1003                                  0.1000     110.0000     132.0000       0.0000       

[PUMPS]

[VALVES]

[DEMANDS]
 1                                     0.000000                                
 2                                     0.000000                                
 3                                     0.134875                                
 4                                     0.000000                                
 5                                     0.184352                                
 6                                     0.079166                                
 7                                     0.009345                                
 8                                     0.008188                                
 9                                     0.041872                                
 10                                    0.025506                                
 11                                    0.000986                                
 12                                    0.009002                                
 13                                    0.000000                                
 14                                    0.032579                                
 15                                    0.085005                                
 16                                    0.000000                                
 17                                    0.063991                                
 18                                    0.202004                                
 19                                    0.070035                                
 20                                    0.208416                                
 21                                    0.337531                                
 22                                    0.037371                                
 23                                    0.017447                                
 24                                    0.275812                                
 25                                    0.177056                                
 26                                    0.000000                                
 27                                    0.000000                                
 28                                    0.025420                                
 29                                    0.037594                                
 30                                    0.053241                                
 31                                    0.000000                                
 32                                    0.000000                                
 33                                    0.000000                                
 34                                    0.000000                                
 35                                    0.013374                                
 36                                    0.000000                                
 37                                    0.002122                                
 38                                    0.047144                                
 39                                    0.019590                                
 40                                    0.026525                                
 41                                    0.026063                                
 42                                    0.027468                                
 43                                    0.106625                                
 44                                    0.000000                                
 45                                    0.000000                                
 46                                    0.000000                                
 47                                    0.061110                                
 48                                    0.169496                                
 49                                    0.026525                                
 50                                    0.042481                                
 51                                    0.000000                                
 52                                    0.008359                                
 53                                    0.000000                                
 54                                    0.000000                                
 55                                    0.000000                                
 56                                    0.022548                                
 57                                    0.000000                                
 58                                    0.000000                                
 59                                    0.000000                                
 60                                    0.000000                                
 61                                    0.000000                                
 62                                    0.011060                                
 63                                    0.048525                                
 64                                    0.000000                                
 65                                    0.000000                                
 66                                    0.026525                                
 67                                    0.032998                                
 68                                    0.000000                                
 69                                    0.053669                                
 70                                    0.000000                                
 71                                    0.000000                                
 72                                    0.034927                                
 73                                    0.000000                                
 74                                    0.000000                                
 91                                    0.000000                                
 92                                    0.000000                                
 93                                    0.000000                                
 94                                    0.230100                                
 95                                    0.000000                                
 96                                    0.000043                                
 97                                    0.004201                                
 98                                    0.054612                                
 99                                    0.000000                                
 100                                   0.012689                                
 101                                   0.000000                                
 102                                   0.026525                                
 103                                   0.000000                                
 104                                   0.035742                                
 105                                   0.000000                                
 106                                   0.041152                                
 107                                   0.004458                                
 108                                   0.000000                                
 109                                   0.000000                                
 110                                   0.000000                                
 111                                   0.076808                                
 112                                   0.051817                                
 113                                   0.000000                                
 114                                   0.000000                                
 115                                   0.006344                                
 116                                   0.005144                                
 117                                   0.000000                                
 118                                   0.010845                                
 119                                   0.009045                                
 120                                   0.000000                                
 121                                   0.000000                                
 122                                   0.000000                                
 123                                   0.000000                                
 124                                   0.026525                                
 125                                   0.032655                                
 126                                   0.008445                                
 127                                   0.123671                                
 128                                   0.114746                                
 129                                   0.129173                                
 130                                   0.000000                                
 131                                   0.000000                                
 132                                   0.030512                                
 133                                   0.000000                                
 134                                   0.000000                                
 135                                   0.000000                                
 136                                   0.168182                                
 137                                   0.217194                                
 138                                   0.000000                                
 139                                   0.108049                                
 140                                   0.000000                                
 141                                   0.000000                                
 142                                   0.000000                                
 143                                   0.000000                                
 144                                   0.000000                                
 145                                   0.000000                                
 146                                   0.000000                                
 147                                   0.000000                                
 148                                   0.000000                                
 149                                   0.000000                                
 150                                   0.000000                                
 151                                   0.187696                                
 152                                   0.007030                                
 153                                   0.011703                                
 154                                   0.034551                                
 155                                   0.043381                                
 156                                   0.042438                                
 157                                   0.059447                                
 158                                   0.000000                                
 159                                   0.050283                                
 160                                   0.000000                                
 161                                   0.000000                                
 162                                   0.014532                                
 163                                   0.000000                                
 164                                   0.000000                                
 165                                   0.000000                                
 166                                   0.000000                                
 167                                   0.000000                                
 168                                   0.000000                                
 169                                   0.004801                                
 170                                   0.000000                                
 171                                   0.000000                                
 172                                   0.009388                                
 173                                   0.006173                                
 174                                   0.000000                                
 175                                   0.000000                                
 176                                   0.019333                                
 177                                   0.000000                                
 178                                   0.005273                                
 179                                   0.070421                                
 180                                   0.000000                                
 181                                   0.000000                                
 182                                   0.043339                                
 183                                   0.039428                                
 184                                   0.009602                                
 185                                   0.000000                                
 186                                   0.000000                                
 187                                   0.000000                                
 188                                   0.000000                                
 189                                   0.000000                                
 190                                   0.000000                                
 191                                   0.006516                                
 192                                   0.000000                                
 193                                   0.076894                                
 194                                   0.000000                                
 195                                   0.000000                                
 196                                   0.000000                                
 197                                   0.000000                                
 198                                   0.000000                                
 199                                   0.000000                                
 200                                   0.006730                                
 201                                   0.026525                                
 202                                   0.016204                                
 203                                   0.035742                                
 204                                   0.007802                                
 205                                   0.363286                                
 Dom_Francisco_CH12_LT14               0.026525                                
 207                                   0.043501                                
 208                                   0.013632                                
 209                                   0.000000                                
 210                                   0.000000                                
 211                                   0.008273                                
 212                                   0.005187                                
 213                                   0.065234                                
 214                                   0.007630                                
 215                                   0.000000                                
 216                                   0.099733                                
 217                                   0.020362                                
 218                                   0.048397                                
 219                                   0.000000                                
 220                                   0.007930                                
 221                                   0.015261                                
 222                                   0.000000                                
 223                                   0.000000                                
 224                                   0.000000                                
 225                                   0.000000                                
 226                                   0.000000                                
 227                                   0.000000                                
 228                                   0.000000                                
 229                                   0.000000                                
 230                                   0.000000                                
 231                                   0.000000                                
 232                                   0.000000                                
 233                                   0.000000                                
 234                                   0.000000                                
 235                                   0.000000                                
 236                                   0.000000                                
 237                                   0.009388                                
 238                                   0.000600                                
 239                                   0.028549                                
 240                                   0.302742                                
 241                                   0.003901                                
 242                                   0.011445                                
 243                                   0.000000                                
 244                                   0.000000                                
 245                                   0.000000                                
 246                                   0.000000                                
 247                                   0.000000                                
 248                                   0.000000                                
 249                                   0.000000                                
 250                                   0.000000                                
 251                                   0.000000                                
 252                                   0.000000                                
 253                                   0.000000                                
 254                                   0.000000                                
 255                                   0.000000                                
 256                                   0.028154                                
 257                                   0.185243                                
 258                                   0.222023                                
 259                                   0.040671                                
 260                                   0.000000                                
 261                                   0.032965                                
 262                                   0.082133                                
 263                                   0.033684                                
 264                                   0.081738                                
 265                                   0.000000                                
 266                                   0.077161                                
 267                                   0.096536                                
 268                                   0.004115                                
 269                                   0.000000                                
 270                                   0.029450                                
 271                                   0.013589                                
 272                                   0.000000                                
 273                                   0.057099                                
 274                                   0.002358                                
 275                                   0.093226                                
 276                                   0.007930                                
 277                                   0.064625                                
 278                                   0.073498                                
 279                                   0.110998                                
 280                                   0.165638                                
 281                                   0.044453                                
 282                                   0.026525                                
 283                                   0.000000                                
 284                                   0.000000                                
 285                                   0.017747                                
 286                                   0.006687                                
 287                                   0.000000                                
 288                                   0.006001                                
 289                                   0.000000                                
 290                                   0.000000                                
 291                                   0.000000                                
 292                                   0.000000                                
 293                                   0.000000                                
 294                                   0.000000                                
 295                                   0.016418                                
 296                                   0.000000                                
 369                                   0.009602                                
 370                                   0.000000                                
 371                                   0.000000                                
 372                                   0.032536                                
 373                                   0.018047                                
 374                                   0.015775                                
 375                                   0.007502                                
 376                                   0.065063                                
 377                                   0.034456                                
 378                                   0.149045                                
 379                                   0.054037                                
 380                                   0.047102                                
 381                                   0.099966                                
 382                                   0.000000                                
 383                                   0.000000                                
 384                                   0.000000                                
 385                                   0.000000                                
 386                                   0.000000                                
 387                                   0.000000                                
 388                                   0.000000                                
 389                                   0.000000                                
 390                                   0.000000                                
 391                                   0.000000                                
 392                                   0.000000                                
 393                                   0.000000                                
 394                                   0.000000                                
 395                                   0.000000                                
 396                                   0.000000                                
 397                                   0.000000                                
 398                                   0.000000                                
 399                                   0.000000                                
 400                                   0.000000                                
 401                                   0.000000                                
 402                                   0.007888                                
 403                                   0.014714                                
 404                                   0.107011                                
 405                                   0.069873                                
 406                                   0.015014                                
 407                                   0.000000                                
 408                                   0.000000                                
 409                                   0.000000                                
 410                                   0.013460                                
 411                                   0.002015                                
 412                                   0.003472                                
 413                                   0.000000                                
 417                                   0.000000                                
 418                                   0.000000                                
 419                                   0.074270                                
 420                                   0.023963                                
 421                                   0.000000                                
 422                                   0.007716                                
 423                                   0.090140                                
 424                                   0.000000                                
 425                                   0.026525                                
 426                                   0.005744                                
 427                                   0.026363                                
 428                                   0.050883                                
 429                                   0.000000                                
 430                                   0.073808                                
 431                                   0.072050                                
 432                                   0.000000                                
 433                                   0.000000                                
 434                                   0.037499                                
 435                                   0.041474                                
 436                                   0.000000                                
 437                                   0.064000                                
 438                                   0.043810                                
 439                                   0.000000                                
 440                                   0.000000                                
 441                                   0.000000                                
 442                                   0.002529                                
 443                                   0.000000                                
 444                                   0.065657                                
 445                                   0.021619                                
 446                                   0.006944                                
 447                                   0.025849                                
 448                                   0.007416                                
 449                                   0.007502                                
 450                                   0.032184                                
 451                                   0.086444                                
 452                                   0.017533                                
 453                                   0.080547                                
 454                                   0.012731                                
 455                                   0.000000                                
 456                                   0.000000                                
 457                                   0.001329                                
 458                                   0.000000                                
 459                                   0.000000                                
 460                                   0.000000                                
 461                                   0.000000                                
 462                                   0.094580                                
 463                                   0.003987                                
 464                                   0.002743                                
 465                                   0.000000                                
 466                                   0.000000                                
 467                                   0.001586                                
 468                                   0.030436                                
 469                                   0.032527                                
 470                                   0.006644                                
 471                                   0.053265                                
 472                                   0.031722                                
 473                                   0.000000                                
 474                                   0.038066                                
 475                                   0.007973                                
 476                                   0.027983                                
 477                                   0.056694                                
 478                                   0.000000                                
 479                                   0.003172                                
 480                                   0.000000                                
 481                                   0.000000                                
 482                                   0.017147                                
 483                                   0.000000                                
 484                                   0.003429                                
 485                                   0.040981                                
 486                                   0.059704                                
 487                                   0.006001                                
 488                                   0.035365                                
 489                                   0.017618                                
 490                                   0.006902                                
 491                                   0.000000                                
 492                                   0.000000                                
 493                                   0.001586                                
 494                                   0.003001                                
 495                                   0.105753                                
 496                                   0.052031                                
 497                                   0.004630                                
 498                                   0.014489                                
 499                                   0.000000                                
 500                                   0.025334                                
 501                                   0.006216                                
 502                                   0.000000                                
 503                                   0.005316                                
 504                                   0.060914                                
 505                                   0.025034                                
 506                                   0.157833                                
 507                                   0.041272                                
 508                                   0.024906                                
 509                                   0.000000                                
 512                                   0.000000                                
 513                                   0.000000                                
 514                                   0.000000                                
 515                                   0.000000                                
 516                                   0.000000                                
 517                                   0.000000                                
 518                                   0.000000                                
 519                                   0.000000                                
 520                                   0.013131                                
 521                                   0.000000                                
 522                                   0.012946                                
 523                                   0.015475                                
 524                                   0.008102                                
 525                                   0.000000                                
 526                                   0.049533                                
 527                                   0.069521                                
 528                                   0.036428                                
 529                                   0.054518                                
 530                                   0.030307                                
 531                                   0.006259                                
 532                                   0.000000                                
 533                                   0.000000                                
 534                                   0.000000                                
 535                                   0.000000                                
 536                                   0.000000                                
 537                                   0.000000                                
 538                                   0.000000                                
 539                                   0.000000                                
 540                                   0.000000                                
 541                                   0.000000                                
 542                                   0.000000                                
 543                                   0.026525                                
 544                                   0.011028                                
 545                                   0.034894                                
 546                                   0.011403                                
 547                                   0.007973                                
 548                                   0.012003                                
 549                                   0.000000                                
 550                                   0.000000                                
 551                                   0.000000                                
 552                                   0.000000                                
 553                                   0.000000                                
 554                                   0.091778                                
 555                                   0.004672                                
 556                                   0.004973                                
 557                                   0.000000                                
 558                                   0.026525                                
 559                                   0.000000                                
 560                                   0.000000                                
 561                                   0.020019                                
 562                                   0.000000                                
 563                                   0.000000                                
 564                                   0.004115                                
 565                                   0.074236                                
 566                                   0.058599                                
 567                                   0.019547                                
 568                                   0.012774                                
 569                                   0.011317                                
 570                                   0.000000                                
 571                                   0.054527                                
 572                                   0.005015                                
 573                                   0.000000                                
 574                                   0.003215                                
 575                                   0.095713                                
 576                                   0.051988                                
 577                                   0.000000                                
 578                                   0.057047                                
 579                                   0.013546                                
 580                                   0.032527                                
 581                                   0.016161                                
 582                                   0.004544                                
 583                                   0.000000                                
 584                                   0.004415                                
 585                                   0.281550                                
 586                                   0.000000                                
 587                                   0.000000                                
 588                                   0.000000                                
 589                                   0.000000                                
 590                                   0.002272                                
 591                                   0.000000                                
 592                                   0.000000                                
 593                                   0.000000                                
 594                                   0.000000                                
 595                                   0.000300                                
 596                                   0.002486                                
 597                                   0.000000                                
 598                                   0.000000                                
 599                                   0.005744                                
 600                                   0.000000                                
 601                                   0.028249                                
 602                                   0.001115                                
 603                                   0.009516                                
 604                                   0.027649                                
 605                                   0.054312                                
 606                                   0.021905                                
 607                                   0.031722                                
 608                                   0.024563                                
 609                                   0.106102                                
 610                                   0.026020                                
 611                                   0.009859                                
 612                                   0.043167                                
 613                                   0.035408                                
 614                                   0.006001                                
 615                                   0.007587                                
 616                                   0.003472                                
 617                                   0.058204                                
 618                                   0.007587                                
 619                                   0.023748                                
 620                                   0.045868                                
 621                                   0.030870                                
 622                                   0.038742                                
 623                                   0.062886                                
 624                                   0.025377                                
 625                                   0.001415                                
 626                                   0.051140                                
 627                                   0.025420                                
 628                                   0.021262                                
 629                                   0.037380                                
 630                                   0.048483                                
 631                                   0.031164                                
 632                                   0.000000                                
 633                                   0.000000                                
 634                                   0.000000                                
 635                                   0.001543                                
 636                                   0.008402                                
 637                                   0.005358                                
 638                                   0.000000                                
 639                                   0.000000                                
 640                                   0.000386                                
 641                                   0.000000                                
 642                                   0.000943                                
 643                                   0.001415                                
 644                                   0.002229                                
 645                                   0.000000                                
 646                                   0.000000                                
 647                                   0.000000                                
 648                                   0.027692                                
 649                                   0.042010                                
 650                                   0.000000                                
 651                                   0.000000                                
 652                                   0.000643                                
 653                                   0.067592                                
 654                                   0.064600                                
 655                                   0.000000                                
 656                                   0.230559                                
 657                                   0.069597                                
 658                                   0.002786                                
 659                                   0.041314                                
 660                                   0.032355                                
 661                                   0.035013                                
 662                                   0.033213                                
 663                                   0.000000                                
 664                                   0.000000                                
 665                                   0.000000                                
 666                                   0.130888                                
 667                                   0.061214                                
 668                                   0.000000                                
 669                                   0.018261                                
 670                                   0.017876                                
 671                                   0.060905                                
 672                                   0.020362                                
 673                                   0.060262                                
 674                                   0.025763                                
 675                                   0.044272                                
 676                                   0.029407                                
 677                                   0.077366                                
 678                                   0.225455                                
 679                                   0.016718                                
 680                                   0.014961                                
 681                                   0.089292                                
 682                                   0.020619                                
 683                                   0.028421                                
 684                                   0.882908                                
 685                                   0.000000                                
 686                                   0.000000                                
 687                                   0.000000                                
 693                                   0.080614                                
 694                                   0.005616                                
 695                                   0.006001                                
 696                                   0.000000                                
 697                                   0.000000                                
 698                                   0.000000                                
 699                                   0.000000                                
 700                                   0.000000                                
 701                                   0.000000                                
 702                                   0.000000                                
 703                                   0.000000                                
 704                                   0.000000                                
 705                                   0.000000                                
 706                                   0.004287                                
 707                                   0.000000                                
 708                                   0.006902                                
 709                                   0.000000                                
 710                                   0.000000                                
 711                                   0.000000                                
 712                                   0.008016                                
 713                                   0.000000                                
 714                                   0.000000                                
 715                                   0.000000                                
 716                                   0.000000                                
 717                                   0.000000                                
 718                                   0.000000                                
 719                                   0.000000                                
 720                                   0.000000                                
 721                                   0.002658                                
 722                                   0.002058                                
 723                                   0.010717                                
 724                                   0.005573                                
 725                                   0.026525                                
 726                                   0.000000                                
 727                                   0.011617                                
 728                                   0.001072                                
 729                                   0.000000                                
 730                                   0.000000                                
 731                                   0.000000                                
 732                                   0.000000                                
 733                                   0.000000                                
 734                                   0.000000                                
 735                                   0.000000                                
 736                                   0.000000                                
 737                                   0.013803                                
 738                                   0.013975                                
 739                                   0.000000                                
 740                                   0.000000                                
 741                                   0.006173                                
 742                                   0.013675                                
 743                                   0.002743                                
 744                                   0.003129                                
 745                                   0.010159                                
 746                                   0.013589                                
 747                                   0.053051                                
 748                                   0.011617                                
 749                                   0.035665                                
 750                                   0.045182                                
 751                                   0.012046                                
 752                                   0.005058                                
 753                                   0.013589                                
 754                                   0.000643                                
 755                                   0.026363                                
 756                                   0.012989                                
 757                                   0.025586                                
 758                                   0.014489                                
 759                                   0.017313                                
 760                                   0.011960                                
 761                                   0.000000                                
 762                                   0.000000                                
 763                                   0.000000                                
 764                                   0.000000                                
 765                                   0.003729                                
 766                                   0.002015                                
 767                                   0.006173                                
 768                                   0.000000                                
 769                                   0.012646                                
 770                                   0.000000                                
 771                                   0.003772                                
 772                                   0.000000                                
 773                                   0.000000                                
 774                                   0.026525                                
 775                                   0.000000                                
 776                                   0.000000                                
 777                                   0.006130                                
 778                                   0.022677                                
 779                                   0.025849                                
 780                                   0.009945                                
 781                                   0.032527                                
 782                                   0.000000                                
 783                                   0.028292                                
 784                                   0.007030                                
 785                                   0.004973                                
 786                                   0.000000                                
 787                                   0.000000                                
 788                                   0.009088                                
 789                                   0.019376                                
 790                                   0.008488                                
 791                                   0.017961                                
 792                                   0.012989                                
 793                                   0.006387                                
 794                                   0.004844                                
 795                                   0.004544                                
 796                                   0.000000                                
 797                                   0.000000                                
 798                                   0.033298                                
 799                                   0.026525                                
 800                                   0.000000                                
 801                                   0.006987                                
 802                                   0.000000                                
 803                                   0.007673                                
 804                                   0.000000                                
 805                                   0.000000                                
 806                                   0.118182                                
 807                                   0.000000                                
 808                                   0.000000                                
 809                                   0.026520                                
 810                                   0.008745                                
 811                                   0.000386                                
 812                                   0.005787                                
 813                                   0.005616                                
 814                                   0.030341                                
 815                                   0.005015                                
 816                                   0.000000                                
 817                                   0.000000                                
 818                                   0.000000                                
 819                                   0.000000                                
 820                                   0.000000                                
 821                                   0.000000                                
 822                                   0.020147                                
 823                                   0.025334                                
 824                                   0.022762                                
 825                                   0.042300                                
 826                                   0.054270                                
 827                                   0.005530                                
 828                                   0.012303                                
 829                                   0.005787                                
 830                                   0.008831                                
 831                                   0.000000                                
 832                                   0.039394                                
 833                                   0.037194                                
 834                                   0.039394                                
 835                                   0.083846                                
 836                                   0.170707                                
 837                                   0.118182                                
 838                                   0.000000                                
 839                                   0.003472                                
 840                                   0.004072                                
 841                                   0.012003                                
 842                                   0.056241                                
 843                                   0.084732                                
 844                                   0.028435                                
 845                                   0.044109                                
 846                                   0.076245                                
 847                                   0.026525                                
 848                                   0.007630                                
 849                                   0.000000                                
 850                                   0.000000                                
 851                                   0.053051                                
 852                                   0.002658                                
 853                                   0.000000                                
 854                                   0.001972                                
 855                                   0.005701                                
 856                                   0.000000                                
 857                                   0.000000                                
 858                                   0.000000                                
 859                                   0.000000                                
 860                                   0.004715                                
 861                                   0.062877                                
 862                                   0.064882                                
 863                                   0.000000                                
 864                                   0.001200                                
 865                                   0.000000                                
 866                                   0.000000                                
 867                                   0.000000                                
 868                                   0.013975                                
 869                                   0.000000                                
 870                                   0.000000                                
 871                                   0.000000                                
 872                                   0.038871                                
 873                                   0.009173                                
 874                                   0.041400                                
 875                                   0.005316                                
 876                                   0.007888                                
 877                                   0.054089                                
 878                                   0.015689                                
 879                                   0.000000                                
 880                                   0.009259                                
 881                                   0.000000                                
 882                                   0.000000                                
 883                                   0.026525                                
 884                                   0.000000                                
 885                                   0.036599                                
 886                                   0.000000                                
 887                                   0.008359                                
 888                                   0.053522                                
 889                                   0.050059                                
 890                                   0.034884                                
 891                                   0.012903                                
 892                                   0.011060                                
 893                                   0.036428                                
 894                                   0.022505                                
 895                                   0.013246                                
 896                                   0.038442                                
 897                                   0.013117                                
 898                                   0.000000                                
 899                                   0.007287                                
 900                                   0.004544                                
 901                                   0.007416                                
 902                                   0.002572                                
 903                                   0.000000                                
 904                                   0.002572                                
 905                                   0.026525                                
 906                                   0.009774                                
 907                                   0.002100                                
 908                                   0.007888                                
 909                                   0.017661                                
 910                                   0.022891                                
 911                                   0.039643                                
 912                                   0.034336                                
 913                                   0.007630                                
 914                                   0.013546                                
 915                                   0.000000                                
 916                                   0.020019                                
 917                                   0.017661                                
 918                                   0.000000                                
 919                                   0.000000                                
 920                                   0.006816                                
 921                                   0.000000                                
 922                                   0.010588                                
 923                                   0.006044                                
 924                                   0.041957                                
 925                                   0.000686                                
 926                                   0.005144                                
 927                                   0.026920                                
 928                                   0.053317                                
 929                                   0.015646                                
 930                                   0.015861                                
 931                                   0.000000                                
 932                                   0.000000                                
 933                                   0.005101                                
 934                                   0.014103                                
 935                                   0.022034                                
 936                                   0.005873                                
 937                                   0.038742                                
 938                                   0.042558                                
 939                                   0.034713                                
 940                                   0.000000                                
 941                                   0.000000                                
 942                                   0.005444                                
 943                                   0.002915                                
 944                                   0.000000                                
 945                                   0.000514                                
 946                                   0.004072                                
 947                                   0.000000                                
 948                                   0.000000                                
 949                                   0.000000                                
 950                                   0.043072                                
 951                                   0.046587                                
 952                                   0.071698                                
 953                                   0.028892                                
 954                                   0.010674                                
 955                                   0.076011                                
 956                                   0.011317                                
 957                                   0.000000                                
 958                                   0.002529                                
 959                                   0.000000                                
 960                                   0.005916                                
 961                                   0.000000                                
 962                                   0.000000                                
 963                                   0.000000                                
 964                                   0.000000                                
 965                                   0.000000                                
 966                                   0.000000                                
 967                                   0.000000                                
 968                                   0.000000                                
 969                                   0.000000                                
 970                                   0.000000                                
 971                                   0.000000                                
 972                                   0.000257                                
 973                                   0.000000                                
 974                                   0.000000                                
 975                                   0.264725                                
 976                                   0.000000                                
 977                                   0.000000                                
 978                                   0.000000                                
 979                                   0.000000                                
 980                                   0.000000                                
 981                                   0.000000                                
 982                                   0.000000                                
 983                                   0.000000                                
 984                                   0.000000                                
 985                                   0.000000                                
 986                                   0.052083                                
 987                                   0.001243                                
 988                                   0.000000                                
 989                                   0.000000                                
 990                                   0.000000                                
 991                                   0.000000                                
 992                                   0.000000                                
 993                                   0.000000                                
 994                                   0.000000                                
 995                                   0.000000                                
 996                                   0.000000                                
 1000                                  0.000000                                
 1001                                  0.000000                                
 1002                                  0.000000                                
 1003                                  0.000000                                
 1004                                  0.000000                                
 1005                                  0.000000                                
 1006                                  0.000000                                
 1007                                  0.000000                                
 1008                                  0.000000                                
 1009                                  0.000000                                
 1024                                  0.000000                                
 1025                                  0.000000                                
 1080                                  0.000000                                
 1081                                  0.000000                                
 1082                                  0.000000                                
 1083                                  0.005401                                
 1084                                  0.000986                                
 1085                                  0.000000                                
 1086                                  0.000000                                
 1087                                  0.000686                                
 1088                                  0.000000                                
 1089                                  0.003172                                
 1090                                  0.000000                                
 1091                                  0.000000                                
 1092                                  0.000000                                
 1093                                  0.000000                                
 1094                                  0.000000                                
 1095                                  0.000000                                
 1096                                  0.000000                                
 1097                                  0.000000                                
 1098                                  0.000000                                
 1099                                  0.000000                                
 1100                                  0.000000                                
 1101                                  0.000000                                
 1102                                  0.000000                                
 1103                                  0.000000                                
 1104                                  0.000000                                
 1105                                  0.000000                                
 1106                                  0.000000                                
 1107                                  0.003086                                
 1108                                  0.000000                                
 1109                                  0.000000                                
 1110                                  0.000000                                
 1111                                  0.004330                                
 1112                                  0.000000                                
 1113                                  0.147548                                
 1114                                  0.000000                                
 1115                                  0.000000                                
 1116                                  0.000000                                
 1117                                  0.000000                                
 1118                                  0.000000                                
 1119                                  0.000000                                
 1120                                  0.103309                                
 1121                                  0.000000                                
 1122                                  0.000000                                
 1123                                  0.093407                                
 1124                                  0.000000                                
 1125                                  0.026525                                
 1126                                  0.347629                                
 1127                                  0.000000                                
 1128                                  0.001329                                
 1129                                  0.028669                                
 1130                                  0.000000                                
 1131                                  0.000000                                
 1132                                  0.000000                                
 1133                                  0.000000                                
 1134                                  0.000000                                
 1144                                  0.000000                                
 1145                                  0.000000                                
 1146                                  0.000000                                
 1147                                  0.000000                                
 1148                                  0.000000                                
 1149                                  0.000000                                
 1150                                  0.000000                                
 1151                                  0.000000                                
 1152                                  0.000000                                
 1153                                  0.000000                                
 1154                                  0.000000                                
 1155                                  0.000000                                
 1156                                  0.000000                                
 1157                                  0.000000                                
 1158                                  0.000000                                
 1159                                  0.000000                                
 1160                                  0.000000                                
 1161                                  0.000000                                
 1162                                  0.000000                                
 1163                                  0.000000                                
 1164                                  0.000000                                
 1165                                  0.026525                                
 1166                                  0.000000                                
 1167                                  0.000000                                
 1168                                  0.000000                                
 1169                                  0.000000                                
 1170                                  0.000000                                
 1171                                  0.000000                                
 1172                                  0.000000                                
 1173                                  0.000000                                
 1174                                  0.000000                                
 1175                                  0.000000                                
 1176                                  0.000000                                
 1177                                  0.000000                                
 1178                                  0.000000                                
 1179                                  0.000000                                
 1180                                  0.000000                                
 1181                                  0.026525                                
 1182                                  0.000000                                
 1183                                  0.000000                                
 1184                                  0.000000                                
 1185                                  0.116341                                
 1186                                  0.000000                                
 1187                                  0.000171                                
 1188                                  0.000000                                
 1189                                  0.000000                                
 1190                                  0.000000                                
 1191                                  0.000000                                
 1192                                  0.026525                                
 1193                                  0.039394                                
 1194                                  0.013131                                
 1195                                  0.000000                                
 1196                                  0.000000                                
 1197                                  0.000000                                
 1198                                  0.000000                                
 1199                                  0.000000                                
 1200                                  0.000000                                
 1201                                  0.000000                                
 1202                                  0.000000                                
 1203                                  0.000000                                
 1204                                  0.000000                                
 1205                                  0.000000                                
 1206                                  0.000000                                
 1207                                  0.000000                                
 1208                                  0.000000                                
 1209                                  0.000000                                
 1210                                  0.000000                                
 1211                                  0.000000                                
 1212                                  0.000000                                
 1213                                  0.000000                                
 1214                                  0.000000                                
 1215                                  0.000000                                
 1216                                  0.001329                                
 1217                                  0.000000                                
 1218                                  0.000000                                
 1219                                  0.000000                                
 1220                                  0.000000                                
 1221                                  0.000000                                
 1222                                  0.026525                                
 1223                                  0.000000                                
 1224                                  0.000000                                
 1225                                  0.000000                                
 1226                                  0.000000                                
 1227                                  0.000000                                
 1228                                  0.000000                                
 1229                                  0.000000                                
 1230                                  0.000000                                
 1231                                  0.005573                                
 1232                                  0.000000                                
 1233                                  0.000000                                
 1234                                  0.000000                                
 1235                                  0.026525                                
 1236                                  0.000000                                
 1237                                  0.000000                                
 1238                                  0.026525                                
 1239                                  0.000000                                
 1240                                  0.000000                                
 1241                                  0.000000                                
 1242                                  0.000000                                
 1243                                  0.000000                                
 1244                                  0.000000                                
 1245                                  0.000000                                
 1246                                  0.000000                                
 1247                                  0.000000                                
 1248                                  0.000000                                
 1249                                  0.000000                                
 1250                                  0.013131                                
 1251                                  0.000000                                
 1252                                  0.000000                                
 1253                                  0.000000                                
 1254                                  0.000000                                
 1255                                  0.000000                                
 1256                                  0.000000                                
 1257                                  0.000000                                
 1258                                  0.000000                                
 1259                                  0.000000                                
 1260                                  0.549725                                
 1261                                  0.000000                                
 1262                                  0.026525                                
 1263                                  0.000000                                
 1264                                  0.000000                                
 1265                                  0.000000                                
 1266                                  0.000000                                
 1267                                  0.000000                                
 1268                                  0.000000                                
 1269                                  0.000000                                
 1270                                  0.000000                                
 1271                                  0.000000                                
 1272                                  0.000000                                
 1273                                  0.053051                                
 1274                                  0.026525                                
 1275                                  0.000000                                
 1276                                  0.000000                                
 1277                                  0.000000                                
 1278                                  0.000000                                
 1279                                  0.000000                                
 1280                                  0.000000                                
 1281                                  0.000000                                
 1282                                  0.000000                                
 1283                                  0.000000                                
 1284                                  0.000000                                
 1285                                  0.000000                                
 1286                                  0.000000                                
 1287                                  0.000000                                
 1288                                  0.000000                                
 1289                                  0.000000                                
 1290                                  0.000772                                
 1291                                  0.000000                                
 1292                                  0.000000                                
 1293                                  0.000000                                
 1294                                  0.000000                                
 1295                                  0.000000                                
 1296                                  0.000000                                
 1297                                  0.000000                                
 1298                                  0.000000                                
 1299                                  0.000000                                
 1300                                  0.334689                                
 1301                                  0.000000                                
 1302                                  0.000000                                
 1303                                  0.000000                                
 1304                                  0.026525                                
 1305                                  0.000000                                
 1306                                  0.032741                                
 1307                                  0.040704                                
 1308                                  0.000000                                
 1309                                  0.000000                                
 1310                                  0.000000                                
 1311                                  0.000000                                
 1312                                  0.129201                                
 1313                                  0.000000                                
 1314                                  0.000000                                
 1315                                  0.000000                                
 1316                                  0.000000                                
 1317                                  0.000000                                
 1318                                  0.000000                                
 1319                                  0.000000                                
 1320                                  0.000000                                
 1321                                  0.000000                                
 1322                                  0.026525                                
 1323                                  0.000000                                
 1324                                  0.004973                                
 1325                                  0.000000                                
 1326                                  0.000000                                
 1327                                  0.000000                                
 1328                                  0.000000                                
 1329                                  0.000000                                
 1330                                  0.000000                                
 1331                                  0.000000                                
 1332                                  0.000000                                
 1333                                  0.000000                                
 1334                                  0.000000                                
 1335                                  0.000000                                
 1336                                  0.000000                                
 1337                                  0.000000                                
 1338                                  0.000000                                
 1339                                  0.000000                                
 1340                                  0.013131                                
 1341                                  0.039657                                
 1342                                  0.000000                                
 1343                                  0.000000                                
 1344                                  0.000000                                
 1345                                  0.000000                                
 1346                                  0.037671                                
 1347                                  0.009088                                
 1348                                  0.000000                                
 1349                                  0.000000                                
 1350                                  0.080348                                
 1351                                  0.000000                                
 1352                                  0.026525                                
 1353                                  0.010888                                
 1354                                  0.000000                                
 1355                                  0.013117                                
 1356                                  0.064227                                
 1357                                  0.000000                                
 1358                                  0.000000                                
 1359                                  0.000000                                
 1360                                  0.000000                                
 1361                                  0.000000                                
 1362                                  0.000000                                
 1363                                  0.000000                                
 1364                                  0.000000                                
 1365                                  0.000000                                
 1366                                  0.000000                                
 1367                                  0.000000                                
 1368                                  0.000000                                
 1369                                  0.000000                                
 1370                                  0.000000                                
 1371                                  0.000000                                
 1372                                  0.001500                                
 1373                                  0.000000                                
 1374                                  0.000000                                
 1375                                  0.000000                                
 1376                                  0.065657                                
 1377                                  0.000000                                
 1378                                  0.000000                                
 1379                                  0.000000                                
 1380                                  0.000000                                
 1381                                  0.000000                                
 1382                                  0.000000                                
 1383                                  0.000000                                
 1384                                  0.039394                                
 1385                                  0.039394                                
 1386                                  0.065657                                
 1387                                  0.039394                                
 1388                                  0.000000                                
 1389                                  0.000000                                
 1390                                  0.000000                                
 1391                                  0.000000                                
 1392                                  0.000000                                
 1393                                  0.000000                                
 1394                                  0.000000                                
 1395                                  0.001029                                
 1396                                  0.000000                                
 1397                                  0.000000                                
 1398                                  0.032279                                
 1399                                  0.000000                                
 1400                                  0.000000                                
 1401                                  0.022891                                
 1402                                  0.000000                                
 1403                                  0.000000                                
 1404                                  0.000000                                
 1405                                  0.000000                                
 1406                                  0.026525                                
 1407                                  0.003772                                
 1408                                  0.000000                                
 1409                                  0.003772                                
 1410                                  0.000000                                
 1411                                  0.000000                                
 1412                                  0.000000                                
 1413                                  0.002701                                
 1414                                  0.009516                                
 1415                                  0.000000                                
 1416                                  0.000000                                
 1417                                  0.000000                                
 1418                                  0.000000                                
 1419                                  0.000000                                
 1420                                  0.324203                                
 1421                                  0.000000                                
 1422                                  0.000000                                
 1423                                  0.000000                                
 1424                                  0.000000                                
 1434                                  0.000000                                
 1446                                  0.000000                                
 1447                                  0.000000                                
 1448                                  0.000000                                
 1449                                  0.000000                                
 1450                                  0.000000                                
 1451                                  0.000000                                
 1452                                  0.000000                                
 1453                                  0.000000                                
 1458                                  0.000000                                
 1459                                  0.000000                                
 1460                                  0.000000                                
 1465                                  0.000000                                
 1466                                  0.000000                                
 1467                                  0.000000                                
 1468                                  0.000000                                
 1469                                  0.000000                                
 1470                                  0.000000                                
 1471                                  0.000000                                
 1472                                  0.000000                                
 1473                                  0.000000                                
 1474                                  0.000000                                
 1475                                  0.000000                                
 1476                                  0.000000                                
 1477                                  0.000000                                
 1478                                  0.000000                                
 1479                                  0.000000                                
 1480                                  0.000000                                
 1481                                  0.000000                                
 1482                                  0.000000                                
 1483                                  0.000000                                
 1484                                  0.000000                                
 1485                                  0.000000                                
 1486                                  0.012088                                
 1487                                  0.026525                                
 1488                                  0.034594                                
 1489                                  0.000000                                
 1490                                  0.000000                                
 1491                                  0.000000                                
 1492                                  0.000000                                
 1493                                  0.000000                                
 1494                                  0.000000                                
 1495                                  0.000000                                
 1496                                  0.000000                                
 1497                                  0.000000                                
 1498                                  0.000000                                
 1499                                  0.000000                                
 1500                                  0.000000                                
 1501                                  0.000000                                
 1502                                  0.000000                                
 1503                                  0.000000                                
 1504                                  0.000000                                
 1505                                  0.000000                                
 1506                                  0.000000                                
 1507                                  0.000000                                
 1508                                  0.000000                                
 1509                                  0.000000                                
 1510                                  0.000000                                
 1511                                  0.000000                                
 1512                                  0.000000                                
 1513                                  0.000000                                
 1514                                  0.000000                                
 1515                                  0.000000                                
 1516                                  0.000000                                
 1517                                  0.000000                                
 1518                                  0.000000                                
 1519                                  0.000000                                
 1520                                  0.000000                                
 1521                                  0.000000                                
 1522                                  0.000000                                
 1523                                  0.000000                                
 1524                                  0.000000                                
 1525                                  0.000000                                
 1526                                  0.000000                                
 1527                                  0.000000                                
 1528                                  0.000000                                
 1529                                  0.000000                                
 1530                                  0.000000                                
 1531                                  0.000000                                
 1532                                  0.000000                                
 1533                                  0.000000                                
 1534                                  0.000000                                
 1535                                  0.000000                                
 1536                                  0.000000                                
 1537                                  0.000000                                
 1538                                  0.000000                                
 1539                                  0.000000                                
 1540                                  0.000000                                
 1541                                  0.000000                                
 1542                                  0.000000                                
 1543                                  0.000000                                
 1544                                  0.000000                                
 1545                                  0.000000                                
 1546                                  0.000000                                
 1547                                  0.000000                                
 1548                                  0.000000                                
 1549                                  0.000000                                
 1550                                  0.000000                                
 1551                                  0.000000                                
 1552                                  0.000000                                
 1553                                  0.000000                                
 1554                                  0.026525                                
 1555                                  0.000000                                
 1557                                  0.000000                                
 1558                                  0.000000                                
 1559                                  0.000000                                
 1560                                  0.000000                                
 1561                                  0.000000                                
 1562                                  0.000000                                
 1563                                  0.000000                                
 1564                                  0.000000                                
 1565                                  0.000000                                
 1566                                  0.000000                                
 1567                                  0.000000                                
 1568                                  0.032707                                
 1569                                  0.000000                                
 1570                                  0.000000                                
 1571                                  0.000000                                
 1572                                  0.000000                                
 1573                                  0.026525                                
 1574                                  0.000000                                
 1575                                  0.000000                                
 1576                                  0.000000                                
 1577                                  0.007716                                
 1578                                  0.000257                                
 1579                                  0.002358                                
 1580                                  0.002229                                
 1581                                  0.000000                                
 1582                                  0.005358                                
 1583                                  0.000000                                
 1584                                  0.000000                                
 1585                                  0.007630                                
 1586                                  0.000000                                
 1587                                  0.000000                                
 1588                                  0.000000                                
 1589                                  0.000000                                
 1590                                  0.000000                                
 1591                                  0.007973                                
 1592                                  0.003086                                
 1593                                  0.000000                                
 1594                                  0.000000                                
 1595                                  0.000000                                
 1596                                  0.000000                                
 1597                                  0.000000                                
 1598                                  0.000000                                
 1599                                  0.000000                                
 1600                                  0.000000                                
 1601                                  0.022419                                
 1602                                  0.000000                                
 1603                                  0.000000                                
 1604                                  0.000000                                
 1605                                  0.026525                                
 1606                                  0.000000                                
 1607                                  0.000000                                
 1608                                  0.000000                                
 1609                                  0.000000                                
 1610                                  0.000000                                
 1611                                  0.000000                                
 1612                                  0.014875                                
 1613                                  0.000000                                
 1614                                  0.029064                                
 1615                                  0.000000                                
 1616                                  0.000000                                
 1617                                  0.000000                                
 1618                                  0.000000                                
 1619                                  0.000000                                
 1620                                  0.000000                                
 1621                                  0.000000                                
 1622                                  0.000000                                
 1623                                  0.000000                                
 1624                                  0.000000                                
 1625                                  0.007973                                
 1626                                  0.000000                                
 1627                                  0.000000                                
 1636                                  0.026525                                
 1637                                  0.000000                                
 1638                                  0.000000                                
 1639                                  0.026525                                
 1640                                  0.000000                                
 1641                                  0.000000                                
 1642                                  0.000000                                
 1643                                  0.026525                                
 1644                                  0.000000                                
 1645                                  0.000000                                
 1646                                  0.000000                                
 1647                                  0.000000                                
 1648                                  0.026525                                
 1649                                  0.000000                                
 1650                                  0.167552                                
 1651                                  0.000000                                
 1652                                  0.003215                                
 1653                                  0.000000                                
 1654                                  0.000000                                
 1655                                  0.000000                                
 1656                                  0.000000                                
 1657                                  0.000000                                
 1658                                  0.007459                                
 1659                                  0.005916                                
 1660                                  0.000000                                
 1661                                  0.000000                                
 1662                                  0.000000                                
 1663                                  0.000000                                
 1664                                  0.000343                                
 1665                                  0.079576                                
 1666                                  0.000000                                
 1667                                  0.000000                                
 1668                                  0.000000                                
 1669                                  0.000000                                
 1670                                  0.003215                                
 1671                                  0.026525                                
 1672                                  0.002100                                
 1673                                  0.001115                                
 1674                                  0.000000                                
 1675                                  0.002100                                
 1676                                  0.030040                                
 1677                                  0.000000                                
 1678                                  0.000000                                
 1679                                  0.000000                                
 1680                                  0.016392                                
 1681                                  0.000000                                
 1682                                  0.000000                                
 1683                                  0.000000                                
 84                                    0.000000                                
 85                                    0.000000                                
 86                                    0.000000                                
 87                                    0.000000                                
 88                                    0.000000                                
 89                                    0.000000                                

[EMITTERS]

[STATUS]
 674                             closed
 741                             closed
 939                             closed
 1334                            closed

[PATTERNS]

[CURVES]

[CONTROLS]

[RULES]

[QUALITY]

[SOURCES]

[MIXING]
 76                              MIXED          1.0000
 77                              MIXED          1.0000
 C1                              MIXED          1.0000
 C2                              MIXED          1.0000
 C4                              MIXED          1.0000
 C5                              MIXED          1.0000
 C6                              MIXED          1.0000
 C7                              MIXED          1.0000

[REACTIONS]
 ORDER  BULK            1.00
 ORDER  WALL            1
 ORDER  TANK            1.00
 GLOBAL BULK            0.000000
 GLOBAL WALL            0.000000

[ENERGY]
 GLOBAL EFFIC        75.0000
 DEMAND CHARGE       0.0000

[TIMES]
 DURATION            24:00:00
 HYDRAULIC TIMESTEP  1:00:00
 QUALITY TIMESTEP    0:06:00
 REPORT TIMESTEP     1:00:00
 REPORT START        0:00:00
 PATTERN TIMESTEP    1:00:00
 PATTERN START       0:00:00
 RULE TIMESTEP       0:06:00
 START CLOCKTIME     0:00:00
 STATISTIC           NONE

[OPTIONS]
 UNITS               LPS
 PRESSURE            METERS
 HEADLOSS            H-W
 UNBALANCED          CONTINUE 10
 QUALITY             NONE
 DEMAND MULTIPLIER   1.0000
 EMITTER EXPONENT    0.5000
 VISCOSITY           1.000000
 DIFFUSIVITY         1.000000
 SPECIFIC GRAVITY    1.000000
 TRIALS              40
 ACCURACY            0.00100000
 TOLERANCE           0.01000000
 CHECKFREQ           10
 MAXCHECK            10
 DAMPLIMIT           0.00000000

[REPORT]
 PAGESIZE            0
 STATUS              NO
 SUMMARY             NO
 ENERGY              NO
 MESSAGES            YES
 NODES               NONE
 LINKS               NONE
 Elevation           NO
 Demand              PRECISION 2
 Head                PRECISION 2
 Pressure            PRECISION 2
 Quality             NO
 Length              NO
 Diameter            NO
 Flow                PRECISION 2
 Velocity            PRECISION 2
 Headloss            PRECISION 2
 Quality             NO
 State               NO
 Setting             NO
 Reaction            NO

[COORDINATES]
 1                                154625.562000 8234781.111000
 2                                154606.581000 8234782.881000
 3                                154605.087000 8234782.989000
 4                                154365.579000 8234854.285000
 5                                154293.464000 8234825.656000
 6                                154435.325000 8234876.319000
 7                                154582.607000 8234784.065000
 8                                154625.052000 8234745.614000
 9                                154583.862000 8235012.860000
 10                               154255.689000 8235017.782000
 11                               154292.988000 8235014.690000
 12                               154284.608000 8235014.849000
 13                               154263.223000 8235015.263000
 14                               154235.586000 8235015.707000
 15                               154223.087000 8235204.673000
 16                               154222.261000 8235059.960000
 17                               154228.236000 8235022.232000
 18                               154293.220000 8235020.776000
 19                               154297.530000 8235229.784000
 20                               154364.348000 8235019.182000
 21                               154589.754000 8235245.507000
 22                               154587.554000 8235105.374000
 23                               154585.873000 8235013.849000
 24                               154511.909000 8235016.173000
 25                               154514.276000 8235094.608000
 26                               154516.056000 8235248.103000
 27                               153300.849000 8234806.198000
 28                               153307.727000 8234801.621000
 29                               154217.066000 8235202.323000
 30                               153038.943000 8234808.622000
 31                               153039.897000 8234800.617000
 32                               153022.029000 8234916.475000
 33                               153030.478000 8234916.888000
 34                               153203.608000 8234771.871000
 35                               153201.300000 8234771.032000
 36                               153158.465000 8234758.805000
 37                               153130.854000 8235031.311000
 38                               153102.438000 8235017.033000
 39                               154044.187000 8235239.229000
 40                               154154.324000 8235319.185000
 41                               153933.661000 8234731.307000
 42                               153944.411000 8234737.580000
 43                               153968.366000 8234751.558000
 44                               153973.443000 8234754.345000
 45                               153712.862000 8234608.926000
 46                               153761.902000 8234637.046000
 47                               153888.038000 8234707.573000
 48                               153891.718000 8234700.912000
 49                               153928.907000 8234633.043000
 50                               154512.275000 8235011.329000
 51                               154438.037000 8235012.326000
 52                               154244.413000 8234809.300000
 53                               154227.488000 8234844.990000
 54                               154281.122000 8234821.301000
 55                               154019.980000 8234256.722000
 56                               154022.009000 8234257.500000
 57                               154023.728000 8234258.169000
 58                               153573.747000 8234449.264000
 59                               153570.800000 8234448.112000
 60                               153556.353000 8234444.706000
 61                               153418.988000 8234794.696000
 62                               153431.813000 8234767.301000
 63                               153513.366000 8234834.660000
 64                               153431.679000 8234800.751000
 65                               153468.691000 8234892.242000
 66                               153489.815000 8234907.826000
 67                               153407.735000 8234854.773000
 68                               153173.747000 8235174.952000
 69                               153183.247000 8235179.675000
 70                               153183.625000 8235155.385000
 71                               153180.157000 8235056.370000
 72                               153185.122000 8235059.122000
 73                               153185.323000 8235046.216000
 74                               153184.851000 8235047.169000
 91                               154259.387000 8234948.179000
 92                               153720.831000 8234362.097000
 93                               153721.333000 8234364.327000
 94                               154050.133000 8235494.913000
 95                               154027.710000 8235543.053000
 96                               153679.641000 8234593.004000
 97                               153664.735000 8234625.311000
 98                               154562.689000 8234726.326000
 99                               154536.800000 8234720.016000
 100                              154452.168000 8234721.429000
 101                              154173.980000 8234821.028000
 102                              154203.923000 8234834.213000
 103                              154025.838000 8234783.108000
 104                              154022.523000 8234788.908000
 105                              154022.262000 8234789.364000
 106                              153712.433000 8234608.671000
 107                              153668.000000 8234709.473000
 108                              153709.492000 8234618.076000
 109                              154224.512000 8235017.630000
 110                              154219.680000 8235030.223000
 111                              153431.899000 8234512.300000
 112                              153476.656000 8234488.521000
 113                              153536.569000 8234512.547000
 114                              153513.349000 8234563.434000
 115                              153502.731000 8234607.733000
 116                              153508.272000 8234595.421000
 117                              153517.690000 8234575.000000
 118                              153299.808000 8234816.736000
 119                              153299.560000 8234819.182000
 120                              153269.804000 8234885.944000
 121                              154209.457000 8234875.720000
 122                              154222.052000 8234842.350000
 123                              154185.509000 8234709.543000
 124                              154141.512000 8234683.196000
 125                              154633.774000 8235011.722000
 126                              154602.779000 8235012.295000
 127                              154585.594000 8235010.345000
 128                              154511.430000 8234963.433000
 129                              154510.010000 8234830.513000
 130                              154508.747000 8234785.057000
 131                              153690.371000 8234595.645000
 132                              153762.954000 8234637.706000
 133                              153766.555000 8234639.350000
 134                              153798.816000 8234655.525000
 135                              154634.524000 8234963.211000
 136                              154639.021000 8234963.213000
 137                              154443.739000 8235251.185000
 138                              154367.407000 8235252.186000
 139                              154438.330000 8235017.525000
 140                              154368.143000 8235013.264000
 141                              154627.670000 8234958.813000
 142                              154627.724000 8234963.211000
 143                              153730.137000 8234357.360000
 144                              153725.564000 8234357.258000
 145                              153719.900000 8234356.930000
 146                              153716.621000 8234356.733000
 147                              153518.410000 8234837.542000
 148                              153727.634000 8234365.377000
 149                              153726.623000 8234365.342000
 150                              154435.750000 8234785.355000
 151                              154435.749000 8234785.628000
 152                              154439.390000 8235055.193000
 153                              154218.053000 8234948.957000
 154                              154216.135000 8234872.981000
 155                              154128.249000 8234005.999000
 156                              153913.116000 8233924.276000
 157                              153887.286000 8233978.977000
 158                              153892.301000 8233968.153000
 159                              154115.295000 8234066.036000
 160                              154102.719000 8234061.034000
 161                              154141.558000 8234011.784000
 162                              154132.556000 8234030.445000
 163                              154123.047000 8234050.142000
 164                              154159.738000 8233974.651000
 165                              154151.027000 8233992.538000
 166                              154187.059000 8233918.870000
 167                              154183.290000 8233926.278000
 168                              154180.590000 8233931.584000
 169                              154174.793000 8233944.112000
 170                              154168.996000 8233956.639000
 171                              154162.416000 8233969.356000
 172                              154637.187000 8235007.483000
 173                              154637.187000 8234987.352000
 174                              154598.127000 8235008.301000
 175                              154638.714000 8235245.725000
 176                              154638.695000 8235241.625000
 177                              154612.301000 8235246.019000
 178                              154352.184000 8234452.507000
 179                              154338.837000 8234448.173000
 180                              154311.401000 8234439.091000
 181                              154330.018000 8234505.975000
 182                              154321.454000 8234503.093000
 183                              154310.467000 8234499.402000
 184                              154312.251000 8234384.220000
 185                              154366.308000 8234402.809000
 186                              154371.693000 8234405.448000
 187                              154371.999000 8234404.710000
 188                              154225.763000 8235014.399000
 189                              154214.573000 8235050.148000
 190                              154212.474000 8234962.110000
 191                              154224.140000 8234853.257000
 192                              154246.912000 8234962.946000
 193                              154281.731000 8234829.160000
 194                              154282.093000 8234852.958000
 195                              154290.130000 8234828.042000
 196                              154290.130000 8234829.042000
 197                              154222.460000 8234842.543000
 198                              153842.861000 8234680.843000
 199                              153848.502000 8234684.020000
 200                              153890.848000 8234709.381000
 201                              153925.121000 8234726.324000
 202                              154046.378000 8234746.425000
 203                              154054.676000 8234751.057000
 204                              154091.488000 8234770.594000
 205                              154183.166000 8234806.160000
 Dom_Francisco_CH12_LT14          154223.054000 8234734.927000
 207                              154224.784000 8234731.837000
 208                              154136.824000 8234797.155000
 209                              154168.546000 8234813.421000
 210                              153443.231000 8234532.926000
 211                              153436.964000 8234530.591000
 212                              153417.410000 8234522.192000
 213                              153509.537000 8234571.157000
 214                              153496.356000 8234565.318000
 215                              153445.370000 8234533.873000
 216                              153526.760000 8234553.876000
 217                              153983.011000 8234330.379000
 218                              153971.498000 8234326.430000
 219                              154162.160000 8234449.590000
 220                              154298.174000 8234379.380000
 221                              154300.838000 8234371.624000
 222                              154312.969000 8234337.939000
 223                              154164.506000 8233970.226000
 224                              154161.643000 8233975.566000
 225                              154153.054000 8233993.287000
 226                              154143.673000 8234012.337000
 227                              154134.141000 8234031.805000
 228                              154124.648000 8234051.451000
 229                              154117.506000 8234066.417000
 230                              154108.020000 8234085.850000
 231                              154098.450000 8234105.090000
 232                              154093.084000 8234116.420000
 233                              154083.953000 8234135.337000
 234                              154075.205000 8234153.235000
 235                              154066.995000 8234170.303000
 236                              154061.817000 8234180.618000
 237                              154056.638000 8234190.932000
 238                              154047.422000 8234209.487000
 239                              154041.240000 8234222.407000
 240                              154077.789000 8234110.112000
 241                              154011.724000 8234084.635000
 242                              154105.921000 8234085.078000
 243                              154096.600000 8234104.540000
 244                              154091.218000 8234115.426000
 245                              153724.204000 8234365.216000
 246                              153725.414000 8234365.279000
 247                              153709.172000 8234359.052000
 248                              153709.894000 8234359.353000
 249                              153710.872000 8234359.761000
 250                              153724.311000 8234362.204000
 251                              153724.099000 8234362.444000
 252                              153724.306000 8234362.473000
 253                              153724.196000 8234364.822000
 254                              153724.682000 8234356.376000
 255                              153724.428000 8234359.190000
 256                              153724.915000 8234354.387000
 257                              153801.925000 8234649.195000
 258                              153835.769000 8234575.644000
 259                              153838.534000 8234569.667000
 260                              154000.563000 8234613.449000
 261                              154039.199000 8234639.502000
 262                              154141.764000 8234787.909000
 263                              154182.149000 8234715.521000
 264                              154097.163000 8234762.086000
 265                              154138.607000 8234688.444000
 266                              154094.006000 8234658.634000
 267                              154090.994000 8234664.155000
 268                              154052.561000 8234735.133000
 269                              154029.059000 8234777.420000
 270                              153424.713000 8234764.076000
 271                              153397.722000 8234751.962000
 272                              153334.854000 8234721.487000
 273                              153331.589000 8234719.934000
 274                              153699.846000 8234402.449000
 275                              153685.144000 8234439.444000
 276                              153679.671000 8234452.767000
 277                              153717.405000 8234469.851000
 278                              153729.192000 8234474.663000
 279                              153589.399000 8234470.569000
 280                              153688.368000 8234512.940000
 281                              153709.082000 8234521.957000
 282                              153642.102000 8234672.495000
 283                              153699.395000 8234548.383000
 284                              153680.760000 8234590.592000
 285                              153701.967000 8234389.613000
 286                              153706.411000 8234386.944000
 287                              153725.370000 8234383.373000
 288                              153740.636000 8234378.375000
 289                              153766.580000 8234369.338000
 290                              153775.307000 8234367.253000
 291                              153621.338000 8234426.210000
 292                              153644.325000 8234415.718000
 293                              153663.286000 8234407.161000
 294                              153673.970000 8234402.231000
 295                              153688.920000 8234395.966000
 296                              154341.431000 8234478.445000
 369                              153550.500000 8234447.097000
 370                              153457.507000 8234486.448000
 371                              153397.689000 8234510.526000
 372                              153397.682000 8234510.529000
 373                              153440.800000 8234538.492000
 374                              153639.609000 8234677.692000
 375                              153609.410000 8234743.703000
 376                              153714.021000 8234604.072000
 377                              153779.590000 8234472.752000
 378                              153764.544000 8234631.569000
 379                              153832.230000 8234484.582000
 380                              153846.328000 8234674.320000
 381                              153885.910000 8234599.483000
 382                              154006.960000 8234617.083000
 383                              154050.000000 8234646.053000
 384                              154018.040000 8234796.703000
 385                              154290.140000 8234831.267000
 386                              154220.563000 8234841.591000
 387                              154229.014000 8235015.578000
 388                              154233.374000 8235016.965000
 389                              154238.289000 8235017.600000
 390                              154241.579000 8235017.838000
 391                              154228.850000 8235015.518000
 392                              153712.474000 8234350.825000
 393                              153714.983000 8234351.939000
 394                              153707.973000 8234353.880000
 395                              153711.672000 8234355.569000
 396                              153712.860000 8234356.061000
 397                              153715.423000 8234361.201000
 398                              153718.221000 8234361.881000
 399                              153718.864000 8234361.884000
 400                              153719.769000 8234361.909000
 401                              153720.108000 8234361.906000
 402                              153720.928000 8234361.900000
 403                              154321.291000 8234314.843000
 404                              153770.487000 8234379.900000
 405                              154627.641000 8234956.353000
 406                              154626.581000 8234851.983000
 407                              154726.559000 8234985.683000
 408                              154742.468000 8234980.151000
 409                              154764.183000 8234965.304000
 410                              154774.814000 8234962.233000
 411                              154617.643000 8234742.372000
 412                              154564.037000 8234726.752000
 413                              154638.630000 8235231.051000
 417                              154388.042000 8234339.969000
 418                              154388.291000 8234339.253000
 419                              152907.174000 8234915.349000
 420                              152916.737000 8234915.441000
 421                              153020.029000 8234916.456000
 422                              152906.813000 8234863.091000
 423                              152901.102000 8234810.168000
 424                              152904.006000 8234821.792000
 425                              152906.226000 8234857.650000
 426                              152887.580000 8234748.839000
 427                              152889.149000 8234763.957000
 428                              152957.269000 8234748.990000
 429                              153055.680000 8234744.842000
 430                              153230.731000 8234956.800000
 431                              153243.704000 8234963.464000
 432                              153373.611000 8235030.199000
 433                              153378.200000 8235032.534000
 434                              153252.550000 8234914.980000
 435                              153259.035000 8234918.313000
 436                              153399.845000 8234990.688000
 437                              153408.617000 8234995.253000
 438                              153273.192000 8234887.703000
 439                              153419.626000 8234963.723000
 440                              153428.020000 8234968.745000
 441                              153415.385000 8234986.960000
 442                              153425.007000 8234972.861000
 443                              153381.668000 8235028.194000
 444                              153340.798000 8235079.338000
 445                              153306.638000 8235121.232000
 446                              153316.923000 8235107.981000
 447                              153336.177000 8235085.005000
 448                              153274.282000 8235104.555000
 449                              153280.299000 8235107.541000
 450                              153299.362000 8235117.481000
 451                              153222.130000 8235078.714000
 452                              153233.168000 8235084.590000
 453                              153223.145000 8234971.775000
 454                              153203.768000 8235009.157000
 455                              153248.247000 8234922.221000
 456                              153959.869000 8235170.137000
 457                              154043.408000 8235214.298000
 458                              153609.330000 8234977.918000
 459                              153697.419000 8235025.250000
 460                              153512.172000 8234923.965000
 461                              153521.562000 8234929.994000
 462                              153508.865000 8234922.010000
 463                              153123.329000 8235165.863000
 464                              153130.796000 8235172.993000
 465                              153162.869000 8235196.500000
 466                              153068.881000 8235153.889000
 467                              153121.650000 8235169.482000
 468                              153925.560000 8235512.337000
 469                              153928.669000 8235514.308000
 470                              153941.401000 8235484.303000
 471                              153983.291000 8235512.775000
 472                              153960.170000 8235573.293000
 473                              153983.724000 8235511.642000
 474                              154130.182000 8235361.032000
 475                              154104.525000 8235404.553000
 476                              154150.155000 8235326.357000
 477                              153916.820000 8234420.642000
 478                              153922.940000 8234422.302000
 479                              153935.675000 8234378.938000
 480                              153896.481000 8234357.412000
 481                              153937.450000 8234372.892000
 482                              153949.613000 8234377.484000
 483                              153117.261000 8235176.691000
 484                              153532.534000 8234845.699000
 485                              153837.878000 8234081.935000
 486                              153856.179000 8234039.715000
 487                              153863.409000 8234027.197000
 488                              153937.325000 8233888.405000
 489                              153940.524000 8233880.346000
 490                              153954.391000 8233845.417000
 491                              153956.490000 8233840.130000
 492                              154182.299000 8233925.004000
 493                              154178.205000 8233923.219000
 494                              154173.626000 8233921.221000
 495                              154164.289000 8233917.547000
 496                              154154.951000 8233913.873000
 497                              154143.610000 8233968.237000
 498                              153183.374000 8235179.738000
 499                              153223.683000 8235199.653000
 500                              153225.376000 8235200.490000
 501                              153212.830000 8235097.533000
 502                              153190.547000 8235062.130000
 503                              153200.595000 8235015.319000
 504                              154039.263000 8235235.655000
 505                              153837.601000 8234082.573000
 506                              153270.374000 8235112.139000
 507                              153230.248000 8235189.341000
 508                              153211.857000 8235013.300000
 509                              153333.848000 8235075.782000
 512                              153727.655000 8234364.691000
 513                              153727.684000 8234364.456000
 514                              153729.935000 8234363.920000
 515                              153729.270000 8234363.915000
 516                              153729.710000 8234363.976000
 517                              153382.794000 8234840.224000
 518                              154047.839000 8235216.653000
 519                              153874.884000 8235117.434000
 520                              153950.664000 8235164.093000
 521                              153785.481000 8235072.633000
 522                              154068.763000 8234304.370000
 523                              154071.949000 8234295.020000
 524                              154088.551000 8234245.677000
 525                              154091.080000 8234238.182000
 526                              154132.141000 8234321.862000
 527                              154134.759000 8234314.314000
 528                              154154.021000 8234256.262000
 529                              154183.468000 8234342.038000
 530                              154188.124000 8234328.072000
 531                              154203.308000 8234281.735000
 532                              154205.001000 8234276.592000
 533                              153687.123000 8234395.918000
 534                              153691.602000 8234388.568000
 535                              153698.400000 8234372.908000
 536                              153702.118000 8234365.368000
 537                              153705.837000 8234357.828000
 538                              153691.684000 8234389.950000
 539                              153699.194000 8234373.184000
 540                              153706.362000 8234357.722000
 541                              153712.294000 8234351.507000
 542                              153690.403000 8234395.244000
 543                              153693.218000 8234393.874000
 544                              154246.892000 8234362.300000
 545                              154251.255000 8234349.176000
 546                              154268.001000 8234299.823000
 547                              154251.983000 8234363.926000
 548                              154294.895000 8234378.288000
 549                              153994.246000 8234279.506000
 550                              154009.403000 8234284.575000
 551                              154017.039000 8234287.128000
 552                              154064.368000 8234302.903000
 553                              154007.149000 8234251.721000
 554                              153790.348000 8234173.397000
 555                              153747.797000 8234270.996000
 556                              154033.585000 8234221.542000
 557                              154024.536000 8234241.612000
 558                              154018.545000 8234253.752000
 559                              153950.851000 8234231.678000
 560                              153992.768000 8234246.146000
 561                              154003.450000 8234250.302000
 562                              153795.523000 8234175.244000
 563                              153947.130000 8234230.322000
 564                              153791.691000 8234173.807000
 565                              153769.151000 8234227.708000
 566                              153776.331000 8234230.256000
 567                              153872.979000 8234264.245000
 568                              153927.248000 8234283.510000
 569                              153903.122000 8234338.453000
 570                              153748.594000 8234283.152000
 571                              153742.385000 8234280.327000
 572                              154049.092000 8234163.848000
 573                              153792.785000 8234175.616000
 574                              153792.422000 8234174.084000
 575                              153810.433000 8234139.244000
 576                              153820.205000 8234142.804000
 577                              154022.952000 8234217.154000
 578                              153946.730000 8234232.339000
 579                              153948.708000 8234227.998000
 580                              153928.664000 8234280.338000
 581                              153941.583000 8234244.627000
 582                              153973.785000 8234236.241000
 583                              153997.995000 8234245.511000
 584                              154006.120000 8234248.769000
 585                              153904.768000 8234333.753000
 586                              153958.530000 8234355.710000
 587                              154004.262000 8234250.609000
 588                              154004.850000 8234252.169000
 589                              153432.194000 8234768.747000
 590                              153404.747000 8234827.673000
 591                              153394.586000 8234847.276000
 592                              154064.623000 8234169.868000
 593                              154054.664000 8234189.999000
 594                              154045.990000 8234208.405000
 595                              154038.593000 8234223.701000
 596                              154082.210000 8234134.279000
 597                              154072.982000 8234152.826000
 598                              153452.702000 8234716.414000
 599                              153449.061000 8234725.603000
 600                              153437.850000 8234751.556000
 601                              153499.607000 8234614.898000
 602                              153487.633000 8234609.959000
 603                              153384.796000 8234566.719000
 604                              153365.856000 8234621.147000
 605                              153373.565000 8234592.194000
 606                              153451.391000 8234659.914000
 607                              153370.989000 8234623.456000
 608                              153431.737000 8234702.969000
 609                              153360.203000 8234672.485000
 610                              153349.614000 8234668.025000
 611                              153631.577000 8234430.485000
 612                              153569.515000 8234514.035000
 613                              153569.545000 8234514.035000
 614                              153640.375000 8234544.126000
 615                              153650.546000 8234543.906000
 616                              153685.122000 8234548.221000
 617                              153595.635000 8234650.522000
 618                              153577.609000 8234690.441000
 619                              153596.458000 8234648.781000
 620                              153607.288000 8234656.043000
 621                              153541.191000 8234557.555000
 622                              153608.055000 8234596.107000
 623                              153656.322000 8234621.556000
 624                              153572.905000 8234638.485000
 625                              153514.973000 8234613.227000
 626                              153471.329000 8234707.749000
 627                              153471.370000 8234707.766000
 628                              153540.191000 8234738.973000
 629                              153553.363000 8234744.795000
 630                              153450.546000 8234756.710000
 631                              153517.116000 8234786.313000
 632                              153532.178000 8234793.109000
 633                              153576.556000 8234446.239000
 634                              153581.610000 8234443.336000
 635                              153595.572000 8234436.478000
 636                              153569.041000 8234460.305000
 637                              153549.110000 8234504.773000
 638                              153559.143000 8234482.187000
 639                              153527.835000 8234551.643000
 640                              153531.200000 8234542.736000
 641                              153531.202000 8234542.730000
 642                              153484.781000 8234650.026000
 643                              153492.327000 8234631.714000
 644                              153474.702000 8234670.423000
 645                              153460.735000 8234703.192000
 646                              153455.198000 8234714.124000
 647                              153439.303000 8234750.988000
 648                              153449.853000 8234725.742000
 649                              153125.302000 8235041.950000
 650                              153075.946000 8235136.512000
 651                              153018.337000 8235137.941000
 652                              153024.755000 8235139.923000
 653                              153057.216000 8235150.208000
 654                              153063.378000 8235039.166000
 655                              153023.151000 8235121.718000
 656                              153025.546000 8235024.577000
 657                              153018.970000 8235045.108000
 658                              152991.818000 8235127.092000
 659                              152989.911000 8235129.424000
 660                              152941.820000 8235107.627000
 661                              153011.520000 8235019.169000
 662                              152980.591000 8235012.668000
 663                              152974.455000 8235011.028000
 664                              153080.289000 8235005.920000
 665                              152833.057000 8234972.197000
 666                              152845.401000 8234944.450000
 667                              152914.493000 8234863.043000
 668                              153034.711000 8234862.294000
 669                              153034.280000 8234921.530000
 670                              153089.778000 8235010.685000
 671                              153167.243000 8235049.210000
 672                              154031.874000 8235482.559000
 673                              153967.413000 8235435.578000
 674                              154076.666000 8235450.716000
 675                              153985.752000 8235384.623000
 676                              154007.193000 8235336.087000
 677                              154010.734000 8235331.053000
 678                              154119.819000 8235353.570000
 679                              154030.194000 8235288.544000
 680                              153956.088000 8235571.742000
 681                              153879.019000 8235545.433000
 682                              153929.616000 8234225.615000
 683                              153497.207000 8234655.343000
 684                              153562.157000 8234683.647000
 685                              153970.644000 8235430.784000
 686                              153716.530000 8234352.641000
 687                              153728.248000 8234363.897000
 693                              154638.130000 8235169.063000
 694                              154633.620000 8235062.883000
 695                              154634.030000 8235022.993000
 696                              154221.087000 8234860.756000
 697                              153681.843000 8234398.218000
 698                              153674.031000 8234401.516000
 699                              153663.038000 8234406.523000
 700                              153644.023000 8234415.129000
 701                              153621.621000 8234424.765000
 702                              153605.666000 8234431.940000
 703                              153580.959000 8234442.655000
 704                              153576.111000 8234445.119000
 705                              153572.839000 8234449.733000
 706                              153568.620000 8234459.661000
 707                              153558.655000 8234482.369000
 708                              153547.789000 8234505.903000
 709                              153530.699000 8234542.747000
 710                              153525.866000 8234554.895000
 711                              153516.278000 8234574.233000
 712                              153508.024000 8234594.908000
 713                              153491.765000 8234631.722000
 714                              153483.618000 8234651.394000
 715                              153474.669000 8234667.615000
 716                              153474.262000 8234668.541000
 717                              153472.867000 8234671.138000
 718                              153455.770000 8234709.618000
 719                              153948.988000 8234230.997000
 720                              154185.810000 8233918.329000
 721                              154188.081000 8233919.312000
 722                              154816.033000 8235094.401000
 723                              154810.611000 8235075.057000
 724                              154805.521000 8235056.002000
 725                              154811.167000 8235054.363000
 726                              154810.508000 8235052.139000
 727                              154805.227000 8235032.443000
 728                              154799.924000 8235012.538000
 729                              154793.877000 8234990.637000
 730                              154790.170000 8234976.704000
 731                              154784.064000 8234957.424000
 732                              154778.736000 8234960.658000
 733                              154777.234000 8234961.631000
 734                              154800.233000 8234950.876000
 735                              154819.423000 8234945.692000
 736                              154826.617000 8234943.483000
 737                              154831.078000 8234942.228000
 738                              154851.053000 8234936.630000
 739                              154869.464000 8234931.506000
 740                              154888.891000 8234926.167000
 741                              154887.048000 8234917.098000
 742                              154881.466000 8234897.826000
 743                              154875.846000 8234879.033000
 744                              154819.644000 8234923.378000
 745                              154814.111000 8234903.264000
 746                              154808.466000 8234882.602000
 747                              154803.617000 8234863.667000
 748                              154825.157000 8234965.748000
 749                              154830.666000 8234986.738000
 750                              154835.450000 8235005.833000
 751                              154841.336000 8235027.556000
 752                              154846.997000 8235048.778000
 753                              154852.155000 8235068.481000
 754                              154857.458000 8235087.061000
 755                              154894.016000 8234943.319000
 756                              154899.346000 8234963.147000
 757                              154904.801000 8234983.366000
 758                              154909.370000 8234999.671000
 759                              154915.376000 8235020.762000
 760                              154921.123000 8235041.341000
 761                              154926.483000 8235061.014000
 762                              154828.748000 8235114.081000
 763                              154831.678000 8235119.449000
 764                              154832.724000 8235120.844000
 765                              154833.583000 8235123.015000
 766                              154821.775000 8235113.814000
 767                              154825.174000 8235125.414000
 768                              154854.595000 8235116.657000
 769                              154855.075000 8235116.905000
 770                              154861.614000 8235137.478000
 771                              154866.571000 8235157.065000
 772                              154869.267000 8235167.362000
 773                              154871.114000 8235172.225000
 774                              154875.100000 8235180.398000
 775                              154862.021000 8235102.263000
 776                              154865.008000 8235113.871000
 777                              154866.538000 8235119.831000
 778                              154876.710000 8235117.680000
 779                              154896.098000 8235113.136000
 780                              154915.612000 8235108.330000
 781                              154937.544000 8235101.926000
 782                              154931.904000 8235080.864000
 783                              154861.622000 8235114.793000
 784                              154954.970000 8235096.425000
 785                              154975.736000 8235090.078000
 786                              154992.442000 8235085.559000
 787                              155004.921000 8235082.186000
 788                              155003.801000 8235070.912000
 789                              155002.414000 8235059.666000
 790                              154997.395000 8235040.771000
 791                              154991.668000 8235020.396000
 792                              154986.113000 8234999.106000
 793                              154980.861000 8234979.945000
 794                              154975.651000 8234959.814000
 795                              154970.467000 8234940.590000
 796                              154964.929000 8234921.407000
 797                              154964.531000 8234919.631000
 798                              154963.185000 8234915.902000
 799                              154961.749000 8234914.202000
 800                              154959.912000 8234910.502000
 801                              154955.123000 8234895.065000
 802                              154935.075000 8234901.106000
 803                              154930.557000 8234903.326000
 804                              154919.160000 8234908.365000
 805                              154902.596000 8234912.550000
 806                              154955.315000 8234894.978000
 807                              154963.247000 8234893.252000
 808                              154952.853000 8234883.993000
 809                              154952.234000 8234879.548000
 810                              154949.522000 8234869.995000
 811                              154797.738000 8234840.385000
 812                              154791.731000 8234820.386000
 813                              154786.663000 8234800.539000
 814                              154780.831000 8234780.509000
 815                              154780.274000 8234778.488000
 816                              154775.480000 8234761.107000
 817                              154769.613000 8234740.525000
 818                              154769.377000 8234735.611000
 819                              154770.220000 8234731.407000
 820                              154772.301000 8234726.064000
 821                              154774.879000 8234722.022000
 822                              154780.082000 8234715.377000
 823                              154870.407000 8234858.232000
 824                              154865.134000 8234839.612000
 825                              154859.607000 8234818.481000
 826                              154854.792000 8234800.878000
 827                              154849.584000 8234781.029000
 828                              154843.954000 8234760.839000
 829                              154839.040000 8234740.963000
 830                              154832.975000 8234716.671000
 831                              154827.247000 8234697.628000
 832                              154822.167000 8234678.191000
 833                              154843.635000 8234679.370000
 834                              154863.624000 8234681.934000
 835                              154880.541000 8234684.182000
 836                              154888.707000 8234685.408000
 837                              154895.651000 8234687.377000
 838                              154899.628000 8234689.209000
 839                              154901.873000 8234693.546000
 840                              154909.044000 8234712.304000
 841                              154912.595000 8234731.059000
 842                              154916.913000 8234749.627000
 843                              154921.853000 8234769.707000
 844                              154927.642000 8234789.977000
 845                              154931.106000 8234802.638000
 846                              154937.349000 8234826.302000
 847                              154944.340000 8234850.646000
 848                              154875.222000 8235180.552000
 849                              154889.885000 8235206.274000
 850                              154896.007000 8235217.642000
 851                              154891.225000 8235220.332000
 852                              154876.694000 8235229.565000
 853                              154864.613000 8235239.089000
 854                              154864.598000 8235246.638000
 855                              154865.686000 8235263.120000
 856                              154866.620000 8235285.711000
 857                              154868.098000 8235309.370000
 858                              154868.429000 8235313.571000
 859                              154868.943000 8235314.756000
 860                              154870.925000 8235316.091000
 861                              154876.319000 8235318.384000
 862                              154893.114000 8235324.084000
 863                              154910.738000 8235330.446000
 864                              154913.935000 8235331.404000
 865                              154912.241000 8235337.119000
 866                              154913.340000 8235332.818000
 867                              154915.619000 8235330.364000
 868                              154924.235000 8235316.005000
 869                              154931.140000 8235308.641000
 870                              154934.653000 8235306.216000
 871                              154938.849000 8235302.444000
 872                              154936.389000 8235299.088000
 873                              154924.228000 8235273.103000
 874                              154898.528000 8235222.991000
 875                              154908.636000 8235240.787000
 876                              154915.959000 8235255.565000
 877                              154917.617000 8235200.114000
 878                              154929.521000 8235217.059000
 879                              154950.698000 8235241.725000
 880                              154962.531000 8235255.322000
 881                              154974.083000 8235268.958000
 882                              154975.805000 8235271.083000
 883                              154952.678000 8235289.837000
 884                              154973.836000 8235272.526000
 885                              154988.220000 8235260.358000
 886                              155004.439000 8235246.749000
 887                              155011.381000 8235240.697000
 888                              155012.106000 8235240.065000
 889                              155002.727000 8235228.714000
 890                              154989.327000 8235213.348000
 891                              154975.464000 8235197.035000
 892                              154964.915000 8235184.689000
 893                              154960.679000 8235179.780000
 894                              154990.974000 8235137.141000
 895                              155003.651000 8235152.713000
 896                              155017.290000 8235168.489000
 897                              155029.978000 8235183.120000
 898                              155043.594000 8235198.946000
 899                              155050.626000 8235207.223000
 900                              155077.644000 8235159.274000
 901                              155086.585000 8235175.278000
 902                              155026.847000 8235227.314000
 903                              155049.761000 8235208.091000
 904                              155049.769000 8235208.139000
 905                              155053.714000 8235212.808000
 906                              155069.115000 8235190.912000
 907                              155082.092000 8235179.416000
 908                              155091.514000 8235180.636000
 909                              155101.046000 8235190.300000
 910                              155119.514000 8235211.282000
 911                              155133.000000 8235227.174000
 912                              155146.252000 8235242.941000
 913                              155165.035000 8235264.995000
 914                              155177.752000 8235279.957000
 915                              155185.568000 8235289.724000
 916                              155186.260000 8235293.331000
 917                              155194.905000 8235224.606000
 918                              155214.809000 8235242.738000
 919                              155221.774000 8235249.160000
 920                              155228.977000 8235255.802000
 921                              155222.511000 8235262.808000
 922                              155208.364000 8235274.943000
 923                              155197.817000 8235284.037000
 924                              155178.355000 8235299.803000
 925                              155163.306000 8235312.710000
 926                              155149.850000 8235324.223000
 927                              155060.789000 8235221.211000
 928                              155077.353000 8235240.292000
 929                              155093.593000 8235258.758000
 930                              155110.151000 8235277.786000
 931                              155122.003000 8235291.792000
 932                              155138.005000 8235310.129000
 933                              155011.392000 8235240.710000
 934                              155016.334000 8235246.544000
 935                              155026.504000 8235258.358000
 936                              155042.941000 8235276.580000
 937                              155057.594000 8235293.693000
 938                              155070.696000 8235309.224000
 939                              155086.754000 8235327.776000
 940                              155103.041000 8235346.487000
 941                              155111.224000 8235356.119000
 942                              155145.898000 8235327.730000
 943                              155132.872000 8235338.926000
 944                              155121.245000 8235348.450000
 945                              155111.701000 8235355.754000
 946                              155102.880000 8235364.712000
 947                              155089.058000 8235376.171000
 948                              155076.421000 8235386.066000
 949                              155072.222000 8235389.418000
 950                              155069.046000 8235385.437000
 951                              155060.672000 8235374.942000
 952                              155047.190000 8235358.309000
 953                              155032.369000 8235340.782000
 954                              155019.537000 8235325.700000
 955                              155004.751000 8235308.715000
 956                              154992.797000 8235294.687000
 957                              154978.724000 8235278.087000
 958                              154941.379000 8235315.881000
 959                              154947.635000 8235321.864000
 960                              154951.665000 8235324.746000
 961                              154965.151000 8235332.472000
 962                              154974.287000 8235337.250000
 963                              153383.781000 8234525.128000
 964                              153365.960000 8234533.430000
 965                              153346.187000 8234542.666000
 966                              153327.192000 8234552.114000
 967                              153317.884000 8234557.024000
 968                              153313.618000 8234559.491000
 969                              153309.999000 8234562.061000
 970                              153293.633000 8234575.080000
 971                              153277.898000 8234588.073000
 972                              153260.508000 8234602.242000
 973                              153245.099000 8234614.695000
 974                              153229.040000 8234627.536000
 975                              153208.621000 8234643.449000
 976                              153190.516000 8234657.127000
 977                              153174.903000 8234668.934000
 978                              153163.428000 8234677.636000
 979                              153148.782000 8234688.951000
 980                              153146.109000 8234698.678000
 981                              153162.407000 8234704.536000
 982                              153189.649000 8234713.278000
 983                              153243.922000 8234731.276000
 984                              153258.323000 8234734.978000
 985                              153280.963000 8234743.326000
 986                              153319.399000 8234755.638000
 987                              153341.179000 8234763.196000
 988                              153362.786000 8234770.843000
 989                              153380.879000 8234781.837000
 990                              153394.802000 8234786.830000
 991                              153412.269000 8234793.094000
 992                              153943.999000 8234239.071000
 993                              154182.011000 8233931.177000
 994                              154181.651000 8233931.958000
 995                              154175.831000 8233944.505000
 996                              154170.010000 8233957.051000
 1000                             154185.548000 8233923.497000
 1001                             154186.320000 8233922.387000
 1002                             154188.169000 8233918.806000
 1003                             154185.220000 8233924.023000
 1004                             154205.048000 8233952.524000
 1005                             154205.815000 8233952.751000
 1006                             154207.034000 8233948.741000
 1007                             154206.135000 8233948.503000
 1008                             154208.196000 8233944.919000
 1009                             154207.018000 8233944.608000
 1024                             154185.132000 8233924.210000
 1025                             154184.592000 8233925.577000
 1080                             153948.117000 8235166.576000
 1081                             153914.289000 8235207.721000
 1082                             153904.891000 8235218.966000
 1083                             153873.764000 8235257.828000
 1084                             153876.904000 8235493.525000
 1085                             153909.334000 8235454.158000
 1086                             153920.989000 8235439.424000
 1087                             153938.953000 8235416.391000
 1088                             153939.402000 8235415.682000
 1089                             153936.130000 8235411.533000
 1090                             153963.904000 8235369.632000
 1091                             153990.737000 8235326.706000
 1092                             153875.689000 8235492.626000
 1093                             153858.352000 8235513.433000
 1094                             153952.557000 8235165.336000
 1095                             153952.342000 8235165.195000
 1096                             153396.073000 8234848.065000
 1097                             153393.614000 8234846.616000
 1098                             153382.817000 8234840.236000
 1099                             153407.713000 8234854.760000
 1100                             153431.624000 8234800.728000
 1101                             153412.296000 8234793.103000
 1102                             153416.516000 8234794.877000
 1103                             153417.948000 8234795.651000
 1104                             153418.484000 8234795.801000
 1105                             153425.320000 8234764.349000
 1106                             153450.521000 8234756.699000
 1107                             153496.403000 8234565.347000
 1108                             153589.330000 8234470.531000
 1109                             153387.683000 8234514.822000
 1110                             153324.787000 8234542.491000
 1111                             153304.246000 8234554.978000
 1112                             153293.833000 8234564.217000
 1113                             153277.309000 8234578.439000
 1114                             153265.119000 8234588.774000
 1115                             153254.369000 8234596.921000
 1116                             153722.198000 8234365.083000
 1117                             153721.766000 8234364.705000
 1118                             153721.736000 8234364.679000
 1119                             153721.599000 8234364.559000
 1120                             154210.136000 8233871.259000
 1121                             154049.503000 8233810.662000
 1122                             154005.415000 8233794.031000
 1123                             154258.021000 8233775.578000
 1124                             154065.567000 8234416.818000
 1125                             153956.692000 8234379.867000
 1126                             154063.653000 8234422.373000
 1127                             154020.650000 8234547.124000
 1128                             153733.957000 8234298.419000
 1129                             153724.945000 8234318.231000
 1130                             153717.431000 8234333.953000
 1131                             153710.016000 8234349.657000
 1132                             153724.121000 8234361.194000
 1133                             153723.201000 8234365.150000
 1134                             153724.293000 8234361.743000
 1144                             153400.567000 8234517.205000
 1145                             154186.472000 8233918.071000
 1146                             153855.575000 8235279.342000
 1147                             153851.843000 8235284.202000
 1148                             153823.558000 8235317.342000
 1149                             153823.270000 8235317.682000
 1150                             153802.249000 8235342.457000
 1151                             153790.911000 8235356.375000
 1152                             153790.717000 8235356.673000
 1153                             153760.242000 8235393.232000
 1154                             153758.737000 8235394.665000
 1155                             153727.313000 8235432.413000
 1156                             153726.863000 8235432.946000
 1157                             153695.329000 8235470.294000
 1158                             153659.867000 8235513.456000
 1159                             153657.678000 8235516.125000
 1160                             153885.160000 8235265.502000
 1161                             153908.972000 8235277.767000
 1162                             153933.856000 8235291.998000
 1163                             153943.065000 8235298.223000
 1164                             153963.432000 8235370.387000
 1165                             153935.569000 8235348.324000
 1166                             153908.755000 8235324.582000
 1167                             153887.673000 8235307.741000
 1168                             153883.657000 8235304.412000
 1169                             153810.309000 8235249.278000
 1170                             153803.759000 8235242.895000
 1171                             153800.973000 8235298.986000
 1172                             153752.280000 8235258.650000
 1173                             153753.377000 8235326.297000
 1174                             153740.711000 8235380.157000
 1175                             153701.247000 8235347.245000
 1176                             153690.356000 8235337.272000
 1177                             153665.203000 8235446.403000
 1178                             153638.246000 8235422.233000
 1179                             153769.465000 8235469.636000
 1180                             153788.120000 8235486.273000
 1181                             153802.007000 8235496.293000
 1182                             153783.627000 8235415.062000
 1183                             153847.102000 8235468.280000
 1184                             153862.483000 8235482.855000
 1185                             153859.658000 8235414.195000
 1186                             153881.844000 8235432.688000
 1187                             153949.832000 8235392.453000
 1188                             153953.641000 8235386.749000
 1189                             153869.930000 8235356.676000
 1190                             153874.381000 8235360.264000
 1191                             153879.177000 8235363.920000
 1192                             153899.403000 8235382.030000
 1193                             153916.025000 8235396.402000
 1194                             153606.845000 8235397.461000
 1195                             153643.562000 8235362.900000
 1196                             153675.792000 8235324.497000
 1197                             153708.652000 8235288.932000
 1198                             153748.728000 8235256.034000
 1199                             153783.476000 8235226.736000
 1200                             153820.976000 8235511.604000
 1201                             153909.660000 8235219.957000
 1202                             153915.565000 8235221.402000
 1203                             153949.426000 8235243.781000
 1204                             153989.464000 8235267.833000
 1205                             154010.094000 8235281.412000
 1206                             153923.205000 8234783.273000
 1207                             153891.520000 8234765.542000
 1208                             153856.090000 8234745.379000
 1209                             153829.978000 8234731.344000
 1210                             153827.383000 8234736.842000
 1211                             153854.272000 8234751.107000
 1212                             153890.471000 8234771.472000
 1213                             153920.982000 8234788.129000
 1214                             153903.514000 8234828.879000
 1215                             153872.112000 8234811.831000
 1216                             153830.143000 8234788.295000
 1217                             153799.870000 8234771.324000
 1218                             153796.893000 8234776.505000
 1219                             153828.227000 8234793.848000
 1220                             153869.027000 8234816.686000
 1221                             153901.866000 8234833.520000
 1222                             153940.849000 8234745.481000
 1223                             153931.973000 8234765.333000
 1224                             153900.657000 8234836.058000
 1225                             153898.622000 8234840.588000
 1226                             153882.572000 8234876.032000
 1227                             153860.853000 8234864.472000
 1228                             153801.231000 8234830.629000
 1229                             153783.363000 8234821.271000
 1230                             153781.400000 8234825.165000
 1231                             153798.931000 8234834.563000
 1232                             153851.302000 8234864.623000
 1233                             153881.098000 8234880.928000
 1234                             153876.609000 8234892.225000
 1235                             153873.666000 8234898.473000
 1236                             153862.975000 8234920.734000
 1237                             153836.106000 8234906.667000
 1238                             153793.148000 8234883.183000
 1239                             153756.627000 8234863.707000
 1240                             153754.776000 8234868.122000
 1241                             153791.094000 8234886.993000
 1242                             153832.143000 8234907.976000
 1243                             153861.126000 8234924.706000
 1244                             153851.125000 8234948.491000
 1245                             153848.652000 8234954.486000
 1246                             153843.625000 8234964.959000
 1247                             153839.092000 8234963.250000
 1248                             153792.556000 8234939.331000
 1249                             153756.999000 8234920.848000
 1250                             153738.957000 8234910.755000
 1251                             153736.467000 8234915.220000
 1252                             153752.151000 8234923.737000
 1253                             153792.217000 8234944.995000
 1254                             153837.151000 8234967.339000
 1255                             153841.862000 8234969.031000
 1256                             153879.953000 8234971.368000
 1257                             153928.531000 8234998.323000
 1258                             153971.254000 8235022.787000
 1259                             154014.856000 8235046.769000
 1260                             154046.530000 8235064.772000
 1261                             153881.474000 8234966.424000
 1262                             153929.247000 8234993.313000
 1263                             153975.214000 8235017.719000
 1264                             154018.151000 8235040.599000
 1265                             154043.675000 8235052.471000
 1266                             154063.667000 8235032.848000
 1267                             154084.408000 8234988.389000
 1268                             154102.392000 8234953.466000
 1269                             153924.203000 8234849.335000
 1270                             153948.312000 8234861.314000
 1271                             153962.787000 8234831.998000
 1272                             153970.270000 8234815.855000
 1273                             153972.076000 8234812.787000
 1274                             153977.489000 8234814.059000
 1275                             154007.308000 8234831.153000
 1276                             154033.239000 8234846.237000
 1277                             154018.458000 8234875.910000
 1278                             154009.819000 8234894.257000
 1279                             154063.456000 8234809.853000
 1280                             154075.292000 8234789.087000
 1281                             154093.121000 8234799.048000
 1282                             154098.235000 8234801.973000
 1283                             154091.288000 8234803.225000
 1284                             154061.208000 8234868.947000
 1285                             154041.818000 8234913.029000
 1286                             154096.408000 8234806.167000
 1287                             154063.733000 8234876.441000
 1288                             154047.234000 8234915.986000
 1289                             154072.911000 8234929.131000
 1290                             154095.418000 8234942.150000
 1291                             154106.853000 8234917.573000
 1292                             154128.964000 8234868.690000
 1293                             154144.347000 8234835.930000
 1294                             154149.048000 8234838.123000
 1295                             154135.156000 8234869.687000
 1296                             154112.838000 8234919.930000
 1297                             154100.947000 8234945.406000
 1298                             154127.370000 8234960.633000
 1299                             154149.942000 8234971.368000
 1300                             153944.291000 8234866.400000
 1301                             154005.894000 8234899.873000
 1302                             154050.116000 8234923.799000
 1303                             154095.802000 8234950.289000
 1304                             154126.753000 8234966.184000
 1305                             154147.856000 8234977.003000
 1306                             153925.103000 8234919.870000
 1307                             153978.658000 8234947.557000
 1308                             154032.965000 8234979.177000
 1309                             154059.476000 8234993.539000
 1310                             154068.881000 8234997.844000
 1311                             154072.563000 8234997.405000
 1312                             154075.870000 8234994.391000
 1313                             153923.850000 8234924.591000
 1314                             153975.705000 8234952.779000
 1315                             154039.212000 8234988.496000
 1316                             154063.249000 8235002.729000
 1317                             154066.583000 8235005.055000
 1318                             154067.994000 8235008.964000
 1319                             154047.411000 8235048.700000
 1320                             154057.088000 8235031.365000
 1321                             153832.460000 8234989.922000
 1322                             153819.096000 8235019.795000
 1323                             153866.367000 8235045.247000
 1324                             153903.806000 8235066.938000
 1325                             153948.852000 8235090.834000
 1326                             154033.754000 8235138.681000
 1327                             154068.413000 8235155.291000
 1328                             154071.387000 8235150.398000
 1329                             154102.317000 8235083.162000
 1330                             154136.207000 8235004.487000
 1331                             154158.392000 8234952.470000
 1332                             154173.487000 8234913.398000
 1333                             154197.086000 8234853.049000
 1334                             154202.322000 8234838.407000
 1335                             154202.759000 8234837.262000
 1336                             153481.769000 8234918.126000
 1337                             153475.683000 8234926.077000
 1338                             153440.117000 8234970.663000
 1339                             153407.664000 8235010.005000
 1340                             153376.417000 8235048.138000
 1341                             153362.537000 8235064.030000
 1342                             153464.124000 8235096.174000
 1343                             153503.260000 8235062.374000
 1344                             153580.631000 8235048.495000
 1345                             153610.888000 8235065.338000
 1346                             153479.778000 8234920.944000
 1347                             154113.862000 8234433.209000
 1348                             154158.864000 8234448.483000
 1349                             154112.306000 8234438.886000
 1350                             154075.537000 8234573.053000
 1351                             154160.387000 8234455.204000
 1352                             154134.858000 8234536.083000
 1353                             153901.941000 8234578.926000
 1354                             153915.170000 8234540.825000
 1355                             153964.382000 8234413.296000
 1356                             154009.362000 8234427.584000
 1357                             153952.741000 8234580.513000
 1358                             154184.138000 8233934.865000
 1359                             154232.804000 8233833.507000
 1360                             154530.143000 8233923.135000
 1361                             154510.694000 8233917.434000
 1362                             154492.495000 8233910.216000
 1363                             154473.255000 8233902.681000
 1364                             154454.785000 8233894.830000
 1365                             154447.032000 8233892.267000
 1366                             154440.788000 8233891.118000
 1367                             154431.273000 8233890.747000
 1368                             154410.333000 8233886.485000
 1369                             154390.020000 8233880.344000
 1370                             154370.154000 8233874.658000
 1371                             154349.538000 8233868.973000
 1372                             154330.823000 8233863.757000
 1373                             154311.663000 8233858.592000
 1374                             154291.276000 8233852.285000
 1375                             154272.897000 8233846.047000
 1376                             154253.767000 8233839.917000
 1377                             154575.772000 8233942.647000
 1378                             154569.686000 8233954.056000
 1379                             154557.665000 8233976.293000
 1380                             154547.970000 8233997.249000
 1381                             154538.550000 8234017.983000
 1382                             154527.225000 8234042.257000
 1383                             154521.007000 8234058.762000
 1384                             154514.231000 8234076.065000
 1385                             154505.831000 8234097.431000
 1386                             154498.282000 8234114.434000
 1387                             154488.044000 8234138.004000
 1388                             154479.783000 8234158.240000
 1389                             154471.011000 8234177.904000
 1390                             154461.851000 8234198.931000
 1391                             154452.826000 8234220.084000
 1392                             154445.660000 8234237.011000
 1393                             154437.679000 8234255.148000
 1394                             154430.026000 8234273.187000
 1395                             154420.970000 8234294.488000
 1396                             154413.266000 8234313.028000
 1397                             154404.453000 8234331.120000
 1398                             154396.156000 8234349.368000
 1399                             154388.410000 8234368.410000
 1400                             154383.202000 8234388.344000
 1401                             154380.080000 8234401.917000
 1402                             154377.747000 8234407.958000
 1403                             154334.362000 8234514.376000
 1404                             154334.219000 8234514.751000
 1405                             154228.565000 8234801.135000
 1406                             154216.825000 8234831.970000
 1407                             154356.051000 8234459.946000
 1408                             154348.141000 8234478.141000
 1409                             154373.524000 8234418.892000
 1410                             154364.170000 8234440.767000
 1411                             154212.451000 8234840.962000
 1412                             154208.068000 8234853.184000
 1413                             154201.713000 8234870.180000
 1414                             154194.341000 8234889.553000
 1415                             154189.521000 8234902.539000
 1416                             154187.404000 8234908.243000
 1417                             154184.327000 8234916.166000
 1418                             154179.970000 8234927.385000
 1419                             154172.933000 8234946.117000
 1420                             154165.465000 8234964.761000
 1421                             154205.671000 8234964.399000
 1422                             154169.745000 8234966.217000
 1423                             154542.381000 8233937.324000
 1424                             154542.687000 8233936.648000
 1434                             154208.939000 8233942.474000
 1446                             154208.019000 8233942.237000
 1447                             154205.114000 8233941.489000
 1448                             154188.043000 8233936.140000
 1449                             154185.596000 8233935.373000
 1450                             154211.714000 8233932.047000
 1451                             154205.088000 8233930.119000
 1452                             154205.138000 8233930.792000
 1453                             154193.233000 8233926.390000
 1458                             154204.760000 8233952.439000
 1459                             154205.845000 8233948.427000
 1460                             154206.728000 8233944.531000
 1465                             154205.161000 8233931.091000
 1466                             154209.068000 8233941.991000
 1467                             154209.406000 8233940.721000
 1468                             154210.272000 8233937.465000
 1469                             154211.168000 8233934.098000
 1470                             154207.805000 8233940.319000
 1471                             154208.100000 8233940.376000
 1472                             154208.824000 8233937.083000
 1473                             154209.114000 8233937.159000
 1474                             154209.665000 8233933.736000
 1475                             154209.957000 8233933.806000
 1476                             154188.404000 8233924.871000
 1477                             154186.925000 8233924.405000
 1478                             154186.733000 8233924.345000
 1479                             154192.949000 8233927.292000
 1480                             154191.267000 8233926.763000
 1481                             154188.962000 8233926.038000
 1482                             154189.242000 8233925.134000
 1483                             154184.117000 8233934.910000
 1484                             154182.906000 8233934.530000
 1485                             154316.351000 8234507.589000
 1486                             154327.814000 8234511.439000
 1487                             153972.781000 8234391.532000
 1488                             153891.515000 8234362.252000
 1489                             153875.131000 8234357.236000
 1490                             154333.948000 8234513.499000
 1491                             154336.706000 8234508.223000
 1492                             154341.512000 8234495.611000
 1493                             154334.611000 8234513.722000
 1494                             154335.546000 8234514.078000
 1495                             154342.447000 8234495.966000
 1496                             154349.075000 8234478.570000
 1497                             154226.925000 8234802.631000
 1498                             154215.887000 8234831.621000
 1499                             154227.634000 8234800.771000
 1500                             154335.155000 8234515.104000
 1501                             154335.296000 8234514.732000
 1502                             154577.167000 8233942.156000
 1503                             154576.654000 8233943.118000
 1504                             154570.567000 8233954.529000
 1505                             154558.560000 8233976.741000
 1506                             154548.879000 8233997.666000
 1507                             154539.458000 8234018.401000
 1508                             154528.147000 8234042.645000
 1509                             154521.941000 8234059.121000
 1510                             154515.162000 8234076.430000
 1511                             154506.754000 8234097.817000
 1512                             154499.198000 8234114.836000
 1513                             154488.966000 8234138.392000
 1514                             154480.703000 8234158.633000
 1515                             154471.926000 8234178.307000
 1516                             154462.769000 8234199.327000
 1517                             154453.746000 8234220.475000
 1518                             154446.578000 8234237.407000
 1519                             154438.597000 8234255.545000
 1520                             154430.946000 8234273.578000
 1521                             154421.892000 8234294.876000
 1522                             154414.178000 8234313.439000
 1523                             154405.358000 8234331.546000
 1524                             154397.075000 8234349.764000
 1525                             154389.361000 8234368.726000
 1526                             154384.173000 8234388.583000
 1527                             154381.039000 8234402.211000
 1528                             154374.457000 8234419.252000
 1529                             154356.815000 8234461.014000
 1530                             154374.444000 8234419.285000
 1531                             154365.090000 8234441.159000
 1532                             154356.972000 8234460.336000
 1533                             154530.424000 8233922.175000
 1534                             154511.020000 8233916.487000
 1535                             154492.862000 8233909.286000
 1536                             154473.633000 8233901.755000
 1537                             154455.138000 8233893.894000
 1538                             154447.281000 8233891.296000
 1539                             154440.899000 8233890.122000
 1540                             154431.393000 8233889.751000
 1541                             154410.578000 8233885.514000
 1542                             154390.302000 8233879.385000
 1543                             154370.425000 8233873.695000
 1544                             154349.805000 8233868.009000
 1545                             154331.087000 8233862.793000
 1546                             154311.941000 8233857.631000
 1547                             154291.585000 8233851.334000
 1548                             154273.210000 8233845.097000
 1549                             154254.066000 8233838.963000
 1550                             154233.096000 8233832.551000
 1551                             154231.959000 8233832.203000
 1552                             154530.536000 8233922.216000
 1553                             154576.165000 8233941.728000
 1554                             154325.534000 8234511.411000
 1555                             154289.739000 8234609.714000
 1557                             154218.069000 8234800.523000
 1558                             154207.730000 8234828.589000
 1559                             154325.778000 8234510.755000
 1560                             154206.980000 8234828.310000
 1561                             154204.194000 8234827.275000
 1562                             154215.293000 8234833.303000
 1563                             154213.335000 8234838.269000
 1564                             154213.584000 8234838.447000
 1565                             154215.392000 8234839.264000
 1566                             154219.828000 8234841.217000
 1567                             154227.253000 8234801.889000
 1568                             154378.026000 8234852.180000
 1569                             154403.409000 8234861.216000
 1570                             154418.031000 8234865.612000
 1571                             154421.206000 8234863.660000
 1572                             154423.312000 8234862.240000
 1573                             154425.438000 8234860.824000
 1574                             154427.385000 8234859.507000
 1575                             154429.353000 8234858.193000
 1576                             154429.767000 8234855.482000
 1577                             154430.181000 8234852.771000
 1578                             154430.717000 8234846.591000
 1579                             154431.252000 8234840.410000
 1580                             154432.954000 8234817.826000
 1581                             154435.545000 8234799.086000
 1582                             154439.284000 8234779.831000
 1583                             154442.372000 8234761.590000
 1584                             154443.116000 8234755.995000
 1585                             154443.854000 8234750.395000
 1586                             154447.332000 8234728.722000
 1587                             154448.576000 8234724.438000
 1588                             154242.112000 8234807.701000
 1589                             154257.855000 8234812.836000
 1590                             154268.751000 8234816.482000
 1591                             154279.647000 8234820.128000
 1592                             154305.113000 8234828.649000
 1593                             154332.175000 8234837.262000
 1594                             154357.449000 8234845.626000
 1595                             154234.376000 8234804.703000
 1596                             154239.904000 8234806.968000
 1597                             154230.749000 8234803.394000
 1598                             154450.370000 8234721.525000
 1599                             154454.286000 8234718.985000
 1600                             154459.472000 8234716.551000
 1601                             154465.081000 8234714.540000
 1602                             154470.161000 8234714.011000
 1603                             154535.566000 8234711.789000
 1604                             154564.459000 8234717.927000
 1605                             154622.773000 8234737.295000
 1606                             154767.493000 8234782.013000
 1607                             154715.264000 8234773.916000
 1608                             154629.123000 8234747.031000
 1609                             155111.383000 8235355.998000
 1610                             155011.955000 8235240.196000
 1611                             155011.531000 8235240.566000
 1612                             155048.429000 8235376.025000
 1613                             155156.623000 8235190.413000
 1614                             155080.026000 8235138.026000
 1615                             155070.501000 8235136.835000
 1616                             155012.954000 8235081.669000
 1617                             154186.927000 8233923.827000
 1618                             154188.492000 8233919.661000
 1619                             154182.275000 8233930.604000
 1620                             154184.123000 8233931.292000
 1621                             154182.559000 8233929.988000
 1622                             154184.536000 8233930.191000
 1623                             154186.390000 8233925.257000
 1624                             154185.460000 8233924.907000
 1625                             154185.584000 8233924.642000
 1626                             154186.011000 8233917.871000
 1627                             153994.594000 8233793.001000
 1636                             153006.138000 8234939.534000
 1637                             152993.159000 8234957.383000
 1638                             152987.625000 8234964.569000
 1639                             152984.331000 8234969.642000
 1640                             152980.246000 8234976.955000
 1641                             153563.330000 8235102.068000
 1642                             153564.281000 8235102.696000
 1643                             153564.455000 8235102.462000
 1644                             153564.693000 8235102.631000
 1645                             153564.357000 8235103.108000
 1646                             153564.112000 8235102.949000
 1647                             153568.724000 8235162.087000
 1648                             153568.879000 8235161.836000
 1649                             153569.135000 8235161.982000
 1650                             153568.821000 8235162.470000
 1651                             153568.565000 8235162.324000
 1652                             152879.537000 8234749.699000
 1653                             152862.291000 8234749.744000
 1654                             152836.629000 8234747.214000
 1655                             152836.985000 8234741.669000
 1656                             152816.022000 8234740.927000
 1657                             152788.305000 8234736.454000
 1658                             152883.668000 8234767.985000
 1659                             152888.581000 8234787.709000
 1660                             152893.924000 8234809.190000
 1661                             152897.088000 8234822.092000
 1662                             152895.662000 8234826.128000
 1663                             152890.743000 8234828.607000
 1664                             152869.491000 8234830.869000
 1665                             152848.886000 8234833.072000
 1666                             152834.858000 8234836.489000
 1667                             152825.320000 8234845.892000
 1668                             152819.117000 8234859.866000
 1669                             152809.181000 8234883.184000
 1670                             152800.161000 8234905.299000
 1671                             152787.846000 8234935.136000
 1672                             152788.142000 8234944.102000
 1673                             152793.408000 8234949.979000
 1674                             152815.914000 8234963.810000
 1675                             152826.589000 8234970.442000
 1676                             152831.579000 8234974.224000
 1677                             152846.202000 8234985.700000
 1678                             152847.777000 8234986.911000
 1679                             152849.009000 8234985.369000
 1680                             152847.398000 8234984.190000
 1681                             153825.280000 8234346.473000
 1682                             153713.392000 8234360.708000
 1683                             153714.364000 8234356.597000
 84                               154202.799000 8233952.071000
 85                               154204.115000 8233947.811000
 86                               154205.362000 8233944.105000
 87                               154206.574000 8233939.844000
 88                               154207.267000 8233936.588000
 89                               154208.193000 8233933.234000
 POCOS                            154202.383000 8233931.531000
 76                               153728.228000 8234364.493000
 77                               153722.679000 8234365.196000
 C1                               154209.034000 8233933.540000
 C2                               154208.306000 8233936.865000
 C4                               154207.355000 8233940.129000
 C5                               154205.293000 8233948.227000
 C6                               154204.254000 8233952.349000
 C7                               154206.126000 8233931.343000

[VERTICES]
 95                               154208.471000 8233932.125000

[TAGS]

[LABELS]
;X-Coord             Y-Coord             Label & Anchor Node
154218.176        	8233947.915       	"REL.AGQ.001"	
153728.761        	8234365.557       	"REL.AGQ.002"	
154875.473        	8235180.439       	"CONECTADO"	
154530.771        	8233916.085       	"CONECTADO"	
154374.629        	8234419.356       	"CONECTADO"	
154213.673        	8234838.233       	"CONECTADO"	
154357.599        	8234461.583       	"CONECTADO"	
153712.655        	8234351.787       	"F"	
153693.757        	8234589.529       	"F"	
154206.656        	8233933.833       	"C6"	
154206.033        	8233937.019       	"C5"	
154205.201        	8233940.344       	"C4"	
154204.162        	8233944.432       	"C3"	
154202.846        	8233948.034       	"C2"	
154201.537        	8233951.993       	"C1"	
154185.243        	8233930.212       	"F"	
154185.314        	8233924.060       	"CONECTADO"	
154144.336        	8233961.198       	"F"	
153853.934        	8234178.811       	"CONFERIR DN 60-110"	
153748.605        	8234295.280       	"F?"	
154223.984        	8234737.936       	"SHAQ R Dom Francisco CH 12 LT 14 "	Dom_Francisco_CH12_LT14

[BACKDROP]
  DIMENSIONS  	152665.790        	8233685.692       	155351.034        	8235663.179       
 UNITS          	None
 FILE           	
 OFFSET         	0.00            	0.00            

[END]
