[TITLE]

[JUNCTIONS]
 1215                               1146.0699
 0                                  1144.0699
 425                                1141.0900
 1473                               1118.7000
 6                                  1146.8300
 1763                               1136.4900
 2261                               1105.8700
 1197                               1150.5500
 3183                               1086.1400
 286                                1111.5500
 1214                               1143.7600
 2289                               1114.1200
 7                                  1150.0300
 1997                               1087.6100
 426                                1141.0699
 3090                               1109.0000
 2136                               1093.4100
 387                                1120.0400
 1830                               1101.3900
 1835                               1084.6600
 446                                1135.4100
 2121                               1110.8500
 1137                               1118.5800
 1597                               1134.2700
 789                                1089.8000
 2173                               1087.7200
 1196                               1146.2200
 1579                               1108.0400
 2032                               1107.9700
 1771                               1136.2900
 1332                               1105.5500
 650                                1096.6899
 39                                 1108.0699
 2522                               1116.9301
 870                                1125.6700
 649                                1095.8101
 343                                1092.7100
 3188                               1084.7100
 330                                1094.1500
 320                                1099.2500
 2983                               1139.5500
 334                                1100.0000
 619                                1103.6899
 1999                               1065.0000
 43                                 1071.8400
 2441                               1101.7100
 103                                1115.9301
 2440                               1124.1500
 341                                1095.4900
 1647                               1105.0300
 246                                1099.9800
 1364                               1085.9399
 108                                1134.6100
 2566                               1148.6000
 1839                               1081.7000
 926                                1101.8600
 80                                 1126.8500
 160                                1130.3900
 100                                1127.0699
 1481                               1120.1600
 1479                               1120.7800
 1088                               1150.7400
 388                                1117.9500
 1820                               1093.1899
 1507                               1107.8400
 1107                               1150.2600
 2029                               1093.9200
 3070                               1109.5601
 1782                               1134.8800
 1110                               1138.2500
 245                                1098.6300
 2478                               1133.1700
 640                                1098.3199
 124                                1132.2800
 1339                               1104.0400
 1406                               1094.1899
 795                                1105.1600
 393                                1105.9600
 663                                1097.3900
 1242                               1093.3600
 1868                               1109.6700
 583                                1121.3000
 770                                1080.8600
 620                                1098.9399
 2008                               1129.4700
 1100                               1114.5300
 2172                               1089.9600
 2448                               1098.2900
 2627                               1113.3700
 611                                1091.0699
 1838                               1102.3300
 2123                               1113.2500
 866                                1109.4100
 106                                1117.1100
 3                                  1150.2100
 805                                1112.0100
 744                                1124.8199
 2696                               1075.4000
 1735                               1133.5200
 2368                               1091.8700
 2429                               1098.9600
 336                                1102.2800
 2436                               1095.1200
 927                                1103.8900
 743                                1126.1899
 1076                               1117.0800
 2442                               1091.6300
 766                                1090.0699
 2028                               1093.8000
 1666                               1112.5601
 2476                               1129.2100
 1563                               1101.7200
 348                                1115.8101
 3240                               1089.1200
 82                                 1130.4900
 2314                               1078.1700
 3249                               1080.0601
 597                                1107.2600
 801                                1095.5500
 2218                               1097.3500
 3375                               1112.3800
 769                                1073.6600
 2514                               1135.8199
 814                                1097.0400
 648                                1127.6801
 2668                               1076.7900
 335                                1102.2800
 403                                1104.2500
 1640                               1103.6600
 627                                1093.2700
 624                                1084.5300
 2343                               1094.9399
 1108                               1139.5400
 1646                               1084.2200
 123                                1130.7100
 1382                               1105.3900
 2559                               1132.4500
 2114                               1118.6801
 2450                               1087.2800
 4                                  1149.7800
 107                                1134.3199
 1079                               1102.9900
 1121                               1100.9600
 385                                1119.5500
 1665                               1113.6600
 1120                               1123.8400
 2420                               1098.6500
 2316                               1073.0900
 94                                 1127.9301
 1636                               1105.7700
 93                                 1124.8101
 37                                 1108.6300
 1614                               1085.7900
 639                                1100.2100
 2224                               1101.8600
 718                                1090.7200
 2437                               1091.5000
 1515                               1088.4800
 1109                               1139.7300
 664                                1097.1000
 1403                               1090.0000
 1051                               1131.4500
 95                                 1127.9301
 818                                1095.9600
 867                                1108.3199
 3079                               1111.7400
 325                                1095.0000
 794                                1104.2700
 1516                               1085.3199
 104                                1115.9301
 3069                               1111.6801
 3185                               1083.8600
 831                                1086.3700
 2736                               1132.0500
 1867                               1099.0500
 1755                               1132.2100
 618                                1104.4399
 1183                               1088.2600
 1477                               1126.8900
 591                                1101.0500
 2307                               1094.1700
 1366                               1081.6000
 1361                               1089.4000
 1834                               1077.2800
 1144                               1123.4200
 815                                1096.6600
 2681                               1115.2700
 2250                               1099.8400
 798                                1091.7000
 81                                 1126.8500
 830                                1087.1200
 2113                               1122.2500
 3080                               1112.5699
 3039                               1098.4399
 96                                 1129.2100
 617                                1106.1100
 1096                               1114.2500
 804                                1111.5400
 747                                1115.3199
 779                                1077.1600
 771                                1084.0000
 2543                               1096.9200
 1836                               1081.4100
 158                                1139.9500
 2142                               1096.3300
 1819                               1095.3900
 1736                               1133.5200
 592                                1099.3900
 1577                               1106.9700
 2439                               1135.0900
 709                                1094.0300
 958                                1136.3700
 2158                               1082.5100
 848                                1087.3700
 1599                               1118.5699
 957                                1134.3101
 749                                1116.9900
 2146                               1085.3000
 647                                1129.9700
 574                                1125.2300
 799                                1092.1000
 1729                               1077.4000
 1739                               1127.8101
 156                                1139.4100
 2693                               1094.6801
 1827                               1096.0601
 3192                               1080.0601
 2140                               1097.3900
 3170                               1092.4399
 1381                               1107.3199
 2697                               1111.4301
 3190                               1083.3199
 110                                1132.6200
 2558                               1131.3300
 626                                1092.4500
 3194                               1083.3199
 258                                1112.9399
 662                                1095.9200
 2010                               1108.4200
 1829                               1099.2600
 581                                1129.2200
 3181                               1087.8700
 109                                1134.1400
 651                                1134.0000
 2304                               1099.0699
 2419                               1137.4500
 930                                1090.3900
 60                                 1095.8101
 2279                               1129.4399
 3030                               1100.1300
 1402                               1085.0200
 2212                               1128.1801
 1018                               1110.1899
 646                                1095.1700
 396                                1105.5800
 339                                1102.1801
 2013                               1123.1300
 2137                               1100.2300
 1394                               1091.3300
 813                                1097.4700
 326                                1093.3600
 2286                               1124.1500
 2454                               1096.8900
 3171                               1091.8300
 2527                               1108.3101
 3046                               1105.9900
 738                                1131.3300
 1154                               1129.2100
 1511                               1102.4600
 667                                1090.4500
 2498                               1096.7800
 2896                               1087.9399
 1090                               1103.3500
 719                                1095.3900
 263                                1097.0300
 754                                1128.5100
 72                                 1086.1400
 1358                               1107.8400
 1480                               1120.1600
 1345                               1110.1801
 1172                               1120.8300
 424                                1105.8400
 3163                               1096.8800
 994                                1121.1200
 3091                               1110.0100
 1103                               1132.8000
 782                                1100.8400
 3232                               1090.4200
 2443                               1077.6500
 2698                               1111.4900
 788                                1093.4000
 2318                               1076.6300
 2144                               1093.8600
 1844                               1133.7100
 2370                               1088.7300
 2366                               1101.4600
 1842                               1101.3800
 2469                               1102.1400
 3167                               1094.2200
 1871                               1089.8700
 3164                               1096.5000
 30                                 1110.1000
 1401                               1086.9700
 1369                               1089.4000
 1512                               1097.0601
 1177                               1100.0000
 2031                               1109.9200
 2466                               1122.1400
 2367                               1097.5500
 2176                               1090.2000
 736                                1132.2800
 2313                               1076.0100
 477                                1101.9399
 845                                1086.9600
 3186                               1083.8600
 682                                1109.2200
 1338                               1106.9000
 345                                1098.1801
 2145                               1094.4000
 1478                               1120.7800
 140                                1113.9200
 2695                               1068.5400
 2291                               1118.6801
 2255                               1069.8700
 768                                1106.9500
 733                                1102.8600
 3099                               1112.2800
 3174                               1089.3800
 1843                               1087.4000
 3038                               1099.2700
 841                                1086.7400
 851                                1087.7300
 1464                               1084.8700
 3178                               1087.1300
 689                                1100.8101
 1638                               1101.9700
 445                                1135.4100
 3158                               1098.7100
 1746                               1125.5500
 811                                1098.3400
 580                                1129.0699
 2287                               1122.3300
 3052                               1105.4700
 2477                               1089.3199
 1020                               1114.3199
 322                                1099.4800
 260                                1089.8700
 844                                1087.0100
 3108                               1113.4301
 3078                               1109.9100
 582                                1122.3700
 2308                               1082.3500
 745                                1123.5100
 3184                               1081.0900
 2421                               1083.3101
 3290                               1125.8600
 2134                               1109.5500
 2033                               1108.3500
 778                                1063.4000
 857                                1093.2200
 821                                1095.3400
 3165                               1092.9200
 633                                1097.5500
 849                                1087.5500
 2220                               1088.7000
 1642                               1103.9399
 605                                1110.2300
 708                                1091.2500
 3505                               1084.2000
 2315                               1070.6000
 1578                               1109.0699
 1601                               1120.0100
 159                                1130.3900
 98                                 1129.2200
 1133                               1101.8600
 1349                               1104.6801
 2548                               1134.9200
 1531                               1090.2900
 575                                1126.5000
 1598                               1133.0800
 1635                               1102.8500
 2188                               1113.2300
 1596                               1106.3300
 1484                               1089.3700
 2284                               1135.2400
 56                                 1112.3700
 2126                               1112.3199
 748                                1101.4700
 3157                               1098.9700
 3177                               1089.8000
 2299                               1122.4200
 1363                               1085.9600
 3374                               1121.5100
 274                                1103.9200
 820                                1095.4500
 1356                               1105.3300
 751                                1109.5300
 389                                1118.1600
 3056                               1108.2600
 3031                               1101.3199
 819                                1095.7100
 1404                               1093.4399
 413                                1094.6300
 434                                1088.7200
 3032                               1101.7600
 85                                 1131.1400
 1831                               1104.2700
 1641                               1105.3900
 1825                               1093.8900
 1840                               1078.2900
 728                                1096.4500
 42                                 1066.7500
 3064                               1108.6899
 63                                 1089.5800
 822                                1095.0400
 157                                1139.6500
 2165                               1098.8300
 843                                1086.8700
 2124                               1108.7400
 660                                1134.8400
 2265                               1085.6100
 3051                               1105.2600
 1576                               1094.6300
 764                                1106.4399
 806                                1094.4000
 3098                               1113.9000
 1246                               1089.3500
 3453                               1131.5800
 2181                               1103.9100
 2128                               1113.3700
 261                                1098.2800
 18                                 1096.2500
 2863                               1087.0500
 2892                               1090.0000
 241                                1122.7100
 735                                1104.4700
 1337                               1105.6801
 762                                1101.5800
 328                                1080.6600
 3162                               1093.1600
 409                                1092.0400
 3086                               1108.0400
 2285                               1109.7200
 1809                               1085.2100
 2253                               1107.6300
 3301                               1135.0800
 3077                               1109.0500
 578                                1128.7300
 652                                1133.8500
 3065                               1108.1801
 254                                1122.2100
 1529                               1100.8000
 1373                               1085.6100
 285                                1110.8400
 609                                1098.6200
 1178                               1131.2600
 787                                1095.0000
 643                                1136.5100
 338                                1104.2000
 3231                               1093.2200
 812                                1097.9100
 2098                               1107.6600
 2555                               1115.1200
 2866                               1085.0900
 724                                1091.4800
 2865                               1085.8300
 2324                               1128.2200
 3247                               1101.7600
 36                                 1107.7500
 3166                               1094.5601
 1744                               1120.6700
 1828                               1097.7600
 731                                1109.5400
 3560                               1084.4600
 1691                               1102.8700
 2180                               1103.9100
 2009                               1107.1899
 2694                               1065.6500
 298                                1103.0900
 3454                               1130.3400
 2338                               1132.6801
 19                                 1097.3000
 422                                1106.9900
 1998                               1120.4700
 1747                               1127.0900
 479                                1091.0500
 1821                               1093.0000
 978                                1099.2500
 952                                1085.9800
 2125                               1110.3900
 803                                1088.5900
 842                                1086.9000
 2274                               1105.9900
 1211                               1100.7700
 2139                               1101.0400
 398                                1123.5200
 1400                               1092.0800
 83                                 1129.7000
 2168                               1101.1801
 2092                               1111.5900
 1485                               1089.7600
 1189                               1085.4700
 2222                               1100.5000
 644                                1138.0500
 1353                               1107.4000
 1218                               1085.7800
 1410                               1085.8101
 404                                1107.0699
 2468                               1102.3000
 264                                1096.9600
 1592                               1098.5000
 3403                               1129.5601
 3264                               1122.7000
 3208                               1085.8500
 655                                1101.7900
 760                                1102.4600
 2159                               1082.5699
 3169                               1092.0800
 1380                               1100.0000
 88                                 1118.3500
 2376                               1088.1899
 1604                               1081.2300
 151                                1140.4700
 488                                1100.0900
 3047                               1106.9000
 810                                1098.4900
 1872                               1089.3900
 807                                1097.0400
 2730                               1081.2600
 1808                               1085.2500
 3187                               1081.6400
 1824                               1092.2500
 1802                               1084.4800
 2223                               1100.0000
 758                                1108.1600
 1346                               1109.8800
 3063                               1110.0400
 3248                               1100.0000
 1913                               1142.4100
 2312                               1075.6801
 1530                               1100.8000
 1395                               1090.8000
 1340                               1105.3800
 1798                               1083.9700
 86                                 1126.2800
 668                                1098.1801
 852                                1087.9000
 2221                               1087.8700
 3179                               1087.1300
 590                                1098.0200
 606                                1094.0800
 2023                               1082.4800
 1823                               1099.4301
 793                                1109.9500
 2371                               1087.8900
 1350                               1104.6801
 1791                               1086.8500
 2425                               1087.3000
 826                                1097.2800
 3176                               1089.2900
 1514                               1096.3199
 2375                               1089.8400
 827                                1092.2200
 1413                               1084.5800
 800                                1095.7400
 3059                               1107.3900
 481                                1090.2600
 3219                               1092.2300
 323                                1085.6801
 792                                1111.3800
 3175                               1089.2900
 1336                               1107.2400
 2893                               1090.7000
 2219                               1094.7900
 3204                               1080.8300
 808                                1096.5000
 270                                1087.2400
 2383                               1086.6500
 2384                               1087.4900
 1643                               1089.9900
 21                                 1082.2700
 1341                               1109.9399
 1342                               1108.7100
 1994                               1088.7000
 3486                               1082.9100
 756                                1107.9800
 1822                               1091.4301
 3559                               1085.6400
 3254                               1100.0000
 2501                               1106.0400
 3484                               1080.8500
 1750                               1131.9600
 1104                               1133.8800
 327                                1080.6600
 860                                1088.7700
 405                                1105.8101
 784                                1099.9800
 1644                               1091.9399
 2895                               1088.4500
 332                                1102.3199
 1816                               1078.2900
 402                                1105.5100
 2862                               1087.5000
 1335                               1108.4399
 1072                               1131.7000
 3140                               1100.0000
 589                                1097.8400
 2147                               1085.1600
 1778                               1134.2700
 931                                1107.8700
 1799                               1084.0601
 2042                               1082.2600
 850                                1087.5400
 3487                               1082.1300
 1234                               1093.8400
 1344                               1108.6801
 59                                 1089.8199
 947                                1083.5900
 3387                               1130.0100
 2475                               1095.5500
 2878                               1088.8000
 2875                               1085.1100
 2998                               1081.7800
 1135                               1141.3101
 1463                               1086.8800
 3057                               1107.4100
 2041                               1081.8600
 3036                               1102.0500
 53                                 1109.5800
 3084                               1109.7800
 2715                               1111.6200
 1348                               1106.2600
 858                                1089.9800
 2288                               1120.7400
 2138                               1099.9000
 2339                               1136.3199
 2467                               1093.7100
 2385                               1088.0500
 2864                               1086.6200
 2516                               1100.6600
 2726                               1085.8900
 2100                               1110.1600
 1360                               1097.3700
 3211                               1081.0699
 823                                1094.6100
 2883                               1088.1200
 1905                               1080.8500
 948                                1084.0601
 105                                1117.1100
 3037                               1101.0699
 1176                               1100.0000
 1591                               1099.0500
 1188                               1086.0699
 419                                1105.2800
 3048                               1107.9500
 1419                               1089.9700
 1417                               1088.3000
 3101                               1111.2700
 1357                               1105.5699
 1347                               1100.2300
 1909                               1082.0500
 600                                1089.5300
 714                                1112.2000
 2022                               1082.8300
 765                                1107.7400
 2379                               1084.5699
 1035                               1097.6500
 3488                               1081.6100
 1390                               1103.9399
 2157                               1095.0000
 1807                               1085.0500
 3298                               1133.8101
 2684                               1121.5200
 437                                1126.6400
 1352                               1103.6100
 3456                               1132.3400
 2557                               1136.5601
 3220                               1092.5300
 1354                               1110.8400
 853                                1088.0300
 2021                               1082.4800
 1212                               1099.8400
 3055                               1109.3199
 3109                               1114.8800
 932                                1108.1801
 1421                               1089.0601
 1385                               1107.7900
 2169                               1101.8700
 3060                               1107.3300
 1414                               1084.3199
 604                                1085.7100
 3160                               1093.7500
 1811                               1085.3500
 1810                               1085.4000
 2900                               1088.4100
 2882                               1089.0601
 2894                               1089.8199
 1906                               1081.3500
 951                                1085.1700
 2897                               1087.5601
 3035                               1103.0100
 2024                               1082.8101
 3043                               1107.1600
 2040                               1081.4700
 1740                               1132.8199
 3173                               1090.6400
 2728                               1084.4200
 121                                1122.7000
 3071                               1108.5601
 1412                               1086.3000
 269                                1088.9600
 69                                 1087.6600
 2879                               1087.4600
 3506                               1084.9900
 1062                               1094.3700
 2260                               1090.8800
 3201                               1083.3199
 1752                               1133.2900
 1140                               1089.7400
 99                                 1127.4600
 1157                               1111.4700
 3042                               1106.2300
 2856                               1089.9200
 2857                               1090.0000
 1405                               1093.1600
 2163                               1093.1500
 2382                               1083.3000
 755                                1107.8101
 1368                               1089.3000
 3193                               1080.0601
 2096                               1107.8600
 1911                               1082.0900
 1416                               1088.6200
 25                                 1102.6100
 251                                1127.3000
 3135                               1090.1000
 3154                               1087.2900
 2282                               1128.2700
 1429                               1131.2100
 475                                1091.8900
 394                                1098.7800
 3405                               1091.6000
 715                                1111.1801
 1585                               1090.1100
 1690                               1085.1899
 2458                               1083.9900
 1187                               1086.6300
 2871                               1087.3500
 28                                 1102.6100
 3133                               1090.0000
 2902                               1089.0100
 2043                               1082.4399
 2127                               1113.6100
 PM1.DMC.GAM.003                    1109.9800
 2166                               1097.9800
 3503                               1082.8900
 1099                               1114.4000
 75                                 1115.6200
 1832                               1106.1500
 3413                               1132.2400
 3012                               1143.0500
 3001                               1136.8400
 250                                1126.7300
 1061                               1095.3000
 953                                1086.4000
 1661                               1132.1700
 259                                1089.0601
 946                                1083.4000
 3189                               1084.7900
 1910                               1082.1500
 1374                               1110.7100
 2880                               1087.3199
 3412                               1134.4800
 2377                               1086.9100
 1427                               1136.7200
 1564                               1085.6500
 1613                               1095.4000
 1583                               1091.0601
 386                                1120.0400
 143                                1135.4600
 2171                               1089.9600
 623                                1084.5800
 840                                1086.5900
 1800                               1084.1899
 2105                               1113.8199
 3105                               1111.3300
 3460                               1136.1600
 1764                               1136.5601
 1465                               1084.8700
 3280                               1128.6600
 1995                               1088.4100
 2568                               1140.0699
 585                                1123.5699
 1615                               1065.4399
 594                                1105.2400
 3246                               1090.5200
 1423                               1084.2500
 3092                               1111.1400
 3093                               1111.1400
 2122                               1113.3400
 1801                               1084.3300
 2551                               1135.6600
 1674                               1113.6100
 1608                               1112.4800
 2887                               1090.0000
 1136                               1118.5800
 442                                1126.2600
 2725                               1087.0200
 2724                               1088.0100
 2673                               1128.7100
 443                                1126.5800
 2764                               1115.1200
 2502                               1091.1000
 2026                               1082.8000
 3107                               1112.3800
 1418                               1089.5300
 1806                               1084.8199
 2886                               1087.0800
 1399                               1092.9200
 1411                               1084.5000
 2292                               1117.1000
 1415                               1083.3800
 2457                               1084.2600
 1424                               1088.9800
 1425                               1090.5200
 1426                               1091.2300
 1869                               1086.3101
 1864                               1111.9200
 3053                               1109.9399
 1857                               1108.1400
 1586                               1089.6000
 2890                               1090.0000
 2891                               1089.6300
 2854                               1089.3199
 2184                               1113.2300
 2170                               1102.1300
 1792                               1087.6700
 1797                               1083.7900
 2104                               1111.1801
 1805                               1084.6000
 3136                               1090.9200
 2102                               1106.2300
 954                                1087.0400
 3221                               1093.0699
 2435                               1091.1100
 2881                               1086.8101
 1038                               1108.6400
 2381                               1083.6801
 1153                               1134.8900
 3225                               1094.0800
 859                                1089.4500
 3200                               1083.3199
 3120                               1085.4100
 637                                1072.8199
 2456                               1085.3800
 2874                               1086.0601
 3153                               1090.4700
 3097                               1114.9000
 2885                               1087.1899
 3044                               1108.6400
 3562                               1090.2100
 3279                               1128.8600
 2721                               1082.3400
 1588                               1107.8800
 1017                               1111.6200
 102                                1115.7600
 1673                               1113.5000
 1407                               1093.8199
 1393                               1089.6200
 2111                               1125.6700
 2186                               1113.0900
 2305                               1084.7600
 438                                1126.6400
 2460                               1082.9900
 1760                               1129.1700
 3168                               1091.7100
 1127                               1120.1300
 1130                               1086.7200
 2177                               1104.2900
 3159                               1093.8199
 3148                               1085.6300
 2729                               1083.3199
 139                                1115.1801
 2259                               1088.3400
 1186                               1087.2200
 3137                               1091.3101
 3122                               1105.2500
 2858                               1090.0000
 138                                1115.2400
 51                                 1105.6300
 3102                               1111.1500
 1063                               1093.7600
 2992                               1080.0000
 1606                               1080.4200
 1605                               1080.9700
 1907                               1081.4900
 1908                               1081.6400
 1584                               1090.4000
 1582                               1091.6700
 2876                               1082.9900
 1562                               1101.6400
 2020                               1082.3400
 2025                               1082.7200
 3561                               1084.2000
 1387                               1105.8300
 1371                               1091.2300
 2723                               1088.5699
 3172                               1090.2500
 1102                               1111.4301
 2262                               1086.3500
 2378                               1086.1801
 142                                1135.4600
 297                                1103.3000
 2762                               1114.2300
 2470                               1085.2500
 76                                 1112.0500
 2459                               1083.4399
 2515                               1093.2200
 2434                               1091.8199
 3306                               1138.9100
 440                                1123.7100
 2418                               1083.5699
 3299                               1132.9800
 2277                               1130.8000
 713                                1071.3500
 441                                1125.7400
 1355                               1104.8900
 846                                1087.1200
 2374                               1090.3900
 977                                1099.2500
 2335                               1127.7500
 3198                               1083.3199
 864                                1081.8700
 816                                1096.3199
 1813                               1085.6000
 68                                 1088.0699
 2861                               1087.9700
 2868                               1087.8101
 1420                               1089.2400
 2479                               1133.2800
 155                                1138.9000
 153                                1140.4900
 2872                               1086.9200
 433                                1089.4700
 2432                               1085.0699
 3082                               1112.2000
 3083                               1111.3600
 2182                               1104.1400
 3132                               1089.2700
 3134                               1090.0000
 2735                               1131.3101
 2187                               1113.2300
 616                                1109.6700
 1132                               1088.8101
 3224                               1094.0800
 2258                               1087.9500
 1092                               1111.9200
 1049                               1138.2000
 2278                               1129.6700
 2281                               1128.6899
 863                                1081.2300
 2873                               1086.4900
 2317                               1076.3199
 2503                               1090.3900
 3537                               1129.9800
 77                                 1112.5200
 1731                               1076.8101
 1745                               1121.5100
 2888                               1090.0000
 2019                               1082.3800
 1756                               1130.7800
 45                                 1078.7200
 3054                               1109.6300
 2898                               1087.1100
 1883                               1120.6801
 3404                               1090.1899
 112                                1135.8300
 57                                 1111.3300
 3222                               1093.7700
 113                                1135.1400
 2549                               1135.2900
 2386                               1088.5200
 50                                 1105.8101
 741                                1129.2200
 3455                               1133.1000
 430                                1086.2700
 3236                               1093.9500
 3206                               1080.8300
 824                                1094.2600
 33                                 1103.4000
 2739                               1108.1400
 2567                               1091.3700
 2373                               1090.5900
 3411                               1134.8900
 27                                 1103.9100
 24                                 1098.3600
 2672                               1128.9301
 67                                 1089.9800
 659                                1135.3000
 3472                               1137.3900
 3245                               1090.4200
 2433                               1084.8400
 101                                1127.2600
 3480                               1108.1400
 97                                 1128.6899
 411                                1106.1100
 3289                               1126.5100
 3284                               1127.1200
 84                                 1130.4900
 3267                               1095.9500
 395                                1105.7000
 134                                1119.2800
 71                                 1088.4301
 2523                               1115.3500
 3471                               1137.0200
 586                                1136.2800
 3470                               1136.9900
 268                                1110.2300
 603                                1085.7100
 3469                               1136.8800
 945                                1082.6000
 3504                               1083.4000
 998                                1097.8600
 2714                               1111.5699
 949                                1084.5200
 3041                               1105.8600
 2972                               1120.7400
 1754                               1135.7400
 2869                               1088.2100
 3017                               1131.1000
 3029                               1098.4399
 3112                               1111.4000
 2859                               1091.4100
 1645                               1084.2200
 1639                               1103.3800
 1890                               1132.3101
 2174                               1090.2000
 2884                               1087.7200
 1                                  1144.0601
 2185                               1113.0900
 1365                               1081.6000
 2003                               1129.4700
 2045                               1071.5500
 1372                               1091.4800
 1510                               1107.2900
 1376                               1109.8800
 1377                               1109.7200
 3085                               1109.1200
 1386                               1107.3101
 2870                               1087.3500
 2867                               1082.6300
 1422                               1083.6600
 2889                               1091.9399
 1748                               1126.5000
 2855                               1088.7000
 2254                               1079.0800
 2303                               1089.3500
 2295                               1111.4700
 3182                               1084.9000
 1826                               1095.8500
 3180                               1087.6300
 1036                               1096.9800
 1044                               1099.3900
 1077                               1127.4600
 1856                               1106.7200
 3143                               1092.3600
 1114                               1134.2300
 1789                               1085.5100
 1093                               1113.6100
 1126                               1145.4700
 1134                               1144.0200
 2909                               1085.6300
 3145                               1090.1700
 1162                               1145.8101
 2904                               1092.2400
 1769                               1129.3500
 1143                               1119.0200
 3076                               1108.7000
 2901                               1089.5200
 1786                               1103.8900
 2899                               1086.4100
 2                                  1150.2600
 5                                  1147.0699
 8                                  1150.4000
 20                                 1083.7300
 22                                 1081.7800
 23                                 1098.8700
 26                                 1101.4700
 29                                 1105.9600
 31                                 1108.8300
 32                                 1098.8700
 34                                 1101.6400
 35                                 1107.9301
 38                                 1106.7700
 40                                 1107.7400
 41                                 1109.7100
 44                                 1080.4700
 46                                 1084.0000
 47                                 1076.8101
 48                                 1076.8101
 49                                 1078.7200
 52                                 1109.5800
 54                                 1111.8300
 55                                 1111.3800
 58                                 1089.7600
 61                                 1093.1200
 62                                 1097.2400
 64                                 1089.3000
 65                                 1089.3000
 66                                 1090.5200
 70                                 1088.4100
 73                                 1086.1400
 74                                 1117.0800
 78                                 1126.6000
 79                                 1126.2800
 87                                 1126.2800
 89                                 1118.5500
 90                                 1118.9000
 91                                 1118.9000
 92                                 1124.9600
 111                                1136.6200
 114                                1122.8800
 115                                1123.5699
 116                                1112.5000
 117                                1112.5000
 118                                1112.8000
 119                                1113.7100
 120                                1113.6300
 122                                1122.7700
 125                                1129.9700
 126                                1120.0601
 127                                1119.9800
 128                                1119.9301
 129                                1119.6801
 130                                1119.4600
 131                                1133.9600
 132                                1133.9600
 133                                1119.2800
 135                                1118.5699
 136                                1119.1300
 137                                1116.9900
 141                                1115.0400
 144                                1150.4700
 145                                1120.0601
 146                                1120.2100
 147                                1120.7900
 148                                1121.1899
 149                                1127.1300
 150                                1126.6700
 152                                1140.4700
 154                                1138.9600
 242                                1123.5100
 243                                1122.7000
 244                                1122.5300
 247                                1114.2500
 248                                1114.1200
 249                                1114.1200
 252                                1124.8199
 253                                1126.1899
 255                                1122.7000
 256                                1112.7300
 257                                1112.7300
 262                                1098.1400
 265                                1095.4000
 266                                1093.7900
 267                                1110.1000
 271                                1091.0400
 272                                1101.8600
 273                                1099.2800
 319                                1099.4800
 324                                1084.5601
 329                                1093.8199
 331                                1102.1801
 333                                1100.0000
 337                                1104.2000
 340                                1095.8400
 342                                1092.6500
 344                                1098.1801
 346                                1085.0500
 347                                1085.0500
 351                                1158.8000
 352                                1159.1700
 353                                1159.9100
 354                                1160.0000
 355                                1160.0000
 356                                1160.0000
 357                                1161.2700
 358                                1161.2700
 359                                1161.8101
 360                                1162.0699
 361                                1162.8700
 362                                1163.3800
 365                                1141.4500
 366                                1142.4000
 367                                1143.5699
 368                                1143.9301
 369                                1144.5100
 370                                1144.7500
 371                                1144.9700
 376                                1081.7800
 384                                1119.5500
 390                                1083.7300
 397                                1120.8300
 399                                1112.7300
 400                                1112.9100
 401                                1118.5500
 406                                1096.5200
 407                                1095.0400
 408                                1090.6899
 410                                1108.4700
 412                                1094.0800
 414                                1096.0601
 415                                1093.7100
 416                                1098.6500
 417                                1100.2100
 418                                1096.9600
 420                                1105.2800
 421                                1104.4399
 423                                1106.9900
 429                                1087.4399
 431                                1085.6700
 432                                1090.1899
 435                                1087.6000
 436                                1150.1300
 439                                1123.7100
 444                                1123.1300
 447                                1120.4200
 448                                1120.4200
 473                                1162.5500
 474                                1163.6500
 476                                1092.2500
 478                                1102.1300
 480                                1091.6300
 487                                1100.0900
 572                                1119.0200
 573                                1119.0200
 576                                1120.8300
 577                                1128.6801
 579                                1128.6899
 584                                1122.3700
 587                                1136.2800
 588                                1098.0200
 593                                1105.2400
 595                                1088.9600
 596                                1109.4100
 598                                1088.9399
 599                                1089.0900
 601                                1090.4500
 602                                1089.0900
 607                                1097.0400
 608                                1097.2600
 610                                1091.0699
 615                                1111.0000
 636                                1076.6300
 645                                1094.9600
 657                                1136.1500
 658                                1135.9500
 661                                1095.5900
 681                                1109.2200
 688                                1100.7000
 712                                1071.5500
 720                                1100.4200
 721                                1100.6400
 725                                1098.5000
 726                                1098.5000
 727                                1096.7900
 730                                1109.5400
 732                                1102.8600
 734                                1104.2700
 737                                1131.1400
 739                                1130.1100
 740                                1129.0300
 742                                1127.7100
 746                                1115.3199
 750                                1109.3900
 752                                1098.9500
 753                                1098.9500
 757                                1108.1600
 759                                1102.4600
 761                                1101.5800
 763                                1106.4399
 767                                1087.4399
 772                                1085.6700
 773                                1087.3000
 777                                1061.3101
 780                                1076.7400
 781                                1100.8400
 783                                1088.9600
 809                                1098.7300
 817                                1096.2200
 825                                1093.6500
 837                                1086.5000
 838                                1086.5000
 839                                1086.5000
 847                                1087.2600
 854                                1088.1000
 855                                1088.3700
 856                                1088.9399
 865                                1082.4800
 871                                1138.9600
 872                                1138.9600
 929                                1095.1200
 944                                1082.4800
 950                                1084.6400
 959                                1130.9600
 960                                1130.9600
 961                                1130.5699
 962                                1130.0000
 963                                1129.4900
 964                                1129.0601
 985                                1085.0500
 988                                1140.2900
 989                                1140.2200
 990                                1140.2200
 991                                1140.2800
 1019                               1109.9800
 1023                               1105.5500
 1025                               1113.7100
 1026                               1113.7100
 1033                               1103.7400
 1034                               1103.4000
 1037                               1108.6400
 1039                               1107.9500
 1040                               1107.9500
 1041                               1108.6400
 1045                               1099.3900
 1046                               1107.9500
 1047                               1107.9301
 1048                               1137.4500
 1050                               1131.4500
 1052                               1133.6100
 1053                               1133.8101
 1059                               1096.0200
 1060                               1095.8600
 1064                               1093.7600
 1065                               1093.6500
 1066                               1093.6500
 1073                               1131.4500
 1074                               1112.7300
 1075                               1098.6300
 1080                               1080.0000
 1081                               1080.0000
 1082                               1089.9399
 1087                               1150.7200
 1089                               1103.6100
 1094                               1113.6100
 1095                               1113.6100
 1097                               1129.9200
 1098                               1113.6300
 1101                               1111.4301
 1111                               1133.1300
 1112                               1133.1300
 1113                               1134.0601
 1115                               1135.5400
 1116                               1135.5400
 1122                               1099.9800
 1123                               1097.3700
 1124                               1101.7100
 1125                               1144.6899
 1128                               1115.3600
 1129                               1112.7600
 1131                               1088.8101
 1141                               1119.0200
 1142                               1118.8500
 1152                               1135.1400
 1155                               1134.3800
 1156                               1134.3800
 1158                               1111.2900
 1163                               1145.8101
 1164                               1145.8101
 1165                               1089.5800
 1166                               1089.5800
 1167                               1118.9100
 1168                               1115.5601
 1169                               1136.6200
 1170                               1120.1300
 1171                               1120.9900
 1173                               1127.1300
 1174                               1126.5000
 1175                               1126.5000
 1181                               1110.6700
 1182                               1110.9600
 1184                               1087.8199
 1185                               1087.4800
 1190                               1084.4200
 1198                               1129.3400
 1199                               1130.3600
 1200                               1129.2200
 1202                               1088.4800
 1203                               1085.3199
 1207                               1137.1600
 1208                               1137.1600
 1213                               1093.1899
 1216                               1095.1600
 1217                               1085.3800
 1219                               1086.0000
 1220                               1086.4100
 1221                               1086.6801
 1222                               1082.8900
 1223                               1082.6000
 1224                               1082.6000
 1225                               1097.7600
 1226                               1139.4399
 1227                               1139.4399
 1231                               1091.5000
 1232                               1094.5601
 1233                               1094.6801
 1236                               1132.9399
 1237                               1132.6000
 1238                               1129.0601
 1239                               1128.8700
 1240                               1132.3101
 1241                               1132.5000
 1243                               1100.0000
 1318                               1110.2000
 1319                               1110.0400
 1320                               1110.0400
 1321                               1076.0400
 1322                               1075.0000
 1323                               1074.6300
 1324                               1073.5800
 1325                               1073.4200
 1326                               1072.1300
 1327                               1070.8000
 1328                               1076.4000
 1329                               1076.4000
 1330                               1105.1600
 1331                               1102.3101
 1343                               1097.4900
 1351                               1106.1000
 1359                               1104.8900
 1362                               1084.5601
 1367                               1080.8800
 1370                               1089.3000
 1375                               1110.9600
 1378                               1089.8199
 1379                               1100.0000
 1383                               1110.9600
 1384                               1109.3000
 1388                               1103.9399
 1389                               1102.8700
 1391                               1101.3800
 1392                               1089.9800
 1396                               1092.0800
 1397                               1091.7100
 1398                               1092.9200
 1408                               1093.8199
 1409                               1093.7500
 1428                               1130.4700
 1469                               1118.4600
 1470                               1118.3199
 1471                               1118.6500
 1472                               1118.6500
 1474                               1118.3199
 1475                               1129.0800
 1476                               1128.8700
 1482                               1109.7200
 1483                               1089.5200
 1509                               1107.1500
 1513                               1096.5000
 1517                               1092.1000
 1550                               1082.2000
 1565                               1085.6500
 1580                               1092.0300
 1581                               1091.6700
 1587                               1089.0300
 1589                               1091.1300
 1590                               1099.0500
 1593                               1129.0400
 1594                               1129.1600
 1595                               1129.0000
 1607                               1080.0000
 1634                               1096.8000
 1637                               1101.9500
 1659                               1086.6801
 1660                               1132.6200
 1662                               1113.6899
 1663                               1114.1200
 1664                               1114.1200
 1667                               1112.8900
 1668                               1112.9100
 1669                               1113.0300
 1670                               1112.9200
 1671                               1112.9000
 1672                               1113.1100
 1675                               1113.6100
 1676                               1112.9700
 1677                               1112.8500
 1678                               1112.5601
 1689                               1085.1899
 1728                               1080.0000
 1730                               1076.8101
 1732                               1096.3400
 1737                               1132.2600
 1738                               1130.8199
 1741                               1132.8199
 1742                               1131.4800
 1743                               1131.4800
 1749                               1132.3199
 1751                               1133.6200
 1753                               1133.1700
 1757                               1136.4399
 1758                               1136.4399
 1759                               1129.1200
 1761                               1136.1500
 1762                               1136.4000
 1765                               1136.3700
 1766                               1136.3800
 1767                               1136.3800
 1768                               1129.1700
 1770                               1136.4000
 1772                               1136.3000
 1773                               1136.4301
 1774                               1136.2900
 1775                               1130.3600
 1776                               1130.1500
 1777                               1129.8500
 1779                               1130.8199
 1780                               1133.4700
 1781                               1135.0699
 1783                               1110.1899
 1784                               1110.1899
 1785                               1110.1899
 1787                               1101.5500
 1788                               1089.2100
 1790                               1086.0300
 1793                               1088.9399
 1794                               1083.4301
 1795                               1083.6700
 1796                               1083.6000
 1803                               1084.4399
 1804                               1084.6200
 1812                               1085.5100
 1814                               1085.5100
 1815                               1085.3800
 1817                               1078.2900
 1818                               1085.0500
 1071                               1108.3199
 1837                               1102.1300
 1845                               1140.7000
 1846                               1140.7100
 1858                               1111.0000
 1865                               1111.9200
 1870                               1085.6300
 1904                               1100.6400
 1912                               1082.2300
 1914                               1141.1500
 1993                               1089.3000
 1996                               1083.9900
 2000                               1065.0000
 2004                               1129.4700
 2005                               1129.6300
 2006                               1129.7800
 2007                               1129.5500
 2011                               1123.8400
 2012                               1123.8400
 2014                               1122.6100
 2015                               1123.8400
 2016                               1125.2300
 2017                               1129.0400
 2018                               1129.0400
 2027                               1082.8900
 2034                               1080.8500
 2035                               1080.6899
 2036                               1080.1100
 2037                               1080.0000
 2038                               1080.0000
 2039                               1087.5200
 2044                               1082.8700
 2046                               1065.6500
 2047                               1065.4399
 2048                               1065.4399
 2049                               1005.0000
 2050                                996.5700
 2051                               1010.8800
 2052                               1020.7400
 2053                               1031.4700
 2054                               1045.0000
 2055                               1127.3199
 2056                               1128.0699
 2057                               1128.6200
 2058                               1129.3800
 2059                               1129.9200
 2060                               1130.2600
 2061                               1130.4200
 2062                               1130.9100
 2063                               1131.6100
 2064                               1132.1300
 2065                               1132.6801
 2066                               1132.8700
 2067                               1133.2100
 2068                               1133.5601
 2069                               1134.1400
 2070                               1134.7200
 2071                               1135.0900
 2072                               1135.9700
 2097                               1107.6600
 2099                               1107.9900
 2101                               1110.0601
 2103                               1105.5601
 2106                               1109.5800
 2112                               1122.2500
 2119                               1109.7200
 2120                               1110.8500
 2129                               1105.9900
 2130                               1115.2900
 2131                               1115.4900
 2132                               1112.7900
 2133                               1115.1200
 2135                               1109.7200
 2141                               1089.3199
 2143                               1094.0300
 2148                               1095.7400
 2149                               1100.7000
 2150                               1094.4000
 2151                               1095.5900
 2152                               1091.7000
 2153                               1089.0699
 2154                               1103.0601
 2155                               1082.8400
 2156                               1093.7900
 2160                               1082.8400
 2161                               1082.3300
 2162                               1092.0300
 2164                               1093.2700
 2167                               1098.7000
 2175                               1090.2000
 2178                               1104.1400
 2179                               1103.9100
 2183                               1100.6400
 2213                               1128.0100
 2214                               1122.7000
 2215                               1122.7000
 2216                               1128.3800
 2217                               1127.4600
 2256                               1088.4399
 2257                               1088.7000
 2263                               1112.5000
 2264                               1111.8700
 2266                               1085.6100
 2267                               1084.8700
 2268                               1085.6801
 2269                               1080.6600
 2270                               1083.3101
 2271                               1083.0300
 2272                               1086.3700
 2273                               1105.9399
 2275                               1131.7200
 2276                               1131.0400
 2280                               1129.0601
 2283                               1128.8400
 2290                               1126.5500
 2296                               1128.0699
 2297                               1129.4000
 2300                               1091.0400
 2301                               1132.8199
 2302                               1132.8199
 2306                               1130.9600
 2309                               1055.1200
 2310                                991.7230
 2311                                987.9900
 2321                               1132.8400
 2322                               1132.1801
 2323                               1128.6400
 2325                               1131.7200
 2334                               1128.2500
 2340                               1132.6400
 2341                               1132.6400
 2369                               1088.7300
 2372                               1091.0200
 2380                               1084.4200
 2387                               1089.0300
 2423                               1119.6700
 2424                               1119.6700
 2438                               1089.5200
 2451                               1086.5000
 2452                               1086.2500
 2453                               1091.8700
 2455                               1085.6700
 2461                               1082.8700
 2462                               1089.8300
 2465                               1084.2200
 2471                               1091.0200
 2472                               1091.0200
 2500                               1099.7300
 2520                               1112.2000
 2521                               1088.9399
 2524                               1083.4301
 2525                               1093.7600
 2526                               1089.0300
 2533                               1140.4900
 2539                               1119.0500
 2540                               1119.2200
 2541                               1119.0200
 2544                               1128.7300
 2545                               1137.4500
 2546                               1134.5800
 2547                               1134.5699
 2550                               1135.5601
 2552                               1135.7500
 2553                               1135.8199
 2554                               1136.3300
 2569                               1145.8101
 2570                               1145.8101
 2576                               1162.5500
 2577                               1162.5500
 2626                               1111.4000
 2628                               1140.1700
 2631                               1140.1300
 2632                               1140.0400
 2633                               1140.1000
 2634                               1140.0000
 2635                               1140.0000
 2636                               1139.5300
 2637                               1139.3300
 2638                               1138.9100
 2639                               1138.8700
 2640                               1138.6600
 2641                               1138.7300
 2642                               1138.5300
 2643                               1138.2200
 2644                               1138.2400
 2645                               1137.9800
 2646                               1110.9600
 2647                               1136.6200
 2648                               1140.1700
 2649                               1140.2300
 2650                               1140.2900
 2651                               1140.2500
 2652                               1140.2000
 2657                               1110.9600
 2660                               1137.4399
 2666                               1082.8900
 2669                               1112.7200
 2670                               1113.1100
 2671                               1113.1899
 2674                               1128.8800
 PM.VRP.GAM.004                     1076.0400
 2678                               1143.9500
 2679                               1144.0601
 2680                               1115.2700
 2682                               1121.5200
 2683                               1121.5200
 2685                               1121.1700
 2686                               1121.1700
 2687                               1120.9800
 2688                               1121.2000
 2689                               1121.1700
 2690                               1121.1700
 2691                               1065.6500
 2692                               1065.6500
 2699                               1111.3900
 2700                               1111.4800
 2701                               1111.6600
 2703                               1111.8900
 2704                               1111.8900
 2705                               1111.6500
 2706                               1111.7000
 2707                               1111.3900
 2708                               1111.5400
 2709                               1111.7400
 2710                               1111.4399
 2711                               1111.5699
 PM.VRP.GAM.003                     1111.5699
 2716                               1112.5699
 2717                               1112.0900
 2718                               1065.6500
 2719                               1068.5400
 2720                               1068.5400
 2722                               1082.3400
 2727                               1085.1899
 2737                               1082.3400
 2738                               1106.8500
 2740                               1107.4900
 2741                               1106.8500
 2742                               1106.8500
 2743                               1106.8500
 2744                               1107.1100
 2745                               1107.1100
 2746                               1107.1100
 2747                               1107.1100
 2748                               1107.1100
 2749                               1107.1100
 2750                               1107.1100
 2751                               1107.1100
 2752                               1107.1100
 2753                               1106.8500
 2754                               1106.8500
 2755                               1106.8500
 2756                               1106.8500
 2757                               1106.8500
 2758                               1106.8500
 2759                               1106.8500
 2760                               1106.8500
 2763                               1115.1200
 PM1.DMC.GAM.004                    1115.2900
 2766                               1114.2300
 2767                               1115.1200
 2768                               1140.0699
 2769                               1113.1100
 2770                               1113.1100
 2771                               1114.1200
 2772                               1114.1200
 2773                               1114.1200
 2774                               1113.1100
 2853                               1088.7000
 2860                               1090.1700
 2877                               1089.2400
 2903                               1092.2400
 2905                               1091.8199
 2906                               1091.9399
 2907                               1091.4100
 2908                               1084.5000
 2910                               1093.7500
 2911                               1092.9200
 2912                               1091.7100
 2913                               1090.6400
 2914                               1090.2500
 2915                               1089.0601
 2916                               1089.0601
 2917                               1087.8700
 2918                               1087.6300
 2919                               1087.4600
 2920                               1089.2900
 2922                               1119.2800
 2924                               1111.3900
 2925                               1111.4900
 2929                               1162.5500
 2930                               1140.2900
 2931                               1140.2900
 PM.VRP.GAM.006                     1111.7000
 2939                                987.3970
 2940                                987.1600
 2941                                986.4260
 PM.VRP.GAM.005                      986.7150
 2943                                986.4020
 2944                                986.4020
 2945                                986.8030
 2946                                986.9690
 2947                                986.5140
 2948                               1076.0400
 2949                                986.7150
 2950                                986.8030
 2952                                986.8030
 2953                                986.8030
 2954                               1070.8300
 2955                               1069.7400
 2956                               1068.8400
 2957                               1067.9000
 2958                               1064.4399
 2959                               1064.0100
 2960                               1062.6300
 2961                               1060.5699
 2962                               1060.0000
 2963                               1057.0100
 2964                                987.3970
 2965                                986.9490
 2966                               1119.4000
 2967                               1119.4000
 2968                               1119.2300
 2969                               1119.2300
 2970                               1119.7400
 2971                               1120.1100
 2973                               1121.3700
 2974                               1121.4301
 2975                               1121.7200
 2976                               1121.8101
 2977                               1122.1899
 2981                               1139.6100
 2982                               1139.5500
 2984                               1139.4399
 2985                               1139.0699
 2986                               1082.7000
 2987                               1082.0400
 2988                               1081.5699
 2989                               1082.9200
 2990                               1080.0000
 2991                               1080.0000
 2993                               1081.7800
 2994                               1081.7800
 2995                               1081.7800
 2996                               1081.7800
 2997                               1081.7800
 2999                               1081.7800
 3000                               1081.7800
 3002                               1137.5699
 3003                               1138.5100
 3004                               1138.7400
 3005                               1138.8700
 3006                               1138.5100
 3007                               1136.6801
 3008                               1140.9000
 3009                               1141.1200
 3010                               1142.1600
 3011                               1142.6100
 3013                               1130.2200
 3014                               1130.0000
 3015                               1129.8500
 3016                               1130.4500
 3018                               1131.4301
 3019                               1131.2700
 3020                               1131.2700
 3021                               1131.2700
 3022                               1080.0000
 3023                               1085.3800
 3024                               1130.8199
 3025                               1130.6700
 3026                               1130.4600
 3027                               1130.2600
 3028                               1130.2600
 3033                               1101.7600
 3034                               1101.8500
 3040                               1105.6700
 3045                               1105.4399
 3049                               1107.9500
 3050                               1105.4399
 3058                               1107.5300
 3061                               1101.8500
 3062                               1103.2600
 3066                               1107.5300
 3067                               1107.5300
 3068                               1111.8900
 3072                               1108.2200
 3073                               1108.2200
 3074                               1108.2200
 3075                               1108.2200
 3081                               1112.2000
 3087                               1108.0400
 3088                               1108.0400
 3089                               1108.0400
 3094                               1111.1400
 3095                               1115.2900
 3096                               1115.2900
 3100                               1111.9000
 3103                               1111.1500
 3104                               1111.3300
 3106                               1111.9600
 3110                               1115.4900
 3111                               1115.2900
 3113                               1105.2500
 3114                               1098.4399
 3115                               1115.2900
 3116                               1115.4900
 3117                               1115.4900
 3118                               1115.4900
 3119                               1084.9100
 3121                               1107.3500
 3123                               1098.4399
 3124                               1111.1500
 3125                               1097.6500
 3126                               1102.1000
 3127                               1103.2600
 3128                               1103.2600
 3129                               1091.0200
 3130                               1091.0200
 3131                               1090.1700
 3138                               1089.3800
 3139                               1094.3300
 3141                               1100.0000
 3142                               1094.7900
 3144                               1092.1200
 3146                               1090.1700
 3147                               1085.6300
 3149                               1082.6300
 3150                               1080.9800
 3151                               1084.1600
 3152                               1082.9900
 3155                               1087.2900
 3156                               1080.9800
 3161                               1093.7500
 3191                               1080.0601
 3195                               1083.3199
 3196                               1083.3199
 3197                               1083.3199
 3199                               1084.2700
 3202                               1080.8300
 3203                               1080.8300
 3205                               1080.8300
 3207                               1085.8500
 3209                               1080.9800
 3210                               1080.9800
 3212                               1091.3101
 3213                               1091.6200
 3214                               1091.3101
 3215                               1091.9399
 3216                               1091.6200
 3217                               1091.3101
 3218                               1092.1200
 3223                               1093.6000
 3226                               1093.9800
 3227                               1093.9800
 3228                               1093.9800
 3229                               1093.2200
 3230                               1093.2200
 3233                               1093.2200
 3234                               1092.2400
 3235                               1093.9500
 3237                               1089.2100
 3238                               1089.4900
 3239                               1089.1200
 3241                               1090.2500
 3242                               1084.2700
 3243                               1077.9500
 3244                               1077.5800
 3250                               1092.9301
 3251                               1091.3101
 3252                               1091.3101
 3253                               1091.3101
 3263                               1123.2300
 3265                               1098.5800
 3266                               1097.0500
 3268                               1095.0000
 3269                               1094.5200
 3270                               1094.5200
 3271                               1094.2100
 3272                               1093.3500
 3273                               1093.3500
 3274                               1093.3500
 3275                               1093.3500
 3276                               1093.9100
 3277                               1093.3500
 3278                               1093.0100
 3281                               1082.2300
 3282                               1082.4100
 3283                               1127.6400
 3285                               1127.1100
 3286                               1126.8600
 3287                               1126.8600
 3288                               1126.8600
 3291                               1139.9000
 3292                               1140.1400
 3293                               1140.1400
 3294                               1140.5100
 3295                               1140.2800
 3296                               1139.4399
 3297                               1140.7000
 3300                               1135.0000
 3302                               1138.9600
 3303                               1138.8500
 3304                               1138.9600
 3305                               1138.9100
 3338                               1139.4301
 3339                               1139.9000
 3371                               1111.8700
 3372                               1121.5100
 3373                               1121.6600
 3376                               1112.0500
 3377                               1112.0500
 3378                               1112.0500
 3385                               1129.8500
 3386                               1130.2500
 3388                               1130.0100
 3389                               1129.6300
 3390                               1129.8500
 3398                               1115.0000
 3399                               1115.2400
 3402                               1092.2200
 3406                               1090.1899
 3407                               1126.1300
 3408                               1126.1300
 3414                               1099.3900
 3415                               1101.6400
 3416                               1057.0100
 3417                               1057.0100
 3418                               1056.1899
 3419                               1056.1899
 3450                               1132.8600
 3451                               1132.8600
 3452                               1131.7200
 3457                               1137.1600
 3458                               1137.4399
 3459                               1136.4000
 3461                               1136.5699
 3462                               1137.4700
 3463                               1137.9301
 3464                               1138.6801
 3465                               1139.4301
 3466                               1135.1400
 3467                               1135.1400
 3468                               1136.6200
 3475                               1130.1700
 3476                               1103.9399
 PM.VRP.GAM.018                     1103.9399
 3478                               1103.9399
 3481                               1140.7300
 3482                               1140.8700
 3483                               1141.3101
 3485                               1080.8500
 3489                               1145.4500
 3490                               1145.5601
 3491                               1150.5200
 3492                               1151.3600
 3493                               1152.0300
 3494                               1153.0100
 3497                               1111.3900
 3498                               1111.7500
 3499                               1112.3300
 3500                               1112.6899
 3501                               1113.5100
 3502                               1082.8900
 3507                               1145.8101
 3508                               1147.2700
 3509                               1147.6899
 3510                               1148.0800
 3511                               1148.4500
 3512                               1149.2100
 3513                               1149.5900
 3514                               1150.1300
 3515                               1154.2000
 3516                               1154.2000
 3517                               1154.6100
 3518                               1154.8500
 3519                               1155.0000
 3520                               1155.9500
 3521                               1155.7700
 3522                               1156.2500
 3523                               1155.7900
 3524                               1156.6200
 3525                               1156.8800
 3526                               1157.3300
 3527                               1157.4800
 3528                               1157.7900
 3529                               1157.9900
 3530                               1158.5100
 3538                               1113.8600
 3539                               1114.8000
 3540                               1115.1500
 3541                               1115.7100
 3542                               1116.6100
 3543                               1117.1600
 3544                               1117.5100
 3545                               1118.0200
 3546                               1118.3700
 3547                               1119.4000
 3548                               1119.8900
 3549                               1120.9200
 3550                               1121.3700
 3551                               1121.5699
 3552                               1122.6700
 3553                               1123.3700
 3554                               1124.2700
 3555                               1124.9600
 3556                               1125.5699
 3557                               1126.3400
 3558                               1126.9399
 3563                               1089.1899
 3564                               1153.4700
 3565                               1154.0400
 3566                               1154.2000
 3567                               1154.3700
 3568                               1154.5500
 3569                               1154.3500
 3570                               1162.5500
 3571                               1162.5500
 3576                               1107.9500

[RESERVOIRS]
 3589                               1165.0000                                

[TANKS]

[PIPES]
 1                               3168                            3169                                  6.3396      63.0000     140.0000       0.0000       
 2                               3167                            3168                                210.8516      63.0000     140.0000       0.0000       
 3                               3166                            3167                                  6.1379      63.0000     140.0000       0.0000       
 4                               3165                            1398                                  1.1679      63.0000     140.0000       0.0000       
 5                               3162                            3165                                  6.0825      63.0000     140.0000       0.0000       
 6                               3164                            3165                                210.6723      63.0000     140.0000       0.0000       
 7                               3163                            3164                                  6.9105      63.0000     140.0000       0.0000       
 8                               3162                            3163                                210.8615      63.0000     140.0000       0.0000       
 9                               3161                            1409                                  0.3631      63.0000     140.0000       0.0000       
 10                              3168                            1397                                  0.8594      63.0000     140.0000       0.0000       
 11                              3160                            3161                                  0.6217      63.0000     140.0000       0.0000       
 12                              3157                            3159                                211.6211      63.0000     140.0000       0.0000       
 13                              3157                            3158                                  6.5250      63.0000     140.0000       0.0000       
 14                              3155                            3156                                212.5770      63.0000     140.0000       0.0000       
 15                              69                              3154                                  3.8535      63.0000     140.0000       0.0000       
 16                              3153                            3154                                156.7607      63.0000     140.0000       0.0000       
 17                              3152                            3149                                 11.2006      63.0000     140.0000       0.0000       
 18                              2867                            3149                                  0.6709      63.0000     140.0000       0.0000       
 19                              3151                            3152                                 45.2365      63.0000     140.0000       0.0000       
 20                              2876                            3152                                  0.6907      63.0000     140.0000       0.0000       
 21                              3158                            3160                                211.8387      63.0000     140.0000       0.0000       
 22                              3169                            3166                                210.4822      63.0000     140.0000       0.0000       
 23                              3170                            3171                                  5.9107      63.0000     140.0000       0.0000       
 24                              3171                            3172                                211.4158      63.0000     140.0000       0.0000       
 25                              3193                            3194                                346.1262      63.0000     140.0000       0.0000       
 26                              3192                            3193                                  6.8424      63.0000     140.0000       0.0000       
 27                              3190                            3191                                346.8795      63.0000     140.0000       0.0000       
 28                              3185                            3190                                 50.8652      63.0000     140.0000       0.0000       
 29                              3189                            3186                                 48.8282      63.0000     140.0000       0.0000       
 30                              3188                            3189                                336.0973      63.0000     140.0000       0.0000       
 31                              3186                            3187                                345.0737      63.0000     140.0000       0.0000       
 32                              3185                            3186                                  5.5877      63.0000     140.0000       0.0000       
 33                              3184                            3185                                344.9793      63.0000     140.0000       0.0000       
 34                              73                              3183                                  5.1351      63.0000     140.0000       0.0000       
 35                              3182                            3183                                213.0860      63.0000     140.0000       0.0000       
 36                              3181                            3178                                213.0797      63.0000     140.0000       0.0000       
 37                              3180                            2918                                  0.8431      63.0000     140.0000       0.0000       
 38                              3180                            3181                                  6.8106      63.0000     140.0000       0.0000       
 39                              3179                            3180                                213.1522      63.0000     140.0000       0.0000       
 40                              3178                            3179                                  5.7825      63.0000     140.0000       0.0000       
 41                              3176                            3177                                211.0263      63.0000     140.0000       0.0000       
 42                              3175                            2915                                  1.7799      63.0000     140.0000       0.0000       
 43                              3175                            3176                                  5.6503      63.0000     140.0000       0.0000       
 44                              3174                            3175                                211.0847      63.0000     140.0000       0.0000       
 45                              3173                            3170                                211.2743      63.0000     140.0000       0.0000       
 46                              2908                            3151                                  9.7839      63.0000     140.0000       0.0000       
 47                              3194                            3195                                  0.9186      63.0000     140.0000       0.0000       
 48                              1413                            3151                                  6.7157      63.0000     140.0000       0.0000       
 49                              3147                            3148                                  1.4301      63.0000     140.0000       0.0000       
 50                              3418                            3419                                  7.6432      63.0000     140.0000       0.0000       
 51                              3419                            2309                                  9.4284      63.0000     140.0000       0.0000       
 53                              3277                            3278                                  1.5000      63.0000     140.0000       0.0000       
 59                              3417                            3418                                  1.6037      63.0000     140.0000       0.0000       
 71                              3416                            3417                                  2.3455      63.0000     140.0000       0.0000       
 72                              2963                            3416                                  2.6850      63.0000     140.0000       0.0000       
 73                              3413                            2736                                  8.7001      85.0000     147.0000       0.0000       
 74                              2909                            3148                                  5.5219      63.0000     140.0000       0.0000       
 75                              3146                            3147                                205.6698     110.0000     140.0000       0.0000       
 76                              3145                            3146                                  0.4162     110.0000     140.0000       0.0000       
 77                              3143                            3144                                 42.6116     110.0000     140.0000       0.0000       
 78                              2903                            3143                                  2.5690      63.0000     140.0000       0.0000       
 81                              2219                            3142                                  6.4528      63.0000     140.0000       0.0000       
 82                              3140                            3142                                219.8161      63.0000     140.0000       0.0000       
 83                              3140                            3141                                109.2569     110.0000     140.0000       0.0000       
 84                              3139                            3140                                171.9084     110.0000     140.0000       0.0000       
 85                              3138                            3139                                111.0297     110.0000     140.0000       0.0000       
 86                              83                              3403                                  6.0000      85.0000     147.0000       0.0000       
 87                              3120                            2909                                 14.5330      60.0000     137.0000       0.0000       
 88                              3119                            3120                                 25.1422      60.0000     137.0000       0.0000       
 89                              2908                            3119                                  3.4389      60.0000     137.0000       0.0000       
 90                              1746                            3408                                 19.2000     200.0000     150.0000       0.0000       
 91                              3411                            3412                                 19.7404     300.0000     150.0000       0.0000       
 92                              1379                            2223                                  4.5000     150.0000     140.0000       0.0000       
 95                              3149                            3150                                 45.8257      63.0000     140.0000       0.0000       
 96                              3190                            3195                                  4.5742      63.0000     140.0000       0.0000       
 97                              3196                            3197                                  0.3671      63.0000     140.0000       0.0000       
 98                              3197                            3198                                  0.9406      63.0000     140.0000       0.0000       
 99                              3252                            3212                                  0.1400     110.0000     140.0000       0.0000       
 100                             3214                            3252                                  1.2215     110.0000     140.0000       0.0000       
 101                             3251                            3212                                  1.0197     110.0000     140.0000       0.0000       
 102                             3249                            3243                                  3.4899      63.0000     140.0000       0.0000       
 103                             3144                            3219                                  8.4013      63.0000     140.0000       0.0000       
 104                             3144                            3218                                  0.7554     110.0000     140.0000       0.0000       
 105                             3242                            3138                                100.5757     110.0000     140.0000       0.0000       
 106                             3177                            3174                                  6.2208      63.0000     140.0000       0.0000       
 107                             857                             3250                                  2.9008      63.0000     140.0000       0.0000       
 108                             3253                            3251                                  0.6166     100.0000     130.0000       0.0000       
 109                             3230                            2515                                  4.0600      63.0000     140.0000       0.0000       
 110                             3193                            3249                                  1.0220     110.0000     140.0000       0.0000       
 111                             3199                            3188                                  9.4937      63.0000     140.0000       0.0000       
 112                             3141                            2223                                  1.4555     110.0000     137.0000       0.0000       
 113                             3229                            3233                                  1.2484     110.0000     140.0000       0.0000       
 114                             3245                            3246                                  3.9110     100.0000     130.0000       0.0000       
 115                             3232                            3245                                  0.9998     100.0000     130.0000       0.0000       
 116                             3243                            3244                                  4.3900      63.0000     140.0000       0.0000       
 117                             3224                            3225                                  4.0014      63.0000     140.0000       0.0000       
 118                             3154                            3155                                  2.7429      63.0000     140.0000       0.0000       
 119                             3250                            3230                                  4.9855      63.0000     140.0000       0.0000       
 120                             3237                            3238                                  9.1974      60.0000     137.0000       0.0000       
 121                             3187                            3184                                  6.7952      63.0000     140.0000       0.0000       
 123                             1912                            3281                                  8.2194      60.0000     137.0000       0.0000       
 124                             3281                            3282                                 22.0174      60.0000     137.0000       0.0000       
 125                             3274                            3277                                  1.8444      63.0000     140.0000       0.0000       
 126                             3282                            2019                                 12.4632      60.0000     137.0000       0.0000       
 127                             3276                            3273                                  3.0000      63.0000     140.0000       0.0000       
 128                             1747                            3283                                 24.4032     200.0000     150.0000       0.0000       
 129                             3275                            3276                                  3.3035      63.0000     140.0000       0.0000       
 130                             3274                            3275                                  1.6000      63.0000     140.0000       0.0000       
 131                             3273                            3274                                  3.0000      63.0000     140.0000       0.0000       
 132                             3272                            3273                                  2.8653      63.0000     140.0000       0.0000       
 133                             3271                            3272                                 10.2351      63.0000     140.0000       0.0000       
 134                             3270                            3271                                  7.5886      63.0000     140.0000       0.0000       
 135                             3269                            3270                                  4.6972      63.0000     140.0000       0.0000       
 136                             3268                            3269                                 10.0464      63.0000     140.0000       0.0000       
 137                             3267                            3268                                 24.5010      63.0000     140.0000       0.0000       
 138                             3266                            3267                                 17.1635      63.0000     140.0000       0.0000       
 139                             3265                            3266                                 32.6918      63.0000     140.0000       0.0000       
 140                             2500                            3265                                 17.9610      63.0000     140.0000       0.0000       
 141                             3263                            3264                                 26.0000     200.0000     150.0000       0.0000       
 144                             3156                            3150                                  4.6586      63.0000     140.0000       0.0000       
 145                             3242                            3182                                  4.9042      63.0000     140.0000       0.0000       
 146                             3172                            2914                                  1.2059      63.0000     140.0000       0.0000       
 147                             3172                            3173                                  6.1512      63.0000     140.0000       0.0000       
 148                             3213                            3217                                 10.7077     110.0000     140.0000       0.0000       
 149                             3216                            3213                                  0.4853     110.0000     140.0000       0.0000       
 150                             3215                            3216                                 44.1730     110.0000     140.0000       0.0000       
 151                             3137                            3214                                  3.8254      63.0000     140.0000       0.0000       
 152                             2907                            3213                                  2.9128      63.0000     140.0000       0.0000       
 153                             3153                            3145                                  8.4784     110.0000     140.0000       0.0000       
 154                             3212                            3153                                 45.7367     110.0000     140.0000       0.0000       
 155                             2860                            3145                                  3.2100      63.0000     140.0000       0.0000       
 156                             3210                            3211                                  4.0362      63.0000     140.0000       0.0000       
 157                             3209                            3210                                  0.7614      63.0000     140.0000       0.0000       
 158                             3156                            3209                                  1.4031      63.0000     140.0000       0.0000       
 159                             3207                            3208                                  1.7665     100.0000     130.0000       0.0000       
 160                             3147                            3207                                  9.4633     110.0000     140.0000       0.0000       
 161                             3204                            3200                                 93.7843      63.0000     140.0000       0.0000       
 162                             3205                            3206                                  0.4659      63.0000     140.0000       0.0000       
 163                             3202                            3205                                  0.4275      63.0000     140.0000       0.0000       
 164                             3203                            3204                                  5.8880      63.0000     140.0000       0.0000       
 165                             3201                            3202                                 93.0764      63.0000     140.0000       0.0000       
 166                             3200                            3201                                  6.8204      63.0000     140.0000       0.0000       
 167                             3189                            3200                                 48.0056      63.0000     140.0000       0.0000       
 168                             3199                            3182                                  5.6107      63.0000     140.0000       0.0000       
 169                             3217                            3214                                  0.0475     110.0000     140.0000       0.0000       
 171                             2905                            3218                                  2.6306      63.0000     140.0000       0.0000       
 172                             3218                            3215                                 11.7248     110.0000     140.0000       0.0000       
 173                             3239                            3240                                  0.5313      60.0000     137.0000       0.0000       
 174                             3238                            3239                                  0.8196      60.0000     137.0000       0.0000       
 175                             3138                            3237                                 13.8241      63.0000     140.0000       0.0000       
 176                             3235                            3236                                  1.1076     100.0000     130.0000       0.0000       
 177                             3139                            3235                                  3.9483     110.0000     140.0000       0.0000       
 178                             3143                            3234                                  8.7839     110.0000     140.0000       0.0000       
 179                             3233                            3234                                 41.2928     110.0000     140.0000       0.0000       
 182                             3231                            3232                                175.4359     110.0000     140.0000       0.0000       
 183                             3230                            3231                                  3.0304     110.0000     140.0000       0.0000       
 184                             3229                            3230                                  1.8489     110.0000     140.0000       0.0000       
 185                             3228                            3224                                  6.4887      63.0000     140.0000       0.0000       
 186                             3227                            3228                                  3.9625      63.0000     140.0000       0.0000       
 187                             3225                            3226                                  6.4925      63.0000     140.0000       0.0000       
 188                             3223                            3224                                 23.6844      63.0000     140.0000       0.0000       
 189                             3222                            3223                                 14.0146      63.0000     140.0000       0.0000       
 190                             3221                            3222                                 22.2918      63.0000     140.0000       0.0000       
 191                             3220                            3221                                 42.4270      63.0000     140.0000       0.0000       
 192                             3219                            3220                                 10.9417      63.0000     140.0000       0.0000       
 193                             3159                            3160                                  6.4866      63.0000     140.0000       0.0000       
 194                             2906                            3215                                  2.8542      63.0000     140.0000       0.0000       
 196                             2544                            3280                                 15.0000     200.0000     150.0000       0.0000       
 197                             3001                            3007                                 19.3695      63.0000     150.0000       0.0000       
 198                             3002                            3003                                 46.0061      63.0000     150.0000       0.0000       
 199                             3004                            3005                                  2.6000      63.0000     150.0000       0.0000       
 200                             3005                            3006                                  2.4986      63.0000     150.0000       0.0000       
 201                             3006                            3003                                  2.6000      63.0000     150.0000       0.0000       
 203                             3007                            2339                                 11.9101      63.0000     150.0000       0.0000       
 204                             3018                            3019                                  2.7958      63.0000     150.0000       0.0000       
 205                             3013                            3014                                  6.9806      60.0000     147.0000       0.0000       
 206                             3014                            3015                                  4.1023      60.0000     147.0000       0.0000       
 207                             3016                            3017                                 35.3645     110.0000     150.0000       0.0000       
 209                             3017                            3018                                 19.2296      63.0000     150.0000       0.0000       
 210                             3020                            3021                                  2.7958      63.0000     150.0000       0.0000       
 211                             3021                            3018                                  1.5000      63.0000     150.0000       0.0000       
 212                             1779                            3024                                  0.4644      63.0000     150.0000       0.0000       
 213                             3025                            3026                                 43.2050      63.0000     150.0000       0.0000       
 214                             3026                            3027                                 34.6503      63.0000     150.0000       0.0000       
 215                             3027                            3028                                  0.5454      63.0000     150.0000       0.0000       
 216                             3003                            3004                                  2.4986      63.0000     150.0000       0.0000       
 217                             3028                            3016                                  3.5746      63.0000     150.0000       0.0000       
 218                             3024                            3025                                 10.2127      63.0000     150.0000       0.0000       
 219                             3202                            3203                                  0.6389      63.0000     140.0000       0.0000       
 220                             3019                            3020                                  1.5000      63.0000     150.0000       0.0000       
 221                             3001                            3002                                 25.5716      63.0000     150.0000       0.0000       
 222                             1775                            3013                                  3.0200      60.0000     147.0000       0.0000       
 235                             2382                            2986                                 19.5765      32.0000     140.0000       0.0000       
 239                             2986                            2987                                 21.6184      32.0000     140.0000       0.0000       
 243                             2987                            2988                                 18.2857      32.0000     140.0000       0.0000       
 258                             2971                            2972                                 17.5252      63.0000     150.0000       0.0000       
 266                             2970                            2971                                 19.2303      63.0000     150.0000       0.0000       
 267                             2966                            2970                                  9.3997      63.0000     150.0000       0.0000       
 268                             2968                            2969                                  2.1394      63.0000     150.0000       0.0000       
 269                             2967                            2968                                  2.8799      63.0000     150.0000       0.0000       
 270                             2966                            2967                                  2.2080      63.0000     150.0000       0.0000       
 271                             2972                            2973                                 23.7469      63.0000     150.0000       0.0000       
 313                             2973                            2974                                 10.1262      63.0000     150.0000       0.0000       
 331                             2974                            2975                                 29.7434      63.0000     150.0000       0.0000       
 332                             3082                            3083                                 30.9039      63.0000     140.0000       0.0000       
 333                             2976                            2977                                 15.9375      63.0000     150.0000       0.0000       
 334                             3063                            3064                                 52.7140      63.0000     140.0000       0.0000       
 335                             3053                            1783                                  5.0442      63.0000     140.0000       0.0000       
 336                             3092                            3093                                  4.4974      63.0000     140.0000       0.0000       
 337                             3093                            3094                                  3.8707      63.0000     140.0000       0.0000       
 338                             3095                            3096                                  0.3370      63.0000     140.0000       0.0000       
 339                             3096                            3097                                  2.4383      63.0000     140.0000       0.0000       
 340                             3097                            3098                                 39.8287      63.0000     140.0000       0.0000       
 341                             3098                            3099                                 57.9932      63.0000     140.0000       0.0000       
 342                             3099                            3100                                 19.3782      63.0000     140.0000       0.0000       
 343                             3100                            3101                                 21.8403      63.0000     140.0000       0.0000       
 344                             3101                            3102                                 69.3421      63.0000     140.0000       0.0000       
 345                             3102                            3103                                  0.4885      63.0000     140.0000       0.0000       
 346                             3102                            3104                                  4.3922      63.0000     140.0000       0.0000       
 347                             3104                            3105                                  9.3405      63.0000     140.0000       0.0000       
 348                             3044                            1037                                  1.7307      63.0000     140.0000       0.0000       
 349                             3105                            3106                                 16.8468      63.0000     140.0000       0.0000       
 350                             3035                            3062                                  0.4812      63.0000     140.0000       0.0000       
 351                             3045                            3050                                  0.3255      63.0000     140.0000       0.0000       
 352                             3034                            3061                                  0.4210      63.0000     140.0000       0.0000       
 353                             3106                            3107                                 15.3933      63.0000     140.0000       0.0000       
 354                             3060                            3057                                 32.4593      63.0000     140.0000       0.0000       
 355                             3107                            3108                                 31.6976      63.0000     140.0000       0.0000       
 356                             3108                            3109                                 48.7084      63.0000     140.0000       0.0000       
 357                             3064                            3065                                 25.0070      63.0000     140.0000       0.0000       
 358                             3109                            3110                                 22.7650      63.0000     140.0000       0.0000       
 359                             3065                            3066                                 30.6854      63.0000     140.0000       0.0000       
 360                             3091                            3092                                 40.0838      63.0000     140.0000       0.0000       
 361                             3083                            3084                                 66.0893      63.0000     140.0000       0.0000       
 362                             3081                            2520                                  2.6167      63.0000     140.0000       0.0000       
 363                             3080                            2716                                  1.4046      63.0000     140.0000       0.0000       
 364                             3084                            3085                                 39.8064      63.0000     140.0000       0.0000       
 365                             3078                            3079                                 71.0921      63.0000     140.0000       0.0000       
 366                             3077                            3078                                 27.2165      63.0000     140.0000       0.0000       
 367                             3076                            3077                                 20.1074      63.0000     140.0000       0.0000       
 368                             3073                            3076                                 67.1867      63.0000     140.0000       0.0000       
 369                             3074                            3075                                  0.7683      63.0000     140.0000       0.0000       
 370                             3073                            3074                                  0.7579      63.0000     140.0000       0.0000       
 371                             3072                            3073                                  2.7925      63.0000     140.0000       0.0000       
 372                             3071                            3072                                 13.5159      63.0000     140.0000       0.0000       
 373                             3070                            3071                                 43.6932      63.0000     140.0000       0.0000       
 374                             3069                            3070                                 80.7997      63.0000     140.0000       0.0000       
 375                             3068                            3069                                  7.5040      63.0000     140.0000       0.0000       
 376                             3068                            2717                                  1.2297      63.0000     140.0000       0.0000       
 377                             3085                            3086                                 68.1795      63.0000     140.0000       0.0000       
 378                             3063                            1320                                  5.9185      63.0000     140.0000       0.0000       
 379                             3086                            3087                                  0.8772      63.0000     140.0000       0.0000       
 380                             3086                            3089                                  4.5663      63.0000     140.0000       0.0000       
 381                             3089                            3090                                 48.6673      63.0000     140.0000       0.0000       
 382                             3090                            3091                                 48.1854      63.0000     140.0000       0.0000       
 383                             3066                            3067                                  1.2974      63.0000     140.0000       0.0000       
 384                             3066                            3058                                  0.3171      63.0000     140.0000       0.0000       
 385                             3094                            3112                                  2.4472      63.0000     140.0000       0.0000       
 386                             3050                            3113                                  0.8789      63.0000     140.0000       0.0000       
 387                             3114                            3039                                  0.3031      63.0000     140.0000       0.0000       
 388                             3046                            3047                                 34.1719      63.0000     140.0000       0.0000       
 389                             3045                            3046                                 25.9775      63.0000     140.0000       0.0000       
 390                             3043                            3044                                 53.6272      63.0000     140.0000       0.0000       
 391                             3042                            3043                                 35.1123      63.0000     140.0000       0.0000       
 392                             3041                            3042                                 15.7204      63.0000     140.0000       0.0000       
 393                             3040                            3041                                  6.8793      63.0000     140.0000       0.0000       
 394                             3039                            3038                                 71.7015      63.0000     140.0000       0.0000       
 395                             3037                            3038                                 51.8003      63.0000     140.0000       0.0000       
 396                             3036                            3037                                 35.9319      63.0000     140.0000       0.0000       
 397                             3035                            3036                                 54.1337      63.0000     140.0000       0.0000       
 398                             3033                            3034                                  6.8195      63.0000     140.0000       0.0000       
 399                             3032                            3033                                  8.2716      63.0000     140.0000       0.0000       
 400                             3031                            3032                                 24.1582      63.0000     140.0000       0.0000       
 401                             3030                            3031                                 51.0158      63.0000     140.0000       0.0000       
 402                             3029                            3030                                 52.6383      63.0000     140.0000       0.0000       
 403                             3011                            3012                                 16.8929     125.0000     150.0000       0.0000       
 404                             3010                            3011                                 22.9097     125.0000     150.0000       0.0000       
 405                             3009                            3010                                 37.6803     125.0000     150.0000       0.0000       
 406                             3008                            3009                                 21.1660     125.0000     150.0000       0.0000       
 407                             3081                            3082                                  6.4781      63.0000     140.0000       0.0000       
 408                             2990                            2991                                  0.3716     100.0000     118.0000       0.0000       
 409                             2991                            2992                                  1.3419     100.0000     118.0000       0.0000       
 410                             2977                            254                                  13.9840      63.0000     150.0000       0.0000       
 411                             3047                            3048                                 43.2473      63.0000     140.0000       0.0000       
 412                             3048                            3049                                  4.3032      63.0000     140.0000       0.0000       
 413                             3050                            3051                                  7.0326      63.0000     140.0000       0.0000       
 414                             3040                            3052                                 35.0825      63.0000     140.0000       0.0000       
 415                             3029                            3039                                  0.0734      63.0000     140.0000       0.0000       
 416                             3059                            3060                                 30.8447      63.0000     140.0000       0.0000       
 417                             3095                            3115                                  0.4400      63.0000     140.0000       0.0000       
 418                             3115                            3111                                  0.0551      63.0000     140.0000       0.0000       
 419                             3110                            3117                                  0.4499      63.0000     140.0000       0.0000       
 420                             3117                            3118                                  0.0500      63.0000     140.0000       0.0000       
 421                             3112                            2626                                  0.0093      63.0000     140.0000       0.0000       
 422                             3058                            3059                                  6.3651      63.0000     140.0000       0.0000       
 423                             3056                            3057                                 32.0477      63.0000     140.0000       0.0000       
 424                             3055                            3056                                 52.0585      63.0000     140.0000       0.0000       
 425                             3067                            3121                                  1.0000      63.0000     140.0000       0.0000       
 426                             2975                            2976                                 26.2184      63.0000     150.0000       0.0000       
 427                             3113                            3122                                  1.0000      63.0000     140.0000       0.0000       
 428                             3114                            3123                                  1.0000      63.0000     140.0000       0.0000       
 429                             3103                            3124                                  1.0000      63.0000     140.0000       0.0000       
 430                             2448                            640                                  14.9051      85.0000     137.0000       0.0000       
 431                             18                              3125                                114.4831      60.0000     137.0000       0.0000       
 432                             3125                            1035                                  3.8061      60.0000     137.0000       0.0000       
 433                             2366                            3061                                 24.1300     110.0000     137.0000       0.0000       
 434                             3126                            3127                                 69.7082     110.0000     137.0000       0.0000       
 435                             3127                            3128                                  5.4628     110.0000     137.0000       0.0000       
 436                             3128                            1034                                 18.2315     110.0000     137.0000       0.0000       
 437                             3053                            3054                                 12.4012      63.0000     140.0000       0.0000       
 438                             3052                            3051                                 24.0065      63.0000     140.0000       0.0000       
 439                             3054                            3055                                 14.0686      63.0000     140.0000       0.0000       
 440                             3087                            3088                                  2.4559      63.0000     140.0000       0.0000       
 441                             3079                            3080                                 24.6719      63.0000     140.0000       0.0000       
 442                             3390                            1777                                  4.5171     110.0000     150.0000       0.0000       
 443                             1777                            3385                                  0.4769     110.0000     150.0000       0.0000       
 444                             3389                            3390                                  5.6363     110.0000     150.0000       0.0000       
 445                             2005                            3389                                  0.8590     110.0000     150.0000       0.0000       
 447                             3387                            3388                                  6.6848      63.0000     150.0000       0.0000       
 448                             3386                            3387                                  3.6060      63.0000     150.0000       0.0000       
 449                             3385                            3386                                  6.7033      63.0000     150.0000       0.0000       
 460                             3049                            3576                                  3.0776      63.0000     140.0000       0.0000       
 462                             3061                            3126                                  4.0249     110.0000     137.0000       0.0000       
 467                             2969                            2966                                  2.9985      63.0000     150.0000       0.0000       
 468                             76                              3375                                 12.0001      32.0000     150.0000       0.0000       
 470                             2764                            PM1.DMC.GAM.004                       4.6754     110.0000     137.0000       0.0000       
 471                             400                             3371                                 32.3144     100.0000     147.0000       0.0000       
 472                             PM1.DMC.GAM.004                 2766                                 30.2373     110.0000     137.0000       0.0000       
 473                             2763                            2133                                  0.3802     110.0000     137.0000       0.0000       
 474                             2766                            2762                                  1.4063     110.0000     137.0000       0.0000       
 475                             2763                            2764                                  0.6372     110.0000     137.0000       0.0000       
 477                             2982                            2983                                  2.2057     100.0000      98.0000       0.0000       
 478                             3284                            3285                                 28.3696      20.0000     147.0000       0.0000       
 479                             101                             3284                                  9.3116      20.0000     147.0000       0.0000       
 480                             3285                            3286                                 43.7022      20.0000     147.0000       0.0000       
 481                             3286                            3287                                  0.5893      20.0000     147.0000       0.0000       
 482                             3287                            3288                                  0.5033      20.0000     147.0000       0.0000       
 483                             3288                            3289                                 17.3185      20.0000     147.0000       0.0000       
 484                             3289                            3290                                 20.4273      20.0000     147.0000       0.0000       
 485                             2768                            2981                                 98.1792     100.0000      98.0000       0.0000       
 486                             2983                            426                                  62.3637     100.0000      98.0000       0.0000       
 487                             2981                            2982                                 38.1895     100.0000      98.0000       0.0000       
 488                             2984                            2985                                  5.5574     100.0000      98.0000       0.0000       
 489                             2982                            2984                                  5.0598     100.0000      98.0000       0.0000       
 508                             2740                            2741                                 16.4231      60.0000     132.0000       0.0000       
 509                             2739                            2740                                 24.9506      60.0000     132.0000       0.0000       
 510                             2501                            2738                                 31.2000      60.0000     132.0000       0.0000       
 520                             2741                            2742                                  0.2956      60.0000     132.0000       0.0000       
 562                             2742                            2743                                  0.2956      60.0000     132.0000       0.0000       
 563                             2759                            2760                                  0.2956      60.0000     132.0000       0.0000       
 564                             2744                            2745                                  0.2956      60.0000     132.0000       0.0000       
 601                             1198                            1199                                 30.8723     100.0000      72.0000       0.0000       
 602                             1200                            1198                                105.5589     100.0000      72.0000       0.0000       
 611                             2760                            2738                                  0.2956      60.0000     132.0000       0.0000       
 613                             2758                            2759                                  0.2956      60.0000     132.0000       0.0000       
 614                             2757                            2758                                  0.2956      60.0000     132.0000       0.0000       
 615                             2756                            2757                                  0.2956      60.0000     132.0000       0.0000       
 616                             2755                            2756                                  0.2956      60.0000     132.0000       0.0000       
 618                             2754                            2755                                  0.2956      60.0000     132.0000       0.0000       
 619                             2752                            2753                                  0.2956      60.0000     132.0000       0.0000       
 620                             2751                            2752                                  0.2956      60.0000     132.0000       0.0000       
 621                             2750                            2751                                  0.2956      60.0000     132.0000       0.0000       
 622                             2749                            2750                                  0.2956      60.0000     132.0000       0.0000       
 623                             2748                            2749                                  0.2956      60.0000     132.0000       0.0000       
 624                             2747                            2748                                  0.2956      60.0000     132.0000       0.0000       
 625                             2746                            2747                                  0.2956      60.0000     132.0000       0.0000       
 626                             2745                            2746                                  0.2956      60.0000     132.0000       0.0000       
 627                             2753                            2754                                  0.2956      60.0000     132.0000       0.0000       
 650                             2743                            2744                                  0.2956      60.0000     132.0000       0.0000       
 846                             1097                            1199                                104.2467     100.0000      72.0000       0.0000       
 942                             1857                            2739                                  0.6263      60.0000     132.0000       0.0000       
 1056                            415                             2467                                  3.2470      85.0000     132.0000       0.0000       
 1061                            1183                            2462                                 77.6373      85.0000     132.0000       0.0000       
 1062                            2461                            2044                                  5.4288      85.0000     132.0000       0.0000       
 1063                            2460                            2461                                 10.2142      85.0000     132.0000       0.0000       
 1065                            2459                            2460                                 25.6950      85.0000     132.0000       0.0000       
 1066                            2458                            2459                                 17.4916      85.0000     132.0000       0.0000       
 1067                            2457                            2458                                 21.3366      85.0000     132.0000       0.0000       
 1068                            2272                            831                                   3.7186      60.0000     132.0000       0.0000       
 1070                            58                              2438                                  3.5476      85.0000     132.0000       0.0000       
 1071                            2270                            2421                                  4.1799      60.0000     132.0000       0.0000       
 1072                            1362                            2465                                  3.7449      60.0000     132.0000       0.0000       
 1073                            2456                            2457                                 26.4973      85.0000     132.0000       0.0000       
 1074                            1343                            663                                   4.6224      85.0000     132.0000       0.0000       
 1076                            1123                            664                                   3.7135      85.0000     132.0000       0.0000       
 1077                            2287                            2466                                  3.0155      85.0000     142.0000       0.0000       
 1080                            2468                            2469                                174.3419      60.0000     132.0000       0.0000       
 1081                            19                              2250                                 88.2256      60.0000     132.0000       0.0000       
 1083                            487                             2429                                 41.1572     100.0000     132.0000       0.0000       
 1085                            1357                            2261                                 62.9048      60.0000     132.0000       0.0000       
 1086                            2381                            2382                                 10.1696      85.0000     132.0000       0.0000       
 1087                            1640                            1636                                178.2632      60.0000     132.0000       0.0000       
 1088                            2286                            2440                                  3.0958      85.0000     142.0000       0.0000       
 1089                            2375                            2376                                 33.6988      60.0000     132.0000       0.0000       
 1090                            2162                            2453                                  2.0529      85.0000     132.0000       0.0000       
 1092                            1080                            1607                                  1.1246      85.0000     132.0000       0.0000       
 1093                            2376                            2377                                 24.9857      60.0000     132.0000       0.0000       
 1094                            2377                            2378                                 18.8366      60.0000     132.0000       0.0000       
 1095                            2451                            2452                                  5.9752      85.0000     132.0000       0.0000       
 1096                            1221                            2451                                  5.5568      85.0000     132.0000       0.0000       
 1097                            1402                            327                                  85.8925      85.0000     132.0000       0.0000       
 1098                            1136                            105                                  54.7410      85.0000     142.0000       0.0000       
 1099                            2378                            2379                                 22.1117      60.0000     132.0000       0.0000       
 1100                            2379                            390                                  11.4328      60.0000     132.0000       0.0000       
 1101                            1190                            2380                                  5.1224      85.0000     132.0000       0.0000       
 1102                            2380                            2381                                 40.0168      85.0000     132.0000       0.0000       
 1103                            2039                            2450                                  3.1061      60.0000     132.0000       0.0000       
 1104                            1828                            2448                                190.4178      85.0000     132.0000       0.0000       
 1105                            286                             2123                                333.2006      60.0000     132.0000       0.0000       
 1106                            1216                            2307                                 40.6870     100.0000     132.0000       0.0000       
 1108                            1588                            2253                                 53.8819      85.0000     132.0000       0.0000       
 1109                            1124                            2441                                  3.7165      85.0000     132.0000       0.0000       
 1110                            2455                            2456                                 11.4957      85.0000     132.0000       0.0000       
 1111                            480                             2442                                  4.0342      85.0000     132.0000       0.0000       
 1112                            1364                            2443                                394.4900      60.0000     132.0000       0.0000       
 1114                            334                             320                                 398.0215      85.0000     132.0000       0.0000       
 1116                            1330                            795                                   3.5146      60.0000     132.0000       0.0000       
 1117                            1827                            2454                                190.1865      85.0000     132.0000       0.0000       
 1118                            2385                            2386                                 26.9359      85.0000     132.0000       0.0000       
 1119                            2384                            2385                                 24.2715      85.0000     132.0000       0.0000       
 1120                            2383                            2384                                 24.2949      85.0000     132.0000       0.0000       
 1121                            2374                            2375                                 18.5649      60.0000     132.0000       0.0000       
 1122                            1829                            1830                                397.5412      60.0000     132.0000       0.0000       
 1123                            1564                            2383                                 27.3406      85.0000     132.0000       0.0000       
 1124                            2254                            2255                                 79.6047      60.0000     132.0000       0.0000       
 1125                            2273                            2274                                 18.5222     100.0000     132.0000       0.0000       
 1126                            1368                            1646                                401.6163      60.0000     132.0000       0.0000       
 1127                            PM1.DMC.GAM.003                 1071                                 73.7542     150.0000     135.0000       0.0000       
 1128                            2314                            2316                                181.9206      60.0000     132.0000       0.0000       
 1129                            1731                            2317                                  3.0637      60.0000     132.0000       0.0000       
 1132                            1834                            2318                                  2.8196      85.0000     132.0000       0.0000       
 1134                            2321                            2322                                 21.6476     110.0000     142.0000       0.0000       
 1135                            2322                            2275                                 14.9433     110.0000     142.0000       0.0000       
 1136                            1239                            2323                                 12.0831      60.0000     142.0000       0.0000       
 1137                            1742                            959                                  16.5999     300.0000      76.0000       0.0000       
 1138                            2323                            2324                                  9.2436      60.0000     142.0000       0.0000       
 1139                            1816                            1839                                 78.2344      85.0000     132.0000       0.0000       
 1140                            2275                            2325                                  5.8191     110.0000     142.0000       0.0000       
 1143                            1839                            2305                                 91.0980      85.0000     132.0000       0.0000       
 1145                            1515                            803                                 175.2335      60.0000     132.0000       0.0000       
 1149                            2316                            2315                                 82.6278      60.0000     132.0000       0.0000       
 1151                            2315                            2312                                179.5621      60.0000     132.0000       0.0000       
 1152                            2314                            2313                                 73.1084      60.0000     132.0000       0.0000       
 1157                            43                              713                                   5.1918      85.0000     132.0000       0.0000       
 1158                            1822                            1824                                113.8453      85.0000     132.0000       0.0000       
 1160                            2366                            2367                                179.7084      60.0000     132.0000       0.0000       
 1161                            2147                            2308                                 77.1309      60.0000     132.0000       0.0000       
 1162                            2367                            2343                                 78.4688      60.0000     132.0000       0.0000       
 1163                            604                             2039                                 55.0379      85.0000     132.0000       0.0000       
 1164                            2307                            1213                                 40.1603      85.0000     132.0000       0.0000       
 1165                            19                              2368                                183.0173      60.0000     132.0000       0.0000       
 1166                            2369                            1233                                181.2557      60.0000     132.0000       0.0000       
 1167                            2368                            2370                                 75.9219      60.0000     132.0000       0.0000       
 1169                            998                             2151                                 87.8337      85.0000     132.0000       0.0000       
 1170                            2312                            2045                                 88.2387      60.0000     132.0000       0.0000       
 1171                            959                             2306                                  2.4718     200.0000      71.0000       0.0000       
 1172                            2313                            2312                                  8.8854      60.0000     132.0000       0.0000       
 1173                            2371                            1234                                182.3711      60.0000     132.0000       0.0000       
 1174                            2369                            2371                                 18.3985      60.0000     132.0000       0.0000       
 1175                            2149                            688                                   4.0575      60.0000     132.0000       0.0000       
 1176                            263                             2304                                 83.1108      60.0000     132.0000       0.0000       
 1179                            724                             1372                                  4.4945      85.0000     132.0000       0.0000       
 1181                            1563                            393                                 384.6522      60.0000     132.0000       0.0000       
 1184                            1821                            2467                                114.4725      85.0000     132.0000       0.0000       
 1187                            2471                            2472                                  0.9897      60.0000     132.0000       0.0000       
 1189                            2466                            1479                                191.0312      85.0000     142.0000       0.0000       
 1191                            2470                            604                                  14.8247      85.0000     132.0000       0.0000       
 1192                            1366                            1999                                319.7619      60.0000     132.0000       0.0000       
 1193                            1371                            2260                                  2.6507      85.0000     132.0000       0.0000       
 1194                            345                             1512                                399.5598      85.0000     132.0000       0.0000       
 1195                            330                             2136                                400.4601      60.0000     132.0000       0.0000       
 1196                            1999                            2255                                 85.9427      60.0000     132.0000       0.0000       
 1197                            2372                            2373                                 20.8395      60.0000     132.0000       0.0000       
 1198                            2373                            2374                                 26.4293      60.0000     132.0000       0.0000       
 1202                            339                             782                                 395.5685      85.0000     132.0000       0.0000       
 1203                            2304                            978                                 112.6004      60.0000     132.0000       0.0000       
 1204                            1825                            2142                                397.0959      85.0000     132.0000       0.0000       
 1205                            1246                            2303                                  3.7834      75.0000     125.0000       0.0000       
 1206                            1741                            2302                                  1.0640      50.0000      67.0000       0.0000       
 1207                            1740                            2301                                  1.1790     100.0000      67.0000       0.0000       
 1209                            2213                            1739                                  3.6677     100.0000      67.0000       0.0000       
 1215                            758                             1342                                182.6384      60.0000     132.0000       0.0000       
 1216                            2478                            2479                                 49.6452     110.0000     142.0000       0.0000       
 1217                            2477                            1484                                172.2251      60.0000     132.0000       0.0000       
 1219                            738                             2476                                211.5482      85.0000     142.0000       0.0000       
 1221                            2475                            263                                  53.5520      60.0000     132.0000       0.0000       
 1226                            2440                            2113                                187.0377      85.0000     142.0000       0.0000       
 1229                            1635                            2224                                114.1896      60.0000     132.0000       0.0000       
 1230                            2421                            1464                                171.9730      60.0000     132.0000       0.0000       
 1232                            644                             1108                                 57.8695      85.0000     142.0000       0.0000       
 1233                            416                             2420                                  3.9502      85.0000     132.0000       0.0000       
 1234                            135                             1599                                  3.1532      85.0000     142.0000       0.0000       
 1237                            1109                            2419                                209.2002      85.0000     142.0000       0.0000       
 1240                            1550                            2418                                 25.6015      85.0000     132.0000       0.0000       
 1242                            760                             762                                 109.6613      60.0000     132.0000       0.0000       
 1243                            2339                            958                                  67.1206      85.0000     142.0000       0.0000       
 1249                            2418                            1564                                 34.7816      85.0000     132.0000       0.0000       
 1253                            2287                            2286                                 65.6784      85.0000     142.0000       0.0000       
 1254                            2286                            2111                                 55.0175      85.0000     142.0000       0.0000       
 1255                            2338                            1735                                117.9520      85.0000     142.0000       0.0000       
 1256                            2111                            1477                                 53.4259      85.0000     142.0000       0.0000       
 1257                            1856                            1577                                  4.3093      60.0000     132.0000       0.0000       
 1258                            241                             2112                                 20.9654      85.0000     142.0000       0.0000       
 1259                            2112                            1478                                 62.3526      85.0000     142.0000       0.0000       
 1260                            2285                            52                                    8.4124      60.0000     132.0000       0.0000       
 1261                            651                             2284                                 55.5589      85.0000     142.0000       0.0000       
 1262                            2283                            740                                  15.2673     200.0000     145.0000       0.0000       
 1263                            2282                            2283                                 17.6745     200.0000     145.0000       0.0000       
 1264                            742                             2282                                 21.5479     200.0000     145.0000       0.0000       
 1267                            2263                            2264                                 15.5730     100.0000      67.0000       0.0000       
 1270                            2386                            2387                                 14.6135      85.0000     132.0000       0.0000       
 1275                            2288                            2287                                 46.9841      85.0000     142.0000       0.0000       
 1278                            1465                            1463                                 77.6870      85.0000     132.0000       0.0000       
 1279                            1465                            2267                                  2.1414      85.0000     132.0000       0.0000       
 1280                            1645                            2254                                 84.3164      60.0000     132.0000       0.0000       
 1281                            930                             323                                  68.4205      85.0000     132.0000       0.0000       
 1282                            323                             2268                                  2.6979      85.0000     132.0000       0.0000       
 1285                            1403                            1843                                 82.6079      60.0000     132.0000       0.0000       
 1286                            327                             2269                                  6.5282      75.0000     132.0000       0.0000       
 1287                            2173                            2265                                 77.0661      85.0000     132.0000       0.0000       
 1288                            1463                            1483                                 87.9790      85.0000     132.0000       0.0000       
 1289                            2284                            1766                                 46.1138      85.0000     142.0000       0.0000       
 1290                            2272                            2270                                 77.5708      85.0000     132.0000       0.0000       
 1291                            2280                            2281                                  8.6937     100.0000      67.0000       0.0000       
 1292                            2279                            2280                                 16.5204     100.0000      67.0000       0.0000       
 1293                            2278                            2279                                  9.3542     100.0000      67.0000       0.0000       
 1294                            2277                            2278                                 27.4797     100.0000      67.0000       0.0000       
 1295                            2276                            2277                                 14.0257     100.0000      67.0000       0.0000       
 1296                            2275                            2276                                 20.5525     100.0000      67.0000       0.0000       
 1297                            2102                            2273                                 29.3000     100.0000     132.0000       0.0000       
 1298                            2270                            2271                                  6.5541      85.0000     132.0000       0.0000       
 1299                            2265                            2266                                  4.2760      85.0000     132.0000       0.0000       
 1324                            2212                            2213                                 18.2300     200.0000      71.0000       0.0000       
 1325                            2212                            580                                  38.0603     200.0000      71.0000       0.0000       
 1326                            1481                            2288                                 91.9168      85.0000     142.0000       0.0000       
 1328                            1168                            105                                  56.1969      85.0000     142.0000       0.0000       
 1329                            2343                            2250                                179.9612      60.0000     132.0000       0.0000       
 1333                            2433                            1190                                 17.8614      85.0000     132.0000       0.0000       
 1334                            2432                            2433                                 29.1771      85.0000     132.0000       0.0000       
 1335                            1072                            2341                                 33.0482      85.0000     142.0000       0.0000       
 1336                            1819                            1826                                111.8987      85.0000     132.0000       0.0000       
 1337                            2340                            1778                                 53.5693      85.0000     142.0000       0.0000       
 1338                            271                             2300                                  3.8219      85.0000     132.0000       0.0000       
 1339                            601                             2143                                 88.4110      85.0000     132.0000       0.0000       
 1340                            2012                            115                                  80.3156     100.0000      67.0000       0.0000       
 1341                            2014                            2299                                  3.1372      50.0000      67.0000       0.0000       
 1342                            2011                            1120                                  3.8641     100.0000      67.0000       0.0000       
 1343                            2016                            574                                   3.5251      50.0000      67.0000       0.0000       
 1344                            386                             994                                  52.6907      85.0000     142.0000       0.0000       
 1345                            2285                            2124                                132.3274      60.0000     132.0000       0.0000       
 1346                            1565                            2432                                  3.2662      85.0000     132.0000       0.0000       
 1347                            1170                            447                                  24.9257     150.0000      69.0000       0.0000       
 1348                            1171                            1998                                 22.5254     200.0000      71.0000       0.0000       
 1349                            733                             1339                                177.4449      60.0000     132.0000       0.0000       
 1350                            2436                            341                                 400.1538      60.0000     132.0000       0.0000       
 1351                            2439                            1597                                189.5045      85.0000     142.0000       0.0000       
 1352                            1642                            1638                                174.4276      60.0000     132.0000       0.0000       
 1353                            2438                            1483                                  7.3533      85.0000     132.0000       0.0000       
 1359                            750                             1509                                 88.0050      85.0000     132.0000       0.0000       
 1370                            1531                            2437                                171.6033      60.0000     132.0000       0.0000       
 1371                            1350                            1337                                179.5108      60.0000     132.0000       0.0000       
 1372                            764                             2009                                178.4971      60.0000     132.0000       0.0000       
 1373                            2429                            588                                  39.8935     100.0000     132.0000       0.0000       
 1374                            2010                            756                                 175.9399      60.0000     132.0000       0.0000       
 1376                            90                              1744                                 69.2796     150.0000     145.0000       0.0000       
 1378                            386                             1136                                 56.7677      85.0000     142.0000       0.0000       
 1379                            2274                            405                                 131.8345      60.0000     132.0000       0.0000       
 1380                            396                             402                                 133.2818      60.0000     132.0000       0.0000       
 1382                            2423                            2424                                  1.5902      85.0000     142.0000       0.0000       
 1383                            2295                            2120                                 15.7580      60.0000     132.0000       0.0000       
 1385                            1373                            2262                                  2.6302      60.0000     132.0000       0.0000       
 1386                            116                             2263                                  0.3525     100.0000      67.0000       0.0000       
 1387                            488                             592                                 115.0076      60.0000     132.0000       0.0000       
 1388                            1513                            808                                   3.0396      60.0000     132.0000       0.0000       
 1389                            99                              2217                                  2.4370     100.0000      67.0000       0.0000       
 1390                            2212                            2216                                  2.4665     200.0000     135.0000       0.0000       
 1391                            2214                            2215                                  1.0823     200.0000     145.0000       0.0000       
 1392                            243                             2214                                  0.0102     200.0000     145.0000       0.0000       
 1393                            2292                            2291                                 55.9209      85.0000     142.0000       0.0000       
 1394                            2291                            1480                                 52.6528      85.0000     142.0000       0.0000       
 1395                            250                             2290                                  3.2220      85.0000     142.0000       0.0000       
 1396                            2289                            1474                                213.3305     100.0000     142.0000       0.0000       
 1397                            442                             437                                  16.5957     100.0000      67.0000       0.0000       
 1399                            2296                            2335                                 24.1149      60.0000     142.0000       0.0000       
 1404                            2261                            1647                                340.8640      60.0000     132.0000       0.0000       
 1405                            2128                            2126                                128.1535      60.0000     132.0000       0.0000       
 1406                            1639                            1637                                 86.1351      60.0000     132.0000       0.0000       
 1407                            2224                            2222                                 57.0473      60.0000     132.0000       0.0000       
 1408                            53                              1335                                132.7564      60.0000     132.0000       0.0000       
 1409                            2297                            2003                                  2.8443     100.0000      67.0000       0.0000       
 1410                            437                             2296                                 53.5526     100.0000      67.0000       0.0000       
 1411                            2222                            1842                                115.1377      60.0000     132.0000       0.0000       
 1412                            1997                            2173                                407.3174      60.0000     132.0000       0.0000       
 1413                            2222                            2223                                 48.7960      60.0000     132.0000       0.0000       
 1418                            1176                            1590                                 58.6322      60.0000     132.0000       0.0000       
 1419                            2218                            325                                  89.6251      60.0000     132.0000       0.0000       
 1420                            2296                            2334                                 24.2879      60.0000     142.0000       0.0000       
 1421                            1510                            765                                 169.9668      60.0000     132.0000       0.0000       
 1422                            1997                            623                                  79.3664      85.0000     132.0000       0.0000       
 1423                            1820                            2425                                396.9693      85.0000     132.0000       0.0000       
 1424                            1664                            248                                   1.5024     100.0000     142.0000       0.0000       
 1459                            2162                            1580                                  0.3853      85.0000     132.0000       0.0000       
 1460                            2387                            2526                                  0.2997      85.0000     132.0000       0.0000       
 1461                            3402                            2453                                 14.6236      85.0000     132.0000       0.0000       
 1462                            827                             3402                                  0.0110      85.0000     132.0000       0.0000       
 1463                            1732                            2498                                 21.8465      60.0000     132.0000       0.0000       
 1464                            1036                            1059                                 22.8834     150.0000     135.0000       0.0000       
 1465                            2166                            2167                                 20.2686     100.0000      57.0000       0.0000       
 1466                            1823                            752                                  10.9238     100.0000      57.0000       0.0000       
 1467                            3399                            138                                   0.7129     100.0000      67.0000       0.0000       
 1468                            3398                            3399                                 10.1383     100.0000      67.0000       0.0000       
 1475                            3377                            3378                                  0.5000     100.0000      67.0000       0.0000       
 1476                            3376                            3377                                  0.6999     100.0000      67.0000       0.0000       
 1477                            3375                            2627                                 43.5466      25.0000     142.0000       0.0000       
 1478                            584                             3374                                 26.3868     200.0000      71.0000       0.0000       
 1479                            1745                            3372                                  0.6637      60.0000     142.0000       0.0000       
 1480                            3372                            3373                                 10.5021      60.0000     142.0000       0.0000       
 1481                            256                             1074                                  0.7738     150.0000     145.0000       0.0000       
 1482                            256                             399                                   1.0204     100.0000      67.0000       0.0000       
 1490                            1237                            1737                                 13.0242     200.0000     145.0000       0.0000       
 1491                            1598                            1112                                  7.8575      85.0000     142.0000       0.0000       
 1492                            1053                            3298                                  0.1531     200.0000     145.0000       0.0000       
 1493                            1785                            1783                                  0.4565     200.0000     135.0000       0.0000       
 1494                            1129                            2520                                 24.0784     300.0000      66.0000       0.0000       
 1495                            2132                            2716                                 22.7348     250.0000      64.0000       0.0000       
 1496                            2717                            2704                                 23.6130     250.0000      64.0000       0.0000       
 1498                            2305                            985                                   5.2692      85.0000     132.0000       0.0000       
 1499                            1835                            346                                  30.3191     150.0000      59.0000       0.0000       
 1500                            1818                            2470                                  5.5115      85.0000     132.0000       0.0000       
 1501                            1815                            3023                                  0.5195     150.0000      59.0000       0.0000       
 1502                            270                             1221                                 27.1784     150.0000     135.0000       0.0000       
 1503                            1132                            598                                  14.3759     150.0000      59.0000       0.0000       
 1504                            1788                            598                                   6.6926     150.0000      59.0000       0.0000       
 1505                            599                             602                                   1.0366      85.0000     132.0000       0.0000       
 1506                            2038                            3022                                  4.3494      60.0000     132.0000       0.0000       
 1507                            2767                            3111                                 27.1507     300.0000      66.0000       0.0000       
 1508                            1905                            2034                                  1.6961      60.0000     132.0000       0.0000       
 1509                            152                             3008                                 10.2197     100.0000      67.0000       0.0000       
 1510                            1767                            2339                                 18.7032      85.0000     142.0000       0.0000       
 1511                            2999                            3000                                  2.4785      85.0000     132.0000       0.0000       
 1512                            376                             2999                                  1.0231      85.0000     132.0000       0.0000       
 1513                            2997                            2998                                  0.5020     100.0000      57.0000       0.0000       
 1514                            2996                            2997                                  0.4667     100.0000      57.0000       0.0000       
 1515                            2995                            2996                                  0.5501     100.0000      57.0000       0.0000       
 1516                            2994                            2995                                  0.3892     100.0000      57.0000       0.0000       
 1517                            2993                            2994                                  0.4680     100.0000      57.0000       0.0000       
 1518                            376                             2993                                  0.3696     100.0000      57.0000       0.0000       
 1519                            1080                            2990                                  1.1153     100.0000      57.0000       0.0000       
 1520                            2989                            865                                  21.5798      85.0000     132.0000       0.0000       
 1521                            2382                            2989                                  9.7921      85.0000     132.0000       0.0000       
 1523                            1659                            1130                                 13.2438     150.0000      59.0000       0.0000       
 1524                            3403                            96                                   15.8409      75.0000      67.0000       0.0000       
 1525                            2131                            3116                                  0.0149     300.0000      66.0000       0.0000       
 1526                            3111                            2130                                  0.0222     300.0000      66.0000       0.0000       
 1527                            1114                            957                                  10.9366      85.0000     142.0000       0.0000       
 1528                            2514                            1116                                 11.0101      85.0000     142.0000       0.0000       
 1529                            2419                            2545                                  7.7705      85.0000     142.0000       0.0000       
 1530                            2533                            3297                                  0.5501     200.0000     145.0000       0.0000       
 1531                            2213                            3283                                  9.9562     200.0000      71.0000       0.0000       
 1533                            3279                            3280                                 23.8378     200.0000     135.0000       0.0000       
 1534                            2443                            2254                                  9.0304      60.0000     132.0000       0.0000       
 1535                            3264                            584                                  18.5096     200.0000      71.0000       0.0000       
 1536                            585                             3263                                 10.0988     200.0000      71.0000       0.0000       
 1541                            3116                            1128                                 14.8911     300.0000      66.0000       0.0000       
 1547                            1637                            3247                                 11.2971      60.0000     132.0000       0.0000       
 1548                            3248                            3254                                 29.4434      60.0000     132.0000       0.0000       
 1549                            1393                            66                                   22.4902     150.0000      59.0000       0.0000 CLOSED
 1550                            1359                            1355                                  2.7473     150.0000      59.0000       0.0000       
 1551                            1357                            1356                                 10.1205     100.0000      57.0000       0.0000       
 1552                            3247                            3248                                120.3828      60.0000     132.0000       0.0000       
 1553                            2370                            2369                                  3.3300      60.0000     132.0000       0.0000       
 1554                            1019                            1318                                  3.0000     200.0000     135.0000       0.0000       
 1555                            3129                            3130                                  0.5182      60.0000     132.0000       0.0000       
 1556                            2626                            2646                                 26.3389     300.0000      66.0000       0.0000       
 1559                            1081                            1728                                  8.7251     100.0000      57.0000       0.0000       
 1560                            1690                            1689                                  4.3921     150.0000      59.0000       0.0000       
 1565                            3415                            1562                                  0.0108      60.0000     132.0000       0.0000       
 1566                            1222                            3502                                  0.3869      85.0000     132.0000       0.0000       
 1567                            3506                            1789                                 16.2071      85.0000     132.0000       0.0000       
 1568                            3505                            3506                                 24.2056      85.0000     132.0000       0.0000       
 1569                            3504                            3505                                 15.3714      85.0000     132.0000       0.0000       
 1570                            3503                            3504                                 19.2870      85.0000     132.0000       0.0000       
 1571                            3502                            3503                                  1.9017      85.0000     132.0000       0.0000       
 1572                            2922                            2423                                 15.9508     150.0000     145.0000       0.0000       
 1573                            2187                            2184                                  7.7593      85.0000     142.0000       0.0000       
 1574                            2627                            2187                                 19.3492      85.0000     142.0000       0.0000       
 1579                            3488                            3484                                 28.0814      85.0000     132.0000       0.0000       
 1580                            3487                            3488                                 12.8128      85.0000     132.0000       0.0000       
 1581                            3486                            3487                                 19.8404      85.0000     132.0000       0.0000       
 1582                            2524                            3486                                 16.9630      85.0000     132.0000       0.0000       
 1583                            3485                            1905                                  2.0339      85.0000     132.0000       0.0000       
 1584                            3484                            3485                                  2.2214      85.0000     132.0000       0.0000       
 1585                            141                             138                                   9.3613     100.0000      67.0000       0.0000       
 1586                            136                             2922                                 10.0742     150.0000     145.0000       0.0000       
 1587                            2119                            2285                                  1.4173      60.0000     132.0000       0.0000       
 1588                            616                             3480                                 77.5548      60.0000     132.0000       0.0000       
 1593                            2044                            2737                                 15.5389      75.0000      57.0000       0.0000       
 1594                            3502                            2666                                  0.1153      85.0000     132.0000       0.0000       
 1595                            1222                            3502                                  0.3869      85.0000     132.0000       0.0000       
 1597                            3563                            2526                                 10.8365      75.0000      57.0000       0.0000       
 1598                            3562                            3563                                 26.8647      75.0000      57.0000       0.0000       
 1599                            3130                            3562                                 21.4477      75.0000      57.0000       0.0000       
 1600                            3561                            2524                                 16.6283      85.0000     132.0000       0.0000       
 1601                            3560                            3561                                 15.9114      85.0000     132.0000       0.0000       
 1602                            3559                            3560                                 29.0790      85.0000     132.0000       0.0000       
 1603                            2452                            3559                                 26.1217      85.0000     132.0000       0.0000       
 1604                            347                             1217                                 20.0320     150.0000      59.0000       0.0000       
 1605                            1793                            2521                                  8.5472      85.0000     132.0000       0.0000       
 1607                            1017                            2715                                  3.7862     100.0000      57.0000       0.0000       
 1608                            1390                            3478                                  0.3001     100.0000      57.0000       0.0000       
 1609                            2423                            145                                  15.6481     150.0000     145.0000       0.0000       
 1610                            2698                            2704                                  3.3065     100.0000     132.0000       0.0000       
 1611                            3480                            1857                                  1.9632      60.0000     132.0000       0.0000       
 1612                            1748                            1174                                  2.1200     200.0000      71.0000       0.0000       
 1614                            3537                            1428                                 18.4250     200.0000     145.0000       0.0000       
 1615                            740                             3537                                 28.4632     200.0000     145.0000       0.0000       
 1616                            3376                            76                                    0.3656     100.0000      67.0000       0.0000       
 1617                            1044                            23                                   14.6823     150.0000     135.0000       0.0000       
 1618                            3374                            1745                                  0.7604     200.0000      71.0000       0.0000       
 1620                            1111                            1236                                  8.2843     100.0000      67.0000       0.0000       
 1621                            2341                            2338                                  3.5145      85.0000     142.0000       0.0000       
 1622                            1092                            3376                                 23.0693     100.0000      67.0000       0.0000       
 1623                            432                             3406                                  1.1424      85.0000     132.0000       0.0000       
 1624                            2706                            PM.VRP.GAM.006                        1.0954     250.0000      64.0000       0.0000       
 1626                            PM.VRP.GAM.018                  3476                                  0.3000     200.0000      61.0000       0.0000       
 1627                            3476                            1388                                  2.1508     200.0000      61.0000       0.0000       
 1635                            2696                            779                                  76.2116      60.0000     132.0000       0.0000       
 1636                            34                              3415                                  2.4079      60.0000     132.0000       0.0000       
 1637                            1212                            1044                                 15.6850     150.0000     135.0000       0.0000       
 1638                            251                             742                                  14.7517     200.0000     145.0000       0.0000       
 1639                            2476                            741                                  17.2624      85.0000     142.0000       0.0000       
 1640                            1429                            1072                                  9.2649     200.0000     145.0000       0.0000       
 1641                            620                             32                                   13.5761      60.0000     132.0000       0.0000       
 1643                            1045                            3414                                  0.2455     150.0000     135.0000       0.0000       
 1644                            3407                            3408                                  6.1453     200.0000      71.0000       0.0000       
 1645                            575                             1175                                  1.1138      50.0000      67.0000       0.0000       
 1646                            110                             3413                                 14.5543     100.0000      67.0000       0.0000       
 1647                            3412                            1155                                  8.9560     300.0000      76.0000       0.0000       
 1648                            1152                            3411                                  8.7665     300.0000      76.0000       0.0000       
 1651                            1174                            3407                                  8.6151     200.0000      71.0000       0.0000       
 1652                            2472                            3130                                  1.1750      75.0000      57.0000       0.0000       
 1653                            2472                            2372                                  1.3969      60.0000     132.0000       0.0000       
 1654                            2425                            773                                   1.4250      85.0000     132.0000       0.0000       
 1655                            3406                            3404                                  2.3928      85.0000     132.0000       0.0000       
 1656                            2462                            432                                   7.4099      85.0000     132.0000       0.0000       
 1657                            3404                            718                                  16.3450      85.0000     132.0000       0.0000       
 1658                            274                             1033                                 17.0016     200.0000     135.0000       0.0000       
 1661                            1239                            3279                                 15.8624     200.0000     135.0000       0.0000       
 1662                            3475                            3388                                  8.8376      50.0000      67.0000       0.0000       
 1663                            1756                            3475                                 21.1503      50.0000      67.0000       0.0000       
 1668                            108                             1153                                 41.6357      50.0000      67.0000       0.0000       
 1669                            3460                            1754                                 14.2702      50.0000      67.0000       0.0000       
 1670                            1758                            3460                                  9.1790      50.0000      67.0000       0.0000       
 1671                            1770                            3459                                  0.7117     100.0000      67.0000       0.0000       
 1672                            1169                            2557                                  5.4956     100.0000      67.0000       0.0000       
 1673                            113                             1152                                  1.5951     300.0000      76.0000       0.0000       
 1674                            1104                            132                                   8.8926      50.0000      67.0000       0.0000       
 1675                            660                             3455                                 45.9068      85.0000     142.0000       0.0000       
 1676                            2479                            2321                                 14.3281     110.0000     142.0000       0.0000       
 1677                            3456                            3453                                 18.1678      85.0000     142.0000       0.0000       
 1678                            3454                            1475                                 49.0094      85.0000     142.0000       0.0000       
 1679                            3453                            3454                                 37.8294      85.0000     142.0000       0.0000       
 1680                            1760                            2297                                 17.0046     100.0000      67.0000       0.0000       
 1681                            1760                            1768                                  0.6934     300.0000      76.0000       0.0000       
 1682                            1476                            577                                  26.6930     300.0000      76.0000       0.0000       
 1683                            1593                            2017                                  0.7175     100.0000      67.0000       0.0000       
 1684                            2281                            579                                   0.3180     100.0000      67.0000       0.0000       
 1685                            2325                            3452                                  0.5862     110.0000     142.0000       0.0000       
 1686                            3451                            2478                                 26.8351     110.0000     142.0000       0.0000       
 1687                            3450                            3451                                  3.9823     110.0000     142.0000       0.0000       
 1688                            2301                            3450                                 12.0562     110.0000     142.0000       0.0000       
 1689                            2559                            2302                                 13.5920      50.0000      67.0000       0.0000       
 1690                            1178                            1743                                  2.6654      50.0000      67.0000       0.0000       
 1691                            964                             1238                                  2.4248     300.0000     135.0000       0.0000       
 1692                            3455                            3456                                 23.0916      85.0000     142.0000       0.0000       
 1696                            1144                            2299                                228.1324      50.0000      67.0000       0.0000       
 1698                            1077                            99                                    4.3289     100.0000      67.0000       0.0000       
 1699                            2555                            2122                                 68.7361     150.0000      59.0000       0.0000       
 1700                            2554                            1761                                  6.9265     100.0000      67.0000       0.0000       
 1701                            2553                            2554                                 18.0686     100.0000      67.0000       0.0000       
 1702                            2552                            2553                                 11.2076     100.0000      67.0000       0.0000       
 1703                            2551                            2552                                 17.1588     100.0000      67.0000       0.0000       
 1704                            2550                            2551                                 12.9496     100.0000      67.0000       0.0000       
 1705                            2549                            2550                                 10.5653     100.0000      67.0000       0.0000       
 1706                            2548                            2549                                 22.4774     100.0000      67.0000       0.0000       
 1707                            2547                            2548                                 17.7598     100.0000      67.0000       0.0000       
 1708                            2546                            2547                                 22.1670     100.0000      67.0000       0.0000       
 1709                            1156                            2546                                  9.6218     100.0000      67.0000       0.0000       
 1710                            1076                            103                                 217.7855      75.0000      67.0000       0.0000       
 1711                            958                             643                                   3.2004      85.0000     142.0000       0.0000       
 1712                            1048                            2545                                  3.7325      85.0000     142.0000       0.0000       
 1713                            2284                            2439                                  2.8925      85.0000     142.0000       0.0000       
 1714                            2544                            2216                                 59.8578     200.0000     135.0000       0.0000       
 1715                            2420                            2543                                192.7585      85.0000     132.0000       0.0000       
 1717                            2540                            2541                                 16.6359      75.0000      67.0000       0.0000       
 1718                            2539                            2540                                  8.7152      75.0000      67.0000       0.0000       
 1725                            2557                            445                                 181.3556     100.0000      67.0000       0.0000       
 1727                            581                             95                                  166.3902      50.0000      67.0000       0.0000       
 1736                            2569                            1215                                 17.9125     150.0000      69.0000       0.0000       
 1737                            2569                            2570                                  0.8601     100.0000      67.0000       0.0000       
 1738                            1914                            2568                                 92.1801     100.0000      67.0000       0.0000       
 1739                            1088                            2566                                106.2618     150.0000      69.0000       0.0000       
 1740                            1197                            2566                                112.5658     250.0000      74.0000       0.0000       
 1741                            1731                            2313                                111.1670      50.0000      57.0000       0.0000       
 1742                            2567                            432                                  32.0344     150.0000      59.0000       0.0000       
 1744                            2162                            2567                                 22.3473     150.0000      59.0000       0.0000       
 1749                            2558                            2559                                182.6653      50.0000      67.0000       0.0000       
 1751                            2132                            56                                    5.8138     200.0000      61.0000       0.0000       
 1752                            1128                            2555                                  5.1576     150.0000      59.0000       0.0000       
 1753                            1354                            285                                   4.2896      50.0000     132.0000       0.0000       
 1754                            2153                            2477                                  2.9979      60.0000     132.0000       0.0000       
 1755                            385                             1137                                186.1372      50.0000      67.0000       0.0000       
 1756                            1123                            1360                                  3.9434      85.0000     132.0000       0.0000       
 1757                            2015                            2013                                 28.1751     100.0000      67.0000       0.0000       
 1758                            1242                            326                                   5.2802      60.0000     132.0000       0.0000       
 1759                            2566                            1215                                108.2256     150.0000      69.0000       0.0000       
 1761                            153                             2533                                  0.7858     200.0000     145.0000       0.0000       
 1762                            244                             241                                   4.4366     150.0000     145.0000       0.0000       
 1763                            2521                            598                                   1.6119      85.0000     132.0000       0.0000       
 1764                            2520                            1864                                 27.6792     300.0000      66.0000       0.0000       
 1770                            771                             766                                 401.7755      60.0000     132.0000       0.0000       
 1771                            2265                            1614                                  3.6804      60.0000     132.0000       0.0000       
 1772                            1353                            2253                                  6.4240      85.0000     132.0000       0.0000       
 1773                            1122                            784                                   3.0423      85.0000     132.0000       0.0000       
 1774                            2516                            2304                                 53.7251      60.0000     132.0000       0.0000       
 1775                            2138                            2139                                109.0005      60.0000     132.0000       0.0000       
 1776                            325                             2515                                 74.6848      60.0000     132.0000       0.0000       
 1777                            2522                            747                                 213.6766      85.0000     142.0000       0.0000       
 1778                            929                             2436                                  3.3224      60.0000     132.0000       0.0000       
 1779                            324                             1362                                  4.0396      85.0000     132.0000       0.0000       
 1780                            2465                            1645                                  3.1543      85.0000     132.0000       0.0000       
 1781                            610                             1589                                  4.5510      85.0000     132.0000       0.0000       
 1782                            1122                            246                                   2.8984      85.0000     132.0000       0.0000       
 1783                            2450                            770                                 400.2731      60.0000     132.0000       0.0000       
 1784                            1110                            2514                                207.8343      85.0000     142.0000       0.0000       
 1785                            728                             2218                                179.5355      60.0000     132.0000       0.0000       
 1786                            2500                            2501                                190.7403      60.0000     132.0000       0.0000       
 1791                            336                             2441                                398.0403      85.0000     132.0000       0.0000       
 1792                            2498                            748                                 379.3356      60.0000     132.0000       0.0000       
 1793                            768                             2032                                254.3367      60.0000     132.0000       0.0000       
 1795                            2523                            2292                                 54.5174      85.0000     142.0000       0.0000       
 1796                            2524                            1794                                  3.2453      60.0000     132.0000       0.0000       
 1800                            1023                            297                                  88.0814     100.0000     132.0000       0.0000       
 1801                            1023                            1332                                  4.3307     100.0000     132.0000       0.0000       
 1802                            1375                            615                                   6.2049      60.0000     132.0000       0.0000       
 1803                            2152                            798                                   3.1580      60.0000     132.0000       0.0000       
 1804                            478                             2468                                  3.4250      60.0000     132.0000       0.0000       
 1805                            2147                            2146                                  3.6179      60.0000     132.0000       0.0000       
 1806                            1832                            1596                                  3.4200      60.0000     132.0000       0.0000       
 1807                            1071                            867                                   3.4281      60.0000     132.0000       0.0000       
 1808                            2452                            837                                   1.6763      60.0000     132.0000       0.0000       
 1809                            1604                            863                                   1.2251      85.0000     132.0000       0.0000       
 1810                            1231                            2437                                  3.2019      60.0000     132.0000       0.0000       
 1812                            2048                            1615                                  3.7551      60.0000     132.0000       0.0000       
 1813                            266                             2144                                  3.0539      60.0000     132.0000       0.0000       
 1814                            265                             1613                                  3.2019      60.0000     132.0000       0.0000       
 1815                            2148                            800                                   2.9729      60.0000     132.0000       0.0000       
 1816                            1331                            2469                                  3.3447      60.0000     132.0000       0.0000       
 1817                            801                             2475                                  3.4723      60.0000     132.0000       0.0000       
 1818                            1786                            927                                   3.0979      60.0000     132.0000       0.0000       
 1819                            411                             617                                   3.1878      60.0000     132.0000       0.0000       
 1820                            410                             2527                                  3.3318      60.0000     132.0000       0.0000       
 1821                            689                             2516                                  3.2264      60.0000     132.0000       0.0000       
 1822                            2292                            2522                                  2.9207      85.0000     142.0000       0.0000       
 1823                            2291                            2114                                  2.8351      85.0000     142.0000       0.0000       
 1825                            2526                            1587                                  1.7492      85.0000      57.0000       0.0000       
 1826                            1064                            2525                                  2.8553     150.0000     135.0000       0.0000       
 1827                            1232                            2145                                  3.2979      60.0000     132.0000       0.0000       
 1829                            1864                            2626                                 39.4381     300.0000      66.0000       0.0000       
 1830                            2646                            1182                                  1.2000     200.0000      61.0000       0.0000       
 1831                            2762                            2105                                 11.5313     110.0000     132.0000       0.0000       
 1832                            2737                            2721                                  1.1360      75.0000      57.0000       0.0000       
 1833                            2032                            2527                                145.0540      60.0000     132.0000       0.0000       
 1834                            2736                            2735                                 29.4875     100.0000      67.0000       0.0000       
 1835                            2558                            85                                    6.5345      75.0000      67.0000       0.0000       
 1836                            2735                            85                                    2.4398     100.0000      67.0000       0.0000       
 1837                            2729                            2044                                 16.2032      75.0000      57.0000       0.0000       
 1838                            2728                            2729                                 28.8435      75.0000      57.0000       0.0000       
 1839                            950                             2728                                  8.8174      75.0000      57.0000       0.0000       
 1840                            2727                            950                                  12.9306      75.0000      57.0000       0.0000       
 1841                            2726                            2727                                 25.0631      75.0000      57.0000       0.0000       
 1842                            2725                            2726                                 29.6728      75.0000      57.0000       0.0000       
 1843                            1185                            2725                                 18.3065      75.0000      57.0000       0.0000       
 1844                            2724                            1185                                 18.7064      75.0000      57.0000       0.0000       
 1845                            2723                            2724                                 30.3360      75.0000      57.0000       0.0000       
 1846                            2526                            2723                                  5.1715      75.0000      57.0000       0.0000       
 1847                            2721                            2722                                  6.7745      75.0000      57.0000       0.0000       
 1848                            2719                            2720                                  1.0204      60.0000     132.0000       0.0000       
 1849                            2695                            2719                                  4.8120      60.0000     132.0000       0.0000       
 1850                            2695                            637                                  80.0654      85.0000     132.0000       0.0000       
 1851                            2718                            2046                                  2.6442      60.0000     132.0000       0.0000       
 1852                            2694                            2718                                  0.0928      60.0000     132.0000       0.0000       
 1853                            2691                            2694                                  0.6210      60.0000     132.0000       0.0000       
 1854                            944                             865                                   0.8628      85.0000     132.0000       0.0000       
 1855                            2716                            2717                                 69.4069     250.0000      64.0000       0.0000       
 1856                            2693                            1233                                  3.3312      60.0000     132.0000       0.0000       
 1857                            2715                            596                                  72.0272     100.0000      57.0000       0.0000       
 1858                            2714                            1017                                 34.2359     200.0000     135.0000       0.0000       
 1860                            2133                            2767                                  3.1233     300.0000      66.0000       0.0000       
 1861                            2568                            2768                                  2.0000     100.0000      67.0000       0.0000       
 1862                            2669                            2769                                 14.0458     100.0000      67.0000       0.0000       
 1863                            2769                            2770                                  6.4721     100.0000      67.0000       0.0000       
 1872                            779                             2668                                  6.8701      60.0000     132.0000       0.0000       
 VZ1.DMC.GAM.003                 2711                            PM.VRP.GAM.003                        0.4626     200.0000     135.0000       0.0000       
 1875                            1101                            2709                                  5.2024     200.0000      61.0000       0.0000       
 1876                            2541                            1143                                  1.3131      75.0000      67.0000       0.0000       
 1877                            587                             1772                                 15.5549     100.0000      67.0000       0.0000       
 1878                            2710                            2711                                 12.9351     200.0000     135.0000       0.0000       
 1879                            2577                            2929                                  6.7847     400.0000      71.0000       0.0000       
 1880                            2925                            2705                                 11.7000     250.0000      64.0000       0.0000       
 1881                            2708                            2925                                 14.0472     250.0000      64.0000       0.0000       
 1882                            1665                            119                                  18.9641     100.0000      67.0000       0.0000       
 1883                            1601                            2424                                 23.6470      85.0000     142.0000       0.0000       
 1884                            2922                            133                                   0.4060     150.0000     145.0000       0.0000       
 1885                            148                             254                                  29.4272     150.0000     145.0000       0.0000       
 1887                            1664                            2771                                  0.6586     100.0000      67.0000       0.0000       
 1888                            2773                            2289                                  5.0190     100.0000     142.0000       0.0000       
 1889                            2670                            2774                                  1.0574     100.0000      67.0000       0.0000       
 1890                            2772                            2773                                  0.4468     100.0000      67.0000       0.0000       
 1891                            2771                            2772                                  0.9901     100.0000      67.0000       0.0000       
 1892                            2264                            1101                                 12.1680     100.0000     132.0000       0.0000 CLOSED
 1893                            2770                            2670                                  0.8315     100.0000      67.0000       0.0000       
 1894                            119                             1025                                  0.3365     100.0000      67.0000       0.0000       
 1895                            2709                            2710                                 15.4803     200.0000      61.0000       0.0000       
 1896                            2707                            2699                                  1.0291     250.0000      64.0000       0.0000       
 1897                            2707                            2708                                  1.5891     250.0000      64.0000       0.0000       
 1898                            579                             2672                                  7.3931     300.0000      76.0000       0.0000       
 1899                            143                             109                                  44.0209     100.0000      67.0000       0.0000       
 1900                            715                             2104                                  2.4598     110.0000     132.0000       0.0000       
 1901                            1157                            2295                                  0.2025     150.0000      59.0000       0.0000       
 1906                            79                              86                                    0.1750     100.0000      67.0000       0.0000       
 1908                            2308                            2158                                  3.7339      60.0000     132.0000       0.0000       
 1909                            721                             2183                                  1.9041      60.0000     132.0000       0.0000       
 1910                            2135                            1482                                  1.9100     200.0000      61.0000       0.0000       
 1911                            255                             243                                   0.1669     150.0000     145.0000       0.0000       
 1912                            2672                            2673                                 15.5181     300.0000      76.0000       0.0000       
 1913                            118                             2671                                 17.1120     100.0000      67.0000       0.0000       
 1914                            77                              2669                                 36.3067     100.0000      67.0000       0.0000       
 1915                            30                              267                                  17.3002     200.0000     135.0000       0.0000       
 1916                            28                              25                                    0.7325     100.0000      57.0000       0.0000       
 1917                            2668                            1840                                130.4393      60.0000     132.0000       0.0000       
 1923                            2027                            2666                                  1.1918      60.0000     132.0000       0.0000       
 1926                            2646                            2657                                  0.5000     300.0000      66.0000       0.0000       
 1928                            2670                            1672                                  1.6896     100.0000      67.0000       0.0000       
 1929                            1096                            2627                                190.9225      85.0000     142.0000       0.0000       
 1930                            2673                            2674                                 19.2863     300.0000      76.0000       0.0000       
 1931                            2341                            2340                                  0.5162      85.0000     142.0000       0.0000       
 1932                            2705                            2706                                 89.7802     250.0000      64.0000       0.0000       
 1933                            2703                            2704                                  1.5749     250.0000      64.0000       0.0000       
 1935                            2701                            1101                                 15.8553     200.0000      61.0000       0.0000       
 1936                            2700                            2701                                 24.6513     200.0000      61.0000       0.0000       
 1937                            2699                            2700                                 18.0847     200.0000      61.0000       0.0000       
 1938                            41                              2698                                 74.6703     100.0000     132.0000       0.0000       
 1939                            2697                            1102                                  6.7179      85.0000     132.0000       0.0000       
 1940                            750                             2697                                 68.6990      85.0000     132.0000       0.0000       
 1941                            431                             2455                                  1.8583      85.0000     132.0000       0.0000       
 1942                            2695                            2696                                189.1047      60.0000     132.0000       0.0000       
 1943                            778                             2694                                166.1009      60.0000     132.0000       0.0000       
 1944                            18                              2693                                 43.6495      60.0000     132.0000       0.0000       
 1945                            2691                            2692                                  1.0962      60.0000     132.0000       0.0000       
 1946                            2674                            1593                                 13.6721     300.0000      76.0000       0.0000       
 1947                            2689                            583                                  40.9096     100.0000     142.0000       0.0000       
 1948                            2689                            2690                                  0.7059     100.0000     142.0000       0.0000       
 1949                            2686                            2689                                  1.0069     100.0000     142.0000       0.0000       
 1950                            2682                            2685                                 11.4741     100.0000     142.0000       0.0000       
 1951                            2682                            2014                                 42.6828     100.0000     142.0000       0.0000       
 1952                            2687                            2688                                 22.8698     100.0000     142.0000       0.0000       
 1953                            2685                            2686                                  0.5950     100.0000      67.0000       0.0000       
 1954                            2683                            2684                                  0.9058     100.0000      67.0000       0.0000       
 1955                            2682                            2683                                  0.7010     100.0000      67.0000       0.0000       
 1956                            2680                            2681                                  0.5000     100.0000      67.0000       0.0000       
 1957                            141                             2680                                  0.9999     100.0000      67.0000       0.0000       
 1958                            2678                            2679                                  2.0000     100.0000      67.0000       0.0000       
 1959                            2678                            1134                                 32.3114     150.0000      69.0000       0.0000       
 1960                            1                               2678                                  4.2000     150.0000      69.0000       0.0000       
 1961                            1164                            2569                                  1.4812     150.0000      69.0000       0.0000       
 1962                            2690                            2687                                  4.1951     100.0000     142.0000       0.0000       
 1964                            0                               1                                    22.9372     150.0000      69.0000       0.0000       
 1966                            1075                            62                                   57.7556     150.0000      59.0000       0.0000       
 1967                            74                              1076                                  3.3365      75.0000      67.0000       0.0000       
 1968                            101                             1077                                  3.6810     100.0000      67.0000       0.0000       
 1969                            28                              1079                                107.4014      50.0000      57.0000       0.0000       
 1970                            1080                            1081                                  1.2972     100.0000      57.0000       0.0000       
 1971                            600                             1082                                 17.6216      50.0000      57.0000       0.0000       
 1972                            1087                            1088                                  6.1523     150.0000      69.0000       0.0000       
 1973                            1089                            1090                                  3.1223     150.0000      59.0000       0.0000       
 1975                            1074                            77                                    2.3145     150.0000     145.0000       0.0000       
 1976                            1093                            1094                                  1.0539     100.0000      67.0000       0.0000       
 1977                            247                             1096                                  3.2587      75.0000      67.0000       0.0000       
 1978                            125                             1097                                  3.3058     100.0000      67.0000       0.0000       
 1979                            145                             126                                   1.3957     100.0000      67.0000       0.0000       
 1980                            1098                            120                                   1.3068     100.0000      67.0000       0.0000       
 1981                            1099                            1100                                  2.7319      75.0000      67.0000       0.0000       
 1982                            871                             154                                   1.8872     100.0000      67.0000       0.0000       
 1983                            1101                            1102                                  2.0474     100.0000      57.0000       0.0000 CLOSED
 1984                            1103                            1104                                190.4466      50.0000      67.0000       0.0000       
 1985                            1107                            425                                 337.7695     150.0000      69.0000       0.0000       
 1986                            1094                            1095                                  1.4969     100.0000      67.0000       0.0000       
 1987                            1072                            1073                                  3.9725     200.0000     145.0000       0.0000       
 1988                            1019                            PM1.DMC.GAM.003                       3.9810     150.0000     135.0000       0.0000       
 1990                            31                              1041                                 25.8584     200.0000     135.0000       0.0000       
 1991                            1041                            1037                                  0.1018     200.0000     135.0000       0.0000       
 1994                            1044                            1045                                  1.1939     150.0000     135.0000       0.0000       
 1995                            1040                            1046                                  0.6899     200.0000     135.0000       0.0000       
 1996                            1046                            1047                                 16.3585     200.0000     135.0000       0.0000       
 1997                            1048                            1049                                 25.4699     200.0000     145.0000       0.0000       
 1998                            1049                            871                                  20.3558     200.0000     145.0000       0.0000       
 1999                            1050                            1051                                  5.0689     200.0000     145.0000       0.0000       
 2000                            1052                            1053                                  1.1186     200.0000     145.0000       0.0000       
 2002                            1059                            1060                                  4.2169     150.0000     135.0000       0.0000       
 2003                            1060                            1061                                 28.5890     150.0000     135.0000       0.0000       
 2004                            1061                            1062                                 25.0191     150.0000     135.0000       0.0000       
 2005                            1062                            1063                                 21.6119     150.0000     135.0000       0.0000       
 2006                            1063                            1064                                  4.1672     150.0000     135.0000       0.0000       
 2007                            1065                            1066                                  3.5907     150.0000     135.0000       0.0000       
 2011                            1108                            1109                                  2.9508      85.0000     142.0000       0.0000       
 2012                            644                             1110                                  3.2042      85.0000     142.0000       0.0000       
 2013                            1111                            1112                                  3.3095      85.0000     142.0000       0.0000       
 2014                            1113                            1114                                  2.5888      85.0000     142.0000       0.0000       
 2015                            585                             1144                                  3.6195      50.0000      67.0000       0.0000       
 2018                            1152                            1153                                  1.1279      50.0000      67.0000       0.0000       
 2019                            96                              1154                                  3.5476      50.0000      67.0000       0.0000       
 2020                            109                             107                                   4.2327      50.0000      67.0000       0.0000       
 2021                            1155                            1156                                  0.7761     100.0000      67.0000       0.0000       
 2022                            1157                            1158                                  4.2521     150.0000      59.0000       0.0000       
 2025                            977                             261                                  39.0888     150.0000      59.0000       0.0000       
 2026                            1162                            1163                                  2.5037     150.0000      69.0000       0.0000       
 2027                            1163                            1164                                  1.4563     150.0000      69.0000       0.0000       
 2028                            63                              1165                                  1.7399     150.0000      59.0000       0.0000       
 2029                            1165                            1166                                  2.2171     150.0000      59.0000       0.0000       
 2030                            573                             1167                                  2.7491      75.0000      67.0000       0.0000       
 2031                            1168                            102                                   3.4598      75.0000      67.0000       0.0000       
 2032                            111                             1169                                  4.5137     100.0000      67.0000       0.0000       
 2033                            2                               1107                                  5.0056     150.0000      69.0000       0.0000       
 2034                            1087                            144                                  26.6418     250.0000      74.0000       0.0000       
 2035                            1170                            1127                                  3.9780     200.0000      71.0000       0.0000       
 2036                            1143                            1141                                  5.9255      75.0000      67.0000       0.0000       
 2037                            1039                            1040                                  2.0165     200.0000     135.0000       0.0000       
 2038                            1141                            1142                                  4.4694      75.0000      67.0000       0.0000       
 2040                            1115                            1116                                  3.0945      85.0000     142.0000       0.0000       
 2043                            348                             1100                                214.6743      75.0000      67.0000       0.0000       
 2044                            1120                            93                                  226.3209      50.0000      67.0000       0.0000       
 2045                            1121                            1122                                 41.6103     100.0000      57.0000       0.0000       
 2046                            319                             1123                                 58.4039     150.0000      59.0000       0.0000       
 2047                            1089                            1124                                 59.9835     150.0000      59.0000       0.0000       
 2048                            389                             384                                  51.8440     200.0000      71.0000       0.0000       
 2049                            1125                            1126                                106.4605     150.0000      69.0000       0.0000       
 2050                            1127                            384                                  24.2896     200.0000      71.0000       0.0000       
 2051                            1128                            1129                                410.5490     300.0000      66.0000       0.0000       
 2052                            104                             1099                                 52.7436     150.0000      69.0000       0.0000       
 2053                            1130                            1131                                377.5225     150.0000      59.0000       0.0000       
 2054                            1131                            1132                                  0.0149     150.0000      59.0000       0.0000       
 2055                            605                             410                                  73.9470     100.0000      57.0000       0.0000       
 2056                            1133                            332                                 111.3033      85.0000     132.0000       0.0000       
 2057                            1134                            1125                                 84.4688     150.0000      69.0000       0.0000       
 2058                            441                             440                                  79.9931     100.0000      67.0000       0.0000       
 2059                            365                             1135                                  1.9918     100.0000      67.0000       0.0000       
 2060                            1136                            1137                                  2.9702      50.0000      67.0000       0.0000       
 2061                            1140                            65                                    5.7237     150.0000      59.0000       0.0000       
 2062                            1171                            1172                                  3.9683      50.0000      67.0000       0.0000       
 2063                            1038                            1039                                 66.3862     200.0000     135.0000       0.0000       
 2064                            24                              1035                                 18.2072     150.0000     135.0000       0.0000       
 2065                            859                             858                                  17.8887      60.0000     132.0000       0.0000       
 2066                            667                             860                                 398.5195      60.0000     132.0000       0.0000       
 2068                            863                             864                                  32.5311      85.0000     132.0000       0.0000       
 2069                            864                             865                                  19.7456      85.0000     132.0000       0.0000       
 2070                            866                             867                                 173.0688      60.0000     132.0000       0.0000       
 2072                            870                             745                                 187.7849      85.0000     142.0000       0.0000       
 2073                            871                             872                                   2.5947     200.0000     145.0000       0.0000       
 2074                            857                             858                                 179.9295      60.0000     132.0000       0.0000       
 2075                            926                             927                                 398.3022      60.0000     132.0000       0.0000       
 2076                            931                             932                                  49.3887      60.0000     132.0000       0.0000       
 2083                            944                             945                                  11.6328      85.0000     132.0000       0.0000       
 2084                            945                             946                                  24.9127      85.0000     132.0000       0.0000       
 2085                            929                             930                                  87.8517      85.0000     132.0000       0.0000       
 2086                            855                             856                                  16.7424      60.0000     132.0000       0.0000       
 2087                            854                             855                                  25.7965      60.0000     132.0000       0.0000       
 2088                            853                             854                                  18.3251      60.0000     132.0000       0.0000       
 2089                            826                             827                                 384.6060      85.0000     132.0000       0.0000       
 2090                            830                             831                                 171.2106      60.0000     132.0000       0.0000       
 2094                            837                             838                                   2.4523      60.0000     132.0000       0.0000       
 2095                            838                             839                                  18.6995      60.0000     132.0000       0.0000       
 2096                            839                             840                                  31.2515      60.0000     132.0000       0.0000       
 2097                            840                             841                                  21.4636      60.0000     132.0000       0.0000       
 2098                            841                             842                                  22.7916      60.0000     132.0000       0.0000       
 2099                            842                             843                                  19.4821      60.0000     132.0000       0.0000       
 2100                            843                             844                                  25.1388      60.0000     132.0000       0.0000       
 2101                            844                             845                                  20.5798      60.0000     132.0000       0.0000       
 2102                            845                             846                                  21.9057      60.0000     132.0000       0.0000       
 2103                            846                             847                                  19.7950      60.0000     132.0000       0.0000       
 2104                            847                             848                                  34.5014      60.0000     132.0000       0.0000       
 2105                            848                             849                                  23.5447      60.0000     132.0000       0.0000       
 2106                            849                             850                                  20.8156      60.0000     132.0000       0.0000       
 2107                            850                             851                                  19.8959      60.0000     132.0000       0.0000       
 2108                            851                             852                                  20.8106      60.0000     132.0000       0.0000       
 2109                            852                             853                                  19.3314      60.0000     132.0000       0.0000       
 2110                            946                             947                                  16.2147      85.0000     132.0000       0.0000       
 2111                            947                             948                                  24.9538      85.0000     132.0000       0.0000       
 2112                            948                             949                                  18.3228      85.0000     132.0000       0.0000       
 2113                            949                             950                                  22.0632      85.0000     132.0000       0.0000       
 2123                            1017                            1018                                174.1223     200.0000     135.0000       0.0000       
 2124                            1018                            1019                                  6.5036     200.0000     135.0000       0.0000       
 2125                            140                             1020                                 15.1361     150.0000     145.0000       0.0000       
 2127                            40                              1023                                 89.5480     100.0000     132.0000       0.0000       
 2128                            1025                            1026                                  0.4832     100.0000      67.0000       0.0000       
 2133                            1033                            1034                                  5.6268     150.0000     135.0000       0.0000       
 2134                            1035                            1036                                 27.5477     150.0000     135.0000       0.0000       
 2136                            1037                            1038                                  1.0528     200.0000     135.0000       0.0000       
 2139                            950                             951                                  33.8259      85.0000     132.0000       0.0000       
 2140                            951                             952                                  26.6008      85.0000     132.0000       0.0000       
 2141                            952                             953                                  23.7486      85.0000     132.0000       0.0000       
 2142                            953                             954                                  30.6899      85.0000     132.0000       0.0000       
 2143                            954                             767                                   4.7131      85.0000     132.0000       0.0000       
 2145                            957                             958                                 210.7802      85.0000     142.0000       0.0000       
 2146                            959                             960                                   1.5090     300.0000     135.0000       0.0000       
 2147                            960                             961                                  18.6864     300.0000     135.0000       0.0000       
 2148                            961                             962                                  21.8821     300.0000     135.0000       0.0000       
 2149                            962                             963                                  17.8324     300.0000     135.0000       0.0000       
 2150                            963                             964                                  13.0100     300.0000     135.0000       0.0000       
 2154                            977                             978                                   3.7745      60.0000     132.0000       0.0000       
 2157                            985                             346                                   1.5552      85.0000     132.0000       0.0000       
 2159                            583                             994                                   3.0539      85.0000     142.0000       0.0000       
 2160                            721                             998                                 108.9415      85.0000     132.0000       0.0000       
 2161                            1173                            149                                   1.3949     100.0000      67.0000       0.0000       
 2162                            1174                            1175                                  0.7025      50.0000      67.0000       0.0000       
 2163                            388                             106                                 188.7013      50.0000      67.0000       0.0000       
 2164                            51                              395                                  11.2000     100.0000      57.0000       0.0000       
 2165                            1330                            1331                                 87.0791     100.0000      57.0000       0.0000       
 2166                            594                             1332                                172.9627      60.0000     132.0000       0.0000       
 2169                            1335                            1336                                 58.6534      50.0000      57.0000       0.0000       
 2170                            1337                            1338                                 59.4450      60.0000     132.0000       0.0000       
 2171                            1339                            1340                                 53.1547      60.0000     132.0000       0.0000       
 2172                            1341                            1342                                 58.9576      60.0000     132.0000       0.0000       
 2173                            1319                            1320                                  1.2525     200.0000     135.0000       0.0000       
 2174                            1122                            344                                  59.0678     100.0000      57.0000       0.0000       
 2175                            394                             1343                                 31.3539     100.0000      57.0000       0.0000       
 2176                            335                             333                                  80.1418     100.0000      57.0000       0.0000       
 2177                            337                             335                                  58.3177     100.0000      57.0000       0.0000       
 2178                            1124                            1133                                  3.5724     150.0000      59.0000       0.0000       
 2179                            1344                            757                                  23.9041     200.0000      61.0000       0.0000       
 2180                            1345                            1346                                177.9886      60.0000     132.0000       0.0000       
 2181                            757                             755                                  12.8869     200.0000      61.0000       0.0000       
 2182                            1347                            1075                                 54.7225     150.0000      59.0000       0.0000       
 2183                            781                             1347                                 26.1597     150.0000      59.0000       0.0000       
 2184                            331                             1121                                 38.5312     100.0000      57.0000       0.0000       
 2185                            1318                            1319                                 25.3325     200.0000     135.0000       0.0000       
 2209                            759                             781                                  58.6884     150.0000      59.0000       0.0000       
 2210                            1338                            1348                                178.6150      60.0000     132.0000       0.0000       
 2211                            1349                            1350                                  4.4700      60.0000     132.0000       0.0000       
 2212                            732                             759                                  14.4351     200.0000      61.0000       0.0000       
 2213                            1362                            1373                                 26.1669     150.0000      59.0000       0.0000       
 2214                            1123                            340                                  46.7835     150.0000      59.0000       0.0000       
 2215                            1374                            1375                                 14.3030     200.0000      61.0000       0.0000       
 2216                            1376                            1377                                  2.1552     200.0000      61.0000       0.0000       
 2217                            59                              1378                                  2.8050     100.0000      57.0000       0.0000       
 2218                            1181                            1374                                  4.9419     200.0000      61.0000       0.0000       
 2219                            1379                            1380                                  0.4296     150.0000      59.0000       0.0000       
 2220                            1380                            1176                                 27.6863     150.0000      59.0000       0.0000       
 2221                            1381                            1382                                174.9553      60.0000     132.0000       0.0000       
 2222                            1383                            1375                                  1.0804     150.0000      59.0000       0.0000       
 2223                            1384                            1181                                 61.4344     200.0000      61.0000       0.0000       
 2224                            1385                            1384                                 69.4441     200.0000      61.0000       0.0000       
 2225                            1386                            1385                                 20.3365     200.0000      61.0000       0.0000       
 2226                            1387                            1386                                 87.2936     200.0000      61.0000       0.0000       
 2227                            1388                            1387                                 86.9029     200.0000      61.0000       0.0000       
 2228                            1389                            1390                                 47.9780     200.0000      61.0000       0.0000       
 2229                            1391                            1389                                 57.1343     200.0000      61.0000       0.0000       
 2230                            858                             1392                                  4.3450     150.0000      59.0000       0.0000       
 2231                            1392                            67                                    3.0002     150.0000      59.0000       0.0000       
 2232                            1373                            1393                                 70.6396     150.0000      59.0000       0.0000       
 2233                            1243                            1391                                 81.4191     150.0000      59.0000       0.0000       
 2234                            340                             342                                  87.4748     150.0000      59.0000       0.0000       
 2236                            342                             1140                                 75.5415     150.0000      59.0000       0.0000       
 2237                            1371                            65                                   97.9541     150.0000      59.0000       0.0000       
 2238                            1349                            734                                  12.2969      60.0000     132.0000       0.0000       
 2239                            1351                            1349                                 58.0678     200.0000      61.0000       0.0000       
 2240                            763                             1351                                 13.0260     200.0000      61.0000       0.0000       
 2241                            755                             763                                  55.9500     200.0000      61.0000       0.0000       
 2242                            1089                            1352                                  2.9399     150.0000      59.0000       0.0000       
 2243                            681                             1353                                 86.5940     100.0000      57.0000       0.0000       
 2244                            1354                            681                                  85.8417     100.0000      57.0000       0.0000       
 2245                            1355                            1089                                 46.5070     150.0000      59.0000       0.0000       
 2246                            1356                            337                                  43.3747     100.0000      57.0000       0.0000       
 2247                            1353                            1357                                 87.5196     100.0000      57.0000       0.0000       
 2248                            1358                            1359                                 89.4873     150.0000      59.0000       0.0000       
 2249                            668                             1360                                111.9552      85.0000     132.0000       0.0000       
 2250                            1361                            1362                                396.4526     150.0000      59.0000       0.0000       
 2251                            1363                            1364                                  5.2472      60.0000     132.0000       0.0000       
 2252                            1365                            1366                                  4.5807      60.0000     132.0000       0.0000       
 2253                            1365                            1367                                 17.7232      60.0000     132.0000       0.0000       
 2254                            1363                            1365                                 79.6919      85.0000     132.0000       0.0000       
 2255                            1368                            1363                                 84.9676      60.0000     132.0000       0.0000       
 2256                            1361                            1369                                  2.3355     150.0000      59.0000       0.0000       
 2257                            1370                            1361                                  4.1578     150.0000      59.0000       0.0000       
 2258                            65                              1370                                  5.0103     150.0000      59.0000       0.0000       
 2259                            1372                            1371                                 21.5211     150.0000      59.0000       0.0000       
 2263                            1211                            1212                                 31.9463     200.0000     135.0000       0.0000       
 2264                            1213                            480                                  58.7317     100.0000      57.0000       0.0000       
 2265                            1214                            1196                                112.5206     100.0000      67.0000       0.0000       
 2266                            1215                            1214                                111.3096     100.0000      67.0000       0.0000       
 2267                            607                             1216                                 58.0322     100.0000      57.0000       0.0000       
 2268                            1217                            1218                                 37.4520     150.0000      59.0000       0.0000       
 2269                            1218                            1219                                 29.4817     150.0000      59.0000       0.0000       
 2270                            1219                            1220                                 19.1689     150.0000      59.0000       0.0000       
 2271                            1220                            1221                                 10.0261     150.0000      59.0000       0.0000       
 2272                            1222                            1223                                  8.4077      85.0000     132.0000       0.0000       
 2273                            1223                            1224                                  1.5438      85.0000     132.0000       0.0000       
 2274                            415                             476                                  58.5668     150.0000      59.0000       0.0000       
 2275                            1225                            414                                  58.3593     150.0000      59.0000       0.0000       
 2280                            1231                            1202                                 87.4628     100.0000      57.0000       0.0000       
 2281                            1232                            1231                                 85.9957     100.0000      57.0000       0.0000       
 2282                            1233                            1234                                 16.2714      60.0000     132.0000       0.0000       
 2284                            34                              1211                                 25.7060     200.0000     135.0000       0.0000       
 2285                            36                              29                                   74.7117     100.0000      57.0000       0.0000       
 2288                            45                              47                                   31.9142     150.0000      59.0000       0.0000       
 2289                            1176                            1177                                113.8878     150.0000      59.0000       0.0000       
 2290                            160                             1178                                116.5497      50.0000      67.0000       0.0000       
 2292                            160                             1154                                169.9934      50.0000      67.0000       0.0000       
 2293                            1034                            33                                    3.6590     150.0000      59.0000       0.0000       
 2294                            1181                            1182                                 14.8035     200.0000      61.0000       0.0000       
 2295                            1124                            319                                  80.3111     150.0000      59.0000       0.0000       
 2297                            1183                            1184                                 22.8217      85.0000     132.0000       0.0000       
 2298                            1184                            1185                                  8.6287      85.0000     132.0000       0.0000       
 2299                            1185                            1186                                 17.6499      85.0000     132.0000       0.0000       
 2300                            1186                            1187                                 15.7616      85.0000     132.0000       0.0000       
 2301                            1187                            1188                                 23.2503      85.0000     132.0000       0.0000       
 2302                            1188                            1189                                 24.4922      85.0000     132.0000       0.0000       
 2303                            1189                            1190                                 38.5940      85.0000     132.0000       0.0000       
 2304                            1172                            387                                 185.2093      50.0000      67.0000       0.0000       
 2305                            1196                            1197                                218.5839     100.0000      67.0000       0.0000       
 2306                            1202                            1203                                 88.1625     100.0000      57.0000       0.0000       
 2307                            1126                            1162                                 29.8675     150.0000      69.0000       0.0000       
 2310                            824                             825                                  27.2285      60.0000     132.0000       0.0000       
 2311                            1236                            1237                                  9.8582     100.0000      67.0000       0.0000       
 2312                            98                              1200                                  4.0378     100.0000      67.0000       0.0000       
 2335                            1238                            1239                                  3.4991     200.0000     135.0000       0.0000       
 2338                            1240                            1241                                  3.8190     100.0000      67.0000       0.0000       
 2340                            1242                            66                                   79.1693     150.0000      59.0000       0.0000       
 2341                            1243                            1177                                  4.2638     150.0000      59.0000       0.0000       
 2342                            1246                            595                                  92.1011     150.0000      59.0000       0.0000       
 2360                            823                             824                                  23.7892      60.0000     132.0000       0.0000       
 2361                            822                             823                                  23.6686      60.0000     132.0000       0.0000       
 2362                            821                             822                                  22.4342      60.0000     132.0000       0.0000       
 2369                            285                             286                                  63.5481      50.0000     132.0000       0.0000       
 2370                            297                             298                                   5.6620      60.0000     132.0000       0.0000       
 2372                            35                              274                                 392.9947     200.0000     135.0000       0.0000       
 2373                            319                             320                                   3.1321      85.0000     132.0000       0.0000       
 2374                            323                             324                                   9.0988      85.0000     132.0000       0.0000       
 2375                            325                             326                                 179.5098      60.0000     132.0000       0.0000       
 2376                            327                             328                                   5.2166      75.0000     132.0000       0.0000       
 2377                            329                             330                                   3.1271      60.0000     132.0000       0.0000       
 2378                            331                             332                                   4.8331      85.0000     132.0000       0.0000       
 2379                            333                             334                                   5.0511      85.0000     132.0000       0.0000       
 2380                            335                             336                                   4.6265      85.0000     132.0000       0.0000       
 2381                            337                             338                                   3.8685      85.0000     132.0000       0.0000       
 2382                            331                             339                                   5.4898      85.0000     132.0000       0.0000       
 2383                            319                             322                                   4.2182      85.0000     132.0000       0.0000       
 2384                            272                             273                                  86.5465     150.0000     135.0000       0.0000       
 2385                            271                             269                                  79.9335     150.0000     135.0000       0.0000       
 2386                            269                             270                                  56.5065     150.0000     135.0000       0.0000       
 2391                            241                             242                                  34.8861     200.0000     145.0000       0.0000       
 2392                            243                             244                                  20.9520     150.0000     145.0000       0.0000       
 2393                            245                             246                                 399.6272     100.0000     132.0000       0.0000       
 2394                            75                              247                                  56.0424     150.0000     145.0000       0.0000       
 2395                            248                             249                                   2.0142     100.0000     142.0000       0.0000       
 2396                            250                             251                                  25.0066     200.0000     145.0000       0.0000       
 2397                            252                             253                                  54.7603     200.0000     145.0000       0.0000       
 2398                            242                             252                                  56.2688     200.0000     145.0000       0.0000       
 2399                            254                             255                                  92.9047     150.0000     145.0000       0.0000       
 2400                            256                             257                                   1.4601     150.0000     145.0000       0.0000       
 2401                            257                             258                                   4.8460     150.0000     145.0000       0.0000       
 2402                            258                             247                                  46.4072     150.0000     145.0000       0.0000       
 2403                            259                             260                                  21.9917     150.0000     135.0000       0.0000       
 2404                            261                             262                                   2.5534     150.0000     135.0000       0.0000       
 2405                            263                             264                                 113.4852     150.0000     135.0000       0.0000       
 2406                            265                             266                                  51.6723     150.0000     135.0000       0.0000       
 2407                            267                             268                                 161.3487     200.0000     135.0000       0.0000       
 2408                            340                             341                                   3.7421      60.0000     132.0000       0.0000       
 2409                            342                             343                                   5.5722      60.0000     132.0000       0.0000       
 2410                            344                             345                                   3.1283      85.0000     132.0000       0.0000       
 2411                            346                             347                                   2.6413     150.0000      59.0000       0.0000       
 2412                            260                             408                                  55.4957     150.0000      59.0000       0.0000       
 2413                            410                             411                                  90.1833     100.0000      57.0000       0.0000       
 2414                            412                             413                                  14.0009     150.0000      59.0000       0.0000       
 2415                            413                             414                                  52.6978     150.0000      59.0000       0.0000       
 2416                            415                             412                                  14.3638     150.0000      59.0000       0.0000       
 2417                            416                             417                                  57.6671     100.0000      57.0000       0.0000       
 2418                            418                             264                                   3.4225     100.0000      57.0000       0.0000       
 2419                            419                             420                                   2.5676     100.0000      57.0000       0.0000       
 2420                            421                             272                                  87.9165     150.0000      59.0000       0.0000       
 2421                            422                             423                                   2.4451     150.0000      59.0000       0.0000       
 2422                            419                             421                                  28.1252     150.0000      59.0000       0.0000       
 2423                            424                             419                                  24.4037     150.0000      59.0000       0.0000       
 2424                            38                              424                                  36.0284     150.0000      59.0000       0.0000       
 2425                            425                             426                                 131.8609     100.0000      67.0000       0.0000       
 2427                            429                             430                                  33.2803     150.0000      59.0000       0.0000       
 2428                            430                             431                                  20.6232     150.0000      59.0000       0.0000       
 2429                            432                             433                                  22.8237     150.0000      59.0000       0.0000       
 2430                            433                             434                                  24.6269     150.0000      59.0000       0.0000       
 2431                            434                             435                                  27.6299     150.0000      59.0000       0.0000       
 2432                            435                             429                                  10.9346     150.0000      59.0000       0.0000       
 2433                            408                             409                                  36.8038     150.0000      59.0000       0.0000       
 2435                            406                             407                                  56.6928     100.0000      57.0000       0.0000       
 2436                            402                             403                                  53.8364      50.0000      57.0000       0.0000       
 2437                            75                              348                                   3.2598      75.0000      67.0000       0.0000       
 2440                            22                              376                                   1.0181     100.0000      57.0000       0.0000       
 2445                            384                             385                                   2.9572      50.0000      67.0000       0.0000       
 2446                            386                             387                                   2.7261      50.0000      67.0000       0.0000       
 2447                            388                             389                                   4.3208     200.0000      71.0000       0.0000       
 2448                            390                             20                                    3.0435      60.0000     132.0000       0.0000       
 2450                            29                              393                                   3.4298     100.0000      57.0000       0.0000       
 2451                            31                              37                                    3.0899     150.0000      59.0000       0.0000       
 2452                            333                             394                                  28.7097     100.0000      57.0000       0.0000       
 2453                            395                             396                                  20.4241     100.0000      57.0000       0.0000       
 2454                            122                             397                                  63.7042     100.0000      67.0000       0.0000       
 2455                            398                             121                                  35.7697     100.0000      67.0000       0.0000       
 2456                            399                             400                                  10.1236     100.0000      67.0000       0.0000       
 2457                            388                             401                                 116.7017      75.0000      67.0000       0.0000       
 2458                            404                             405                                  59.5541      50.0000      57.0000       0.0000       
 2459                            159                             160                                   2.9869     200.0000      71.0000       0.0000       
 2460                            158                             151                                  43.9470     100.0000      67.0000       0.0000       
 2461                            157                             158                                  50.0565     100.0000      67.0000       0.0000       
 2462                            41                              39                                   67.3257     100.0000     132.0000       0.0000       
 2463                            42                              43                                  153.9544      60.0000     132.0000       0.0000       
 2464                            44                              45                                   42.3498     150.0000      59.0000       0.0000       
 2465                            46                              44                                   87.8085     150.0000      59.0000       0.0000       
 2466                            47                              48                                    4.0065      85.0000     132.0000       0.0000       
 2467                            45                              49                                    2.7649     150.0000      59.0000       0.0000       
 2468                            50                              51                                   10.9258     100.0000      57.0000       0.0000       
 2469                            52                              53                                    3.0168      60.0000     132.0000       0.0000       
 2470                            54                              55                                   11.0992     110.0000     132.0000       0.0000       
 2471                            56                              57                                   37.6589     200.0000      61.0000       0.0000       
 2472                            58                              59                                   21.8377     150.0000      59.0000       0.0000       
 2473                            60                              61                                   86.4400     150.0000      59.0000       0.0000       
 2474                            62                              60                                   51.8375     150.0000      59.0000       0.0000       
 2475                            58                              63                                  175.8715     150.0000      59.0000       0.0000       
 2476                            64                              65                                    3.2660     150.0000      59.0000       0.0000       
 2477                            66                              67                                    4.1649     150.0000      59.0000       0.0000       
 2478                            74                              75                                   55.6012     150.0000     145.0000       0.0000       
 2479                            76                              77                                  194.1698     100.0000      67.0000       0.0000       
 2480                            78                              79                                   11.9280     100.0000      67.0000       0.0000       
 2481                            80                              78                                   61.1668     100.0000      67.0000       0.0000       
 2482                            81                              80                                    5.0933      75.0000      67.0000       0.0000       
 2483                            39                              40                                   18.7590     100.0000     132.0000       0.0000       
 2484                            82                              83                                   34.9337      75.0000      67.0000       0.0000       
 2485                            37                              38                                   75.0611     150.0000      59.0000       0.0000       
 2486                            33                              34                                   73.4739     200.0000     135.0000       0.0000       
 2487                            2                               3                                   105.2847     250.0000      74.0000       0.0000       
 2488                            4                               5                                    97.3225     150.0000     145.0000       0.0000       
 2489                            6                               5                                     6.2126     150.0000     145.0000       0.0000       
 2490                            0                               6                                   103.8761     150.0000      69.0000       0.0000       
 2491                            3                               7                                     8.5142     150.0000     145.0000       0.0000       
 2492                            7                               4                                     7.2671     150.0000     145.0000       0.0000       
 2493                            8                               3                                    18.8981     250.0000      74.0000       0.0000       
 2499                            18                              19                                   32.8382      60.0000     132.0000       0.0000       
 2500                            20                              21                                   28.6657      60.0000     132.0000       0.0000       
 2501                            21                              22                                   28.2464      60.0000     132.0000       0.0000       
 2502                            23                              24                                   16.2383     150.0000     135.0000       0.0000       
 2503                            25                              26                                   42.6258     100.0000      57.0000       0.0000       
 2504                            27                              28                                   42.5981     100.0000      57.0000       0.0000       
 2505                            29                              27                                   87.0631     100.0000      57.0000       0.0000       
 2506                            30                              31                                  227.3926     200.0000     135.0000       0.0000       
 2507                            23                              32                                    1.3562      60.0000     132.0000       0.0000       
 2508                            35                              36                                    3.7911     200.0000     135.0000       0.0000       
 2509                            8                               436                                   4.8109     150.0000      69.0000       0.0000       
 2510                            84                              82                                    3.5085      75.0000      67.0000       0.0000       
 2511                            86                              87                                    0.9689     100.0000      67.0000       0.0000       
 2512                            126                             127                                   9.7983     100.0000      67.0000       0.0000       
 2513                            127                             128                                  14.6966     100.0000      67.0000       0.0000       
 2514                            128                             129                                  18.7834     100.0000      67.0000       0.0000       
 2515                            129                             130                                  18.7972     100.0000      67.0000       0.0000       
 2516                            131                             132                                   0.7725      50.0000      67.0000       0.0000       
 2517                            133                             134                                   0.5773     150.0000     145.0000       0.0000       
 2518                            135                             136                                  20.6659     150.0000     145.0000       0.0000       
 2519                            137                             135                                  55.9765     150.0000     145.0000       0.0000       
 2520                            138                             139                                  11.4029     100.0000      67.0000       0.0000       
 2521                            140                             141                                 193.7471     100.0000      67.0000       0.0000       
 2522                            142                             143                                   2.9889     100.0000      67.0000       0.0000       
 2523                            144                             8                                    19.4707     250.0000      74.0000       0.0000       
 2524                            145                             146                                   6.1861     150.0000     145.0000       0.0000       
 2525                            146                             147                                  20.6921     150.0000     145.0000       0.0000       
 2526                            147                             148                                  19.6961     150.0000     145.0000       0.0000       
 2527                            149                             150                                  62.3682     100.0000      67.0000       0.0000       
 2528                            151                             152                                   1.1732     100.0000      67.0000       0.0000       
 2529                            151                             153                                  15.3293     100.0000      67.0000       0.0000       
 2530                            154                             155                                   8.6940     100.0000      67.0000       0.0000       
 2531                            155                             156                                  52.4458     100.0000      67.0000       0.0000       
 2532                            156                             157                                  29.4821     100.0000      67.0000       0.0000       
 2533                            98                              125                                  29.2688     100.0000      67.0000       0.0000       
 2534                            85                              84                                   87.0036      75.0000      67.0000       0.0000       
 2535                            123                             124                                 171.1877      85.0000     142.0000       0.0000       
 2536                            119                             120                                  24.2810     100.0000      67.0000       0.0000       
 2537                            88                              74                                   44.0547     150.0000     145.0000       0.0000       
 2538                            89                              88                                   12.8238     150.0000     145.0000       0.0000       
 2539                            90                              91                                    2.0056     150.0000     145.0000       0.0000       
 2540                            90                              89                                   12.3713     150.0000     145.0000       0.0000       
 2541                            92                              93                                    3.8340      50.0000      67.0000       0.0000       
 2542                            94                              95                                    3.4417      50.0000      67.0000       0.0000       
 2543                            94                              81                                   49.4464      75.0000      67.0000       0.0000       
 2544                            96                              94                                   55.5502      75.0000      67.0000       0.0000       
 2545                            97                              98                                   24.6681     100.0000      67.0000       0.0000       
 2546                            99                              97                                   46.8873     100.0000      67.0000       0.0000       
 2547                            100                             101                                  42.5973     100.0000      67.0000       0.0000       
 2548                            102                             103                                  92.3127      75.0000      67.0000       0.0000       
 2549                            103                             104                                   3.5598     150.0000      69.0000       0.0000       
 2550                            105                             106                                   2.8320      50.0000      67.0000       0.0000       
 2551                            107                             108                                 157.0769      50.0000      67.0000       0.0000       
 2552                            109                             110                                  58.4151     100.0000      67.0000       0.0000       
 2553                            111                             112                                  25.5847     300.0000      76.0000       0.0000       
 2554                            112                             113                                  17.3014     300.0000      76.0000       0.0000       
 2555                            114                             115                                  30.1420      50.0000      67.0000       0.0000       
 2556                            116                             117                                   0.5681     100.0000      67.0000       0.0000       
 2557                            117                             118                                  11.5948     100.0000      67.0000       0.0000       
 2558                            121                             122                                  14.6659     100.0000      67.0000       0.0000       
 2559                            725                             1243                                 57.6545     150.0000      59.0000       0.0000       
 2560                            437                             438                                   3.0968     100.0000      67.0000       0.0000       
 2561                            440                             439                                   5.2200     150.0000      69.0000       0.0000       
 2562                            329                             724                                  74.1978      85.0000     132.0000       0.0000       
 2563                            60                              649                                   3.8118      60.0000     132.0000       0.0000       
 2565                            725                             726                                   4.6842      60.0000     132.0000       0.0000       
 2566                            727                             728                                   4.7545      60.0000     132.0000       0.0000       
 2567                            730                             731                                   4.0675      60.0000     132.0000       0.0000       
 2568                            732                             733                                   4.9220      60.0000     132.0000       0.0000       
 2569                            734                             735                                   4.8045      60.0000     132.0000       0.0000       
 2570                            124                             736                                   3.1859      85.0000     142.0000       0.0000       
 2572                            737                             738                                   3.8911      85.0000     142.0000       0.0000       
 2573                            740                             741                                   4.9348      85.0000     142.0000       0.0000       
 2574                            742                             648                                  11.8967      85.0000     142.0000       0.0000       
 2575                            253                             743                                   3.5665      85.0000     142.0000       0.0000       
 2576                            252                             744                                   3.2836      85.0000     142.0000       0.0000       
 2577                            242                             745                                   3.0720      85.0000     142.0000       0.0000       
 2578                            746                             747                                   3.5200      85.0000     142.0000       0.0000       
 2579                            26                              748                                   2.9818      60.0000     132.0000       0.0000       
 2580                            137                             749                                   3.4839      85.0000     142.0000       0.0000       
 2581                            750                             751                                   5.3485      60.0000     132.0000       0.0000       
 2582                            739                             647                                   3.2922      85.0000     142.0000       0.0000       
 2583                            720                             721                                   2.7918      60.0000     132.0000       0.0000       
 2584                            718                             719                                 382.6177      85.0000     132.0000       0.0000       
 2586                            663                             664                                 398.6739      85.0000     132.0000       0.0000       
 2587                            601                             667                                   4.2163      60.0000     132.0000       0.0000       
 2588                            344                             668                                   3.4723      85.0000     132.0000       0.0000       
 2590                            681                             682                                   7.4197      60.0000     132.0000       0.0000       
 2592                            688                             689                                  58.9411      60.0000     132.0000       0.0000       
 2604                            708                             709                                 399.1827      60.0000     132.0000       0.0000       
 2605                            712                             713                                   4.6523      60.0000     132.0000       0.0000       
 2606                            714                             715                                  40.5699     110.0000     132.0000       0.0000       
 2607                            752                             753                                   1.9662      60.0000     132.0000       0.0000       
 2608                            97                              754                                   2.9898      85.0000     142.0000       0.0000       
 2609                            755                             756                                   5.2833      60.0000     132.0000       0.0000       
 2610                            757                             758                                   3.8521      60.0000     132.0000       0.0000       
 2611                            794                             795                                 171.5544      60.0000     132.0000       0.0000       
 2612                            798                             799                                 170.9142      60.0000     132.0000       0.0000       
 2613                            800                             801                                  57.5909      60.0000     132.0000       0.0000       
 2615                            783                             803                                   5.8614      60.0000     132.0000       0.0000       
 2616                            804                             805                                 179.2095      60.0000     132.0000       0.0000       
 2617                            806                             646                                 174.0395      60.0000     132.0000       0.0000       
 2618                            807                             808                                 109.8256      60.0000     132.0000       0.0000       
 2619                            753                             809                                  14.2599      60.0000     132.0000       0.0000       
 2620                            809                             810                                  38.5470      60.0000     132.0000       0.0000       
 2621                            810                             811                                  19.7762      60.0000     132.0000       0.0000       
 2622                            811                             812                                  24.5338      60.0000     132.0000       0.0000       
 2623                            812                             813                                  17.5643      60.0000     132.0000       0.0000       
 2624                            813                             814                                  24.6750      60.0000     132.0000       0.0000       
 2625                            814                             815                                  25.1446      60.0000     132.0000       0.0000       
 2626                            815                             816                                  20.7663      60.0000     132.0000       0.0000       
 2627                            816                             817                                  24.9426      60.0000     132.0000       0.0000       
 2628                            817                             818                                  29.5907      60.0000     132.0000       0.0000       
 2629                            818                             819                                  20.1716      60.0000     132.0000       0.0000       
 2630                            819                             820                                  19.0971      60.0000     132.0000       0.0000       
 2631                            820                             821                                  25.4410      60.0000     132.0000       0.0000       
 2632                            792                             793                                 128.0639      60.0000     132.0000       0.0000       
 2633                            661                             662                                  62.8666      60.0000     132.0000       0.0000       
 2634                            343                             789                                 396.9015      60.0000     132.0000       0.0000       
 2636                            759                             760                                   3.8273      60.0000     132.0000       0.0000       
 2637                            761                             762                                   4.8130      60.0000     132.0000       0.0000       
 2638                            763                             764                                   4.6560      60.0000     132.0000       0.0000       
 2639                            40                              765                                   4.2238      60.0000     132.0000       0.0000       
 2640                            481                             766                                   3.4281      60.0000     132.0000       0.0000       
 2641                            429                             767                                   0.8124      85.0000     132.0000       0.0000       
 2642                            38                              768                                   3.0552      60.0000     132.0000       0.0000       
 2643                            421                             618                                   2.9898      60.0000     132.0000       0.0000       
 2644                            476                             626                                   3.2922      85.0000     132.0000       0.0000       
 2645                            637                             769                                   3.9241      60.0000     132.0000       0.0000       
 2646                            48                              636                                   3.6496      85.0000     132.0000       0.0000       
 2647                            44                              770                                   3.8201      60.0000     132.0000       0.0000       
 2648                            46                              771                                   4.0671      60.0000     132.0000       0.0000       
 2649                            431                             772                                   5.3633      85.0000     132.0000       0.0000       
 2650                            429                             773                                   1.2239      85.0000     132.0000       0.0000       
 2651                            777                             778                                  15.5689      60.0000     132.0000       0.0000       
 2652                            779                             780                                   0.7940      50.0000     135.0000       0.0000       
 2653                            781                             782                                   4.2187      60.0000     132.0000       0.0000       
 2654                            27                              619                                   3.6963      60.0000     132.0000       0.0000       
 2655                            259                             783                                   2.8320     150.0000     135.0000       0.0000       
 2656                            784                             322                                 111.8039      85.0000     132.0000       0.0000       
 2657                            787                             788                                 196.2496      85.0000     132.0000       0.0000       
 2658                            659                             660                                  18.9256      85.0000     142.0000       0.0000       
 2659                            658                             659                                  17.1093      85.0000     142.0000       0.0000       
 2660                            657                             658                                  12.0260      85.0000     142.0000       0.0000       
 2662                            473                             474                                  62.6639     400.0000      71.0000       0.0000       
 2663                            474                             362                                   5.9106     400.0000      71.0000       0.0000       
 2664                            475                             476                                  13.1458     150.0000      59.0000       0.0000       
 2665                            477                             478                                  13.5126     150.0000     135.0000       0.0000       
 2666                            479                             480                                  13.3099      85.0000     132.0000       0.0000       
 2667                            481                             479                                  36.4731      85.0000     132.0000       0.0000       
 2668                            271                             475                                  38.7401     150.0000     135.0000       0.0000       
 2672                            487                             488                                   3.5804      60.0000     132.0000       0.0000       
 2686                            441                             442                                  20.5275     100.0000      67.0000       0.0000       
 2687                            443                             442                                  17.6067     100.0000      67.0000       0.0000       
 2688                            150                             443                                  15.0101     100.0000      67.0000       0.0000       
 2689                            444                             114                                  85.0597     100.0000      67.0000       0.0000       
 2690                            445                             446                                   3.0211      50.0000      67.0000       0.0000       
 2691                            447                             448                                   1.9719     100.0000      67.0000       0.0000       
 2692                            445                             142                                   9.9604     100.0000      67.0000       0.0000       
 2693                            426                             1                                   119.3607     100.0000      67.0000       0.0000       
 2708                            439                             398                                   1.6971     150.0000      69.0000       0.0000       
 2711                            610                             611                                   3.3312      85.0000     132.0000       0.0000       
 2712                            615                             616                                  92.1600      60.0000     132.0000       0.0000       
 2713                            617                             618                                 398.5453      60.0000     132.0000       0.0000       
 2714                            619                             620                                 387.7044      60.0000     132.0000       0.0000       
 2716                            623                             624                                   3.8828      60.0000     132.0000       0.0000       
 2718                            626                             627                                 180.8527      85.0000     132.0000       0.0000       
 2721                            608                             633                                 112.5509      85.0000     132.0000       0.0000       
 2723                            636                             637                                  91.4826      85.0000     132.0000       0.0000       
 2724                            639                             640                                 192.8761      85.0000     132.0000       0.0000       
 2725                            643                             644                                  62.9820      85.0000     142.0000       0.0000       
 2726                            645                             646                                   2.9923      60.0000     132.0000       0.0000       
 2727                            647                             648                                 222.0728      85.0000     142.0000       0.0000       
 2728                            649                             650                                 399.0513      60.0000     132.0000       0.0000       
 2729                            651                             652                                   3.2598      85.0000     142.0000       0.0000       
 2731                            655                             591                                 113.8882      60.0000     132.0000       0.0000       
 2732                            609                             589                                 109.1390      60.0000     132.0000       0.0000       
 2734                            607                             608                                   3.4528      85.0000     132.0000       0.0000       
 2735                            268                             605                                   4.1410     100.0000      57.0000       0.0000       
 2736                            572                             573                                   3.2420      75.0000      67.0000       0.0000       
 2737                            574                             575                                 229.3228      50.0000      67.0000       0.0000       
 2738                            397                             576                                   4.4583     100.0000     142.0000       0.0000       
 2739                            401                             89                                    4.1052      75.0000      67.0000       0.0000       
 2740                            577                             578                                  18.4202     300.0000      76.0000       0.0000       
 2741                            578                             579                                  15.2958     300.0000      76.0000       0.0000       
 2742                            580                             581                                   3.4555      50.0000      67.0000       0.0000       
 2743                            582                             583                                 190.1168     100.0000      67.0000       0.0000       
 2744                            584                             582                                   3.1596     100.0000      67.0000       0.0000       
 2745                            92                              585                                  56.7819     200.0000      71.0000       0.0000       
 2746                            586                             587                                   1.5660     100.0000      67.0000       0.0000       
 2747                            588                             589                                   4.3291      60.0000     132.0000       0.0000       
 2748                            588                             590                                   4.0158      60.0000     132.0000       0.0000       
 2749                            591                             592                                  56.5997      60.0000     132.0000       0.0000       
 2750                            593                             594                                   6.1102      60.0000     132.0000       0.0000       
 2751                            595                             259                                   3.2083     150.0000      59.0000       0.0000       
 2752                            596                             597                                  87.3598     100.0000      57.0000       0.0000       
 2753                            598                             599                                   0.6452      85.0000     132.0000       0.0000       
 2754                            600                             601                                  57.5538      85.0000     132.0000       0.0000       
 2755                            602                             600                                  16.9075      85.0000     132.0000       0.0000       
 2756                            603                             604                                   0.9142     100.0000      57.0000       0.0000       
 2757                            412                             606                                   2.0776      85.0000     132.0000       0.0000       
 2758                            727                             725                                  52.1011     150.0000      59.0000       0.0000       
 2760                            1786                            411                                  85.2908     100.0000      57.0000       0.0000       
 2761                            1666                            1667                                 19.9148     100.0000      67.0000       0.0000       
 2762                            1667                            1668                                 20.8137     100.0000      67.0000       0.0000       
 2763                            1668                            1669                                 20.6934     100.0000      67.0000       0.0000       
 2764                            1669                            1670                                 19.6859     100.0000      67.0000       0.0000       
 2765                            1670                            1671                                 21.2432     100.0000      67.0000       0.0000       
 2766                            1671                            118                                  27.3870     100.0000      67.0000       0.0000       
 2767                            1672                            1673                                 14.2118     100.0000      67.0000       0.0000       
 2768                            1673                            1674                                 12.7995     100.0000      67.0000       0.0000       
 2769                            1674                            1093                                  7.6747     100.0000      67.0000       0.0000       
 2770                            1095                            1675                                  1.1948     100.0000      67.0000       0.0000       
 2771                            1675                            1676                                 14.4377     100.0000      67.0000       0.0000       
 2772                            1676                            1677                                 12.1293     100.0000      67.0000       0.0000       
 2773                            1677                            1678                                  7.2655     100.0000      67.0000       0.0000       
 2774                            1678                            1666                                  2.3297     100.0000      67.0000       0.0000       
 2776                            140                             1665                                 53.7898     100.0000      67.0000       0.0000       
 2777                            1663                            1664                                  3.5411     100.0000      67.0000       0.0000       
 2778                            1662                            1663                                 16.7495     100.0000      67.0000       0.0000       
 2779                            1095                            1662                                 10.9426     100.0000      67.0000       0.0000       
 2780                            1637                            1638                                  4.0281      60.0000     132.0000       0.0000       
 2781                            1639                            1640                                  4.0861      60.0000     132.0000       0.0000       
 2782                            1641                            1382                                  3.9333      60.0000     132.0000       0.0000       
 2783                            1388                            1642                                  4.7791      60.0000     132.0000       0.0000       
 2785                            1645                            1646                                  3.7759      60.0000     132.0000       0.0000       
 2786                            1359                            1647                                  3.7591      60.0000     132.0000       0.0000       
 2788                            1386                            1381                                  7.0555      60.0000     132.0000       0.0000       
 2790                            1221                            1659                                  1.0190     150.0000      59.0000       0.0000       
 2791                            110                             1660                                  0.2907      50.0000      67.0000       0.0000       
 2792                            1660                            1103                                  3.5527      50.0000      67.0000       0.0000       
 2793                            1241                            124                                  43.7026     100.0000      67.0000       0.0000       
 2794                            737                             1661                                 39.4429     100.0000      67.0000       0.0000       
 2795                            739                             737                                  54.9235     100.0000      67.0000       0.0000       
 2796                            1384                            1578                                  4.9450      60.0000     132.0000       0.0000       
 2800                            1059                            1732                                  3.4767      60.0000     132.0000       0.0000       
 2801                            253                             250                                  18.6248     200.0000     145.0000       0.0000       
 2802                            736                             651                                  63.8481      85.0000     142.0000       0.0000       
 2803                            125                             739                                   2.3753     100.0000      67.0000       0.0000       
 2804                            1735                            1736                                  4.4024      85.0000     142.0000       0.0000       
 2805                            1737                            1738                                 59.5379     200.0000     145.0000       0.0000       
 2807                            1730                            1731                                  2.9604      50.0000      57.0000       0.0000       
 2809                            1047                            35                                    3.5293     200.0000     135.0000       0.0000       
 2811                            1739                            80                                  170.5612     100.0000      67.0000       0.0000       
 2812                            1740                            1741                                  4.7348     300.0000      76.0000       0.0000       
 2813                            1742                            1743                                  1.1244      50.0000      67.0000       0.0000       
 2814                            447                             1744                                 96.4015     100.0000      67.0000       0.0000       
 2815                            1745                            1171                                 29.1729     200.0000      71.0000       0.0000       
 2817                            1387                            1636                                  5.3007      60.0000     132.0000       0.0000       
 2818                            1728                            1729                                 36.2612     100.0000      57.0000       0.0000       
 2830                            1689                            431                                   9.5292     150.0000      59.0000       0.0000       
 2831                            46                              1690                                 37.5391     150.0000      59.0000       0.0000       
 2832                            761                             1691                                 40.8201     100.0000     132.0000       0.0000       
 2833                            1691                            297                                   8.7981     100.0000     132.0000       0.0000       
 2837                            1389                            1635                                  4.4040      60.0000     132.0000       0.0000       
 2838                            930                             789                                   4.0168      60.0000     132.0000       0.0000       
 2839                            1634                            650                                   3.4500      60.0000     132.0000       0.0000       
 2842                            413                             1576                                  1.7123     100.0000     132.0000       0.0000       
 2843                            1577                            1578                                173.2798      60.0000     132.0000       0.0000       
 2844                            1579                            1507                                328.6483      60.0000     132.0000       0.0000       
 2845                            1580                            1581                                  6.2427      85.0000     132.0000       0.0000       
 2846                            1581                            1582                                  1.9478      85.0000     132.0000       0.0000       
 2848                            1582                            1583                                 25.6732      85.0000     132.0000       0.0000       
 2849                            1584                            1585                                 20.5778      85.0000     132.0000       0.0000       
 2850                            1585                            1586                                 21.2671      85.0000     132.0000       0.0000       
 2851                            1586                            1587                                 23.0887      85.0000     132.0000       0.0000       
 2852                            1579                            1588                                 11.7476      85.0000     132.0000       0.0000       
 2853                            1372                            1589                                  4.4192      85.0000     132.0000       0.0000       
 2854                            1590                            1591                                  0.4771      60.0000     132.0000       0.0000       
 2855                            1591                            1592                                112.0009      60.0000     132.0000       0.0000       
 2856                            1583                            1584                                 19.3312      85.0000     132.0000       0.0000       
 2859                            1562                            1563                                 17.2960      60.0000     132.0000       0.0000       
 2861                            1066                            825                                   1.9264      60.0000     132.0000       0.0000       
 2862                            1428                            123                                  22.0743      85.0000     142.0000       0.0000       
 2865                            376                             1550                                  1.2091      85.0000     132.0000       0.0000       
 2867                            1564                            1565                                  3.2662      85.0000     132.0000       0.0000       
 2877                            1746                            92                                   23.6401     200.0000      71.0000       0.0000       
 2878                            1592                            726                                   1.9807      60.0000     132.0000       0.0000       
 2879                            1594                            1595                                 13.6204     300.0000     135.0000       0.0000       
 2880                            1064                            1065                                  3.5768     150.0000     135.0000       0.0000       
 2897                            1593                            1594                                  7.7564     300.0000     135.0000       0.0000       
 2899                            1614                            624                                 398.7712      60.0000     132.0000       0.0000       
 2900                            1595                            1238                                 12.3686     300.0000     135.0000       0.0000       
 2901                            597                             1596                                174.5685      60.0000     132.0000       0.0000       
 2902                            1597                            1598                                109.0370      85.0000     142.0000       0.0000       
 2903                            1481                            1599                                216.3132      85.0000     142.0000       0.0000       
 2905                            1479                            1601                                 93.6833      85.0000     142.0000       0.0000       
 2906                            100                             744                                 189.9739      85.0000     142.0000       0.0000       
 2907                            42                              1615                                  4.5309      85.0000     132.0000       0.0000       
 2909                            1604                            1605                                 10.8215      85.0000     132.0000       0.0000       
 2910                            1605                            1606                                 26.1395      85.0000     132.0000       0.0000       
 2911                            1606                            1607                                 24.7474      85.0000     132.0000       0.0000       
 2912                            338                             1090                                398.8289      85.0000     132.0000       0.0000       
 2913                            1354                            1608                                 73.7439      60.0000     132.0000       0.0000       
 2915                            801                             1613                                114.4042      60.0000     132.0000       0.0000       
 2916                            1340                            735                                 179.6873      60.0000     132.0000       0.0000       
 2917                            422                             1832                                 27.2933     150.0000      59.0000       0.0000       
 2918                            1747                            1748                                 17.9193     200.0000      71.0000       0.0000       
 2919                            1749                            1750                                 16.0338     300.0000      76.0000       0.0000       
 2920                            1791                            1792                                 21.8590      85.0000     132.0000       0.0000       
 2921                            1792                            1793                                 27.9352      85.0000     132.0000       0.0000       
 2922                            1794                            1795                                 10.9314      60.0000     132.0000       0.0000       
 2923                            1795                            1796                                 16.5063      60.0000     132.0000       0.0000       
 2924                            1796                            1797                                 20.2864      60.0000     132.0000       0.0000       
 2925                            1797                            1798                                 25.0655      60.0000     132.0000       0.0000       
 2926                            1798                            1799                                 21.5918      60.0000     132.0000       0.0000       
 2927                            1799                            1800                                 20.4467      60.0000     132.0000       0.0000       
 2928                            1800                            1801                                 20.6073      60.0000     132.0000       0.0000       
 2929                            1801                            1802                                 25.8441      60.0000     132.0000       0.0000       
 2930                            1802                            1803                                 19.9525      60.0000     132.0000       0.0000       
 2931                            1803                            1804                                 20.5870      60.0000     132.0000       0.0000       
 2932                            1804                            1805                                 24.0638      60.0000     132.0000       0.0000       
 2933                            1805                            1806                                 18.8343      60.0000     132.0000       0.0000       
 2934                            1806                            1807                                  7.7989      60.0000     132.0000       0.0000       
 2935                            1790                            1791                                 26.1165      85.0000     132.0000       0.0000       
 2936                            1789                            1790                                 11.0071      85.0000     132.0000       0.0000       
 2937                            1246                            1788                                 19.2678     150.0000      59.0000       0.0000       
 2938                            1787                            1786                                 88.4295     100.0000      57.0000       0.0000       
 2939                            1775                            1776                                 15.9660     100.0000      67.0000       0.0000       
 2940                            1776                            1777                                 16.7922     100.0000      67.0000       0.0000       
 2941                            1778                            1597                                  3.0275      85.0000     142.0000       0.0000       
 2942                            1779                            1738                                  3.8421     200.0000     145.0000       0.0000       
 2943                            1052                            1780                                 18.0243     200.0000     145.0000       0.0000       
 2944                            1780                            1111                                  8.7857     200.0000     145.0000       0.0000       
 2945                            1113                            1052                                 17.9978     200.0000     145.0000       0.0000       
 2946                            1807                            1808                                 28.2242      60.0000     132.0000       0.0000       
 2947                            1781                            1782                                 17.8589     200.0000     145.0000       0.0000       
 2948                            1115                            1781                                 15.2997     200.0000     145.0000       0.0000       
 2949                            1050                            1779                                104.1726     200.0000     145.0000       0.0000       
 2950                            597                             1330                                 87.2780     100.0000      57.0000       0.0000       
 2951                            1783                            1784                                  0.4824     200.0000     135.0000       0.0000       
 2952                            1784                            1320                                 65.2117     200.0000     135.0000       0.0000       
 2953                            268                             1785                                 27.2066     200.0000     135.0000       0.0000       
 2954                            1242                            727                                  86.4617     150.0000      59.0000       0.0000       
 2955                            1782                            1113                                 32.9955     200.0000     145.0000       0.0000       
 2956                            1808                            1809                                 21.3996      60.0000     132.0000       0.0000       
 2957                            1809                            1810                                 18.1279      60.0000     132.0000       0.0000       
 2958                            1810                            1811                                 22.1740      60.0000     132.0000       0.0000       
 2959                            415                             1825                                  3.2421      85.0000     132.0000       0.0000       
 2960                            414                             1826                                  3.5167      85.0000     132.0000       0.0000       
 2961                            414                             1827                                  3.6053      85.0000     132.0000       0.0000       
 2962                            1225                            633                                   3.4759      85.0000     132.0000       0.0000       
 2963                            1225                            1828                                  3.3207      85.0000     132.0000       0.0000       
 2964                            1816                            1840                                  3.4584      60.0000     132.0000       0.0000       
 2965                            1839                            1836                                  3.3863      60.0000     132.0000       0.0000       
 2966                            476                             1824                                  3.4151      85.0000     132.0000       0.0000       
 2967                            1837                            1838                                  6.0382      60.0000     132.0000       0.0000       
 2968                            273                             1829                                  3.7202      60.0000     132.0000       0.0000       
 2969                            272                             926                                   3.3018      60.0000     132.0000       0.0000       
 2970                            1787                            1830                                  3.9968      60.0000     132.0000       0.0000       
 2971                            1831                            794                                   2.9238      60.0000     132.0000       0.0000       
 2972                            1831                            478                                  86.9242     150.0000      59.0000       0.0000       
 2973                            1834                            1835                                372.5778     150.0000      59.0000       0.0000       
 2974                            1832                            1831                                 86.3262     150.0000      59.0000       0.0000       
 2975                            1836                            769                                 398.1747      60.0000     132.0000       0.0000       
 2977                            271                             708                                   3.1700      60.0000     132.0000       0.0000       
 2978                            417                             639                                   3.9385      85.0000     132.0000       0.0000       
 2979                            1811                            1812                                 19.0025      60.0000     132.0000       0.0000       
 2980                            1812                            1813                                 22.4756      60.0000     132.0000       0.0000       
 2981                            1813                            1814                                 13.1485      60.0000     132.0000       0.0000       
 2982                            1814                            1789                                  4.9334      60.0000     132.0000       0.0000       
 2983                            1217                            1815                                  1.1402     150.0000      59.0000       0.0000       
 2984                            1816                            1817                                  1.7978     100.0000      57.0000       0.0000       
 2985                            346                             1818                                  1.7277      85.0000     132.0000       0.0000       
 2986                            269                             860                                   6.6046      60.0000     132.0000       0.0000       
 2987                            607                             826                                   3.5221      85.0000     132.0000       0.0000       
 2988                            1216                            1819                                  4.3547      85.0000     132.0000       0.0000       
 2989                            406                             416                                  81.8135     100.0000      57.0000       0.0000       
 2990                            856                             1793                                  1.3170      60.0000     132.0000       0.0000       
 2991                            1213                            1820                                  3.2892      85.0000     132.0000       0.0000       
 2992                            1213                            1821                                  3.4250      85.0000     132.0000       0.0000       
 2993                            480                             1822                                  4.1639      85.0000     132.0000       0.0000       
 2994                            26                              1823                                 78.7587     100.0000      57.0000       0.0000       
 2995                            1216                            719                                   4.3431      85.0000     132.0000       0.0000       
 2997                            1391                            1842                                  3.4280      60.0000     132.0000       0.0000       
 2998                            1843                            328                                 193.7298      60.0000     132.0000       0.0000       
 2999                            1771                            1762                                 15.1415     100.0000      67.0000       0.0000       
 3000                            1772                            1773                                 13.2795     100.0000      67.0000       0.0000       
 3001                            1773                            1774                                 15.8610     100.0000      67.0000       0.0000       
 3002                            1774                            1757                                  8.2295     100.0000      67.0000       0.0000       
 3006                            1757                            1771                                 10.6555     100.0000      67.0000       0.0000       
 3017                            1762                            1770                                  2.6336     100.0000      67.0000       0.0000       
 3018                            1766                            1767                                  3.1098      85.0000     142.0000       0.0000       
 3019                            1750                            1742                                 24.5305     300.0000      76.0000       0.0000       
 3020                            580                             159                                  53.6270     200.0000      71.0000       0.0000       
 3021                            131                             1751                                 14.4879     300.0000      76.0000       0.0000       
 3022                            1751                            1752                                 12.4537     300.0000      76.0000       0.0000       
 3023                            1752                            1753                                  7.8778     300.0000      76.0000       0.0000       
 3024                            1753                            1740                                 17.2792     300.0000      76.0000       0.0000       
 3025                            1754                            1755                                110.7711      50.0000      67.0000       0.0000       
 3026                            1768                            1769                                  0.3621     300.0000      76.0000       0.0000       
 3027                            1755                            1756                                 49.9100      50.0000      67.0000       0.0000       
 3028                            1476                            1759                                 15.9773     100.0000      67.0000       0.0000       
 3029                            1759                            1760                                 14.2718     100.0000      67.0000       0.0000       
 3030                            1761                            657                                   2.3132      85.0000     142.0000       0.0000       
 3031                            1762                            1763                                 10.1974     100.0000      67.0000       0.0000       
 3032                            1763                            1764                                 15.5650     100.0000      67.0000       0.0000       
 3033                            1764                            1765                                 15.6252     100.0000      67.0000       0.0000       
 3034                            1765                            1761                                 14.1577     100.0000      67.0000       0.0000       
 3035                            1757                            1758                                  3.4615     100.0000      67.0000       0.0000       
 3036                            1741                            1749                                 16.1157     300.0000      76.0000       0.0000       
 3039                            591                             1904                                 58.3635      60.0000     132.0000       0.0000       
 3040                            1661                            1890                                  2.3243     350.0000     135.0000       0.0000       
 3041                            1661                            1240                                  4.8730      85.0000     142.0000       0.0000       
 3042                            397                             1883                                 83.2500     110.0000     142.0000       0.0000       
 3043                            1883                            1473                                 79.3042     110.0000     142.0000       0.0000       
 3044                            1472                            1469                                  8.7999     110.0000     142.0000       0.0000       
 3045                            616                             1868                                  2.8123      60.0000     132.0000       0.0000       
 3046                            588                             1513                                 59.0763     100.0000     132.0000       0.0000       
 3047                            1590                            1867                                  0.9957      60.0000     132.0000       0.0000       
 3048                            1383                            1858                                  3.2049     150.0000     125.0000       0.0000       
 3049                            1857                            1856                                 73.8771      60.0000     132.0000       0.0000       
 3050                            1856                            1641                                 88.2346      60.0000     132.0000       0.0000       
 3051                            1641                            1639                                 86.2443      60.0000     132.0000       0.0000       
 3052                            1846                            1845                                 10.3787     100.0000      67.0000       0.0000       
 3053                            1845                            153                                  10.5591     100.0000      67.0000       0.0000       
 3054                            1844                            652                                  26.8641      85.0000     142.0000       0.0000       
 3055                            1864                            1865                                  2.3393      60.0000     132.0000       0.0000       
 3057                            48                              1730                                  2.9319      85.0000     132.0000       0.0000       
 3058                            1735                            1844                                 38.8531      85.0000     142.0000       0.0000       
 3063                            1135                            1914                                 76.6412     100.0000      67.0000       0.0000       
 3065                            1913                            1914                                 54.0188      50.0000     142.0000       0.0000       
 3066                            48                              1834                                  5.8252      85.0000     132.0000       0.0000       
 3067                            1108                            1846                                 43.4982      75.0000     142.0000       0.0000       
 3068                            1911                            1912                                 18.3493      85.0000     132.0000       0.0000       
 3069                            1910                            1911                                 13.6207      85.0000     132.0000       0.0000       
 3070                            1909                            1910                                 53.9067      85.0000     132.0000       0.0000       
 3071                            1908                            1909                                 35.9888      85.0000     132.0000       0.0000       
 3072                            1907                            1908                                  9.8397      85.0000     132.0000       0.0000       
 3073                            1906                            1907                                 11.8746      85.0000     132.0000       0.0000       
 3074                            1905                            1906                                 38.8404      85.0000     132.0000       0.0000       
 3075                            761                             487                                  57.0533     100.0000     132.0000       0.0000       
 3079                            2170                            1837                                  7.0788      85.0000     132.0000       0.0000       
 3080                            2169                            1331                                 10.2957     100.0000      57.0000       0.0000       
 3081                            2149                            2169                                 43.1068     100.0000      57.0000       0.0000       
 3082                            417                             2168                                 42.4965     100.0000      57.0000       0.0000       
 3083                            1517                            799                                   3.1149      60.0000     132.0000       0.0000       
 3084                            2168                            1787                                 11.1401     100.0000      57.0000       0.0000       
 3085                            2167                            752                                  10.5753     100.0000      57.0000       0.0000       
 3086                            607                             2166                                 20.4985     100.0000      57.0000       0.0000       
 3087                            1225                            2165                                 39.7534     150.0000     135.0000       0.0000       
 3088                            2165                            273                                  13.6384     150.0000     135.0000       0.0000       
 3089                            2164                            1066                                  5.8531     150.0000      59.0000       0.0000       
 3090                            2163                            2164                                  2.8107     150.0000      59.0000       0.0000       
 3091                            2162                            2163                                 44.0286     150.0000      59.0000       0.0000       
 3092                            2161                            2160                                  4.8955      60.0000     132.0000       0.0000       
 3093                            2160                            2155                                  0.3391      60.0000     132.0000       0.0000       
 3094                            720                             2170                                 43.4359      85.0000     132.0000       0.0000       
 3095                            2143                            2157                                 38.1006      85.0000     132.0000       0.0000       
 3096                            2171                            2172                                  3.7970      60.0000     132.0000       0.0000       
 3097                            1203                            1516                                  3.5921      60.0000     132.0000       0.0000       
 3098                            596                             866                                   3.3899      60.0000     132.0000       0.0000       
 3099                            1509                            1510                                  7.5214      60.0000     132.0000       0.0000       
 3100                            759                             1511                                  3.5471      60.0000     132.0000       0.0000       
 3101                            62                              1512                                  3.6219      60.0000     132.0000       0.0000       
 3102                            62                              807                                   3.9797      60.0000     132.0000       0.0000       
 3103                            1075                            245                                   3.6470      60.0000     132.0000       0.0000       
 3104                            2176                            1372                                405.2542     150.0000      59.0000       0.0000       
 3105                            2172                            611                                 401.2250      60.0000     132.0000       0.0000       
 3106                            2171                            2175                                  5.6979      85.0000     132.0000       0.0000       
 3107                            2175                            2174                                  1.2491      85.0000     132.0000       0.0000       
 3108                            59                              2174                                 99.4565     150.0000      59.0000       0.0000       
 3109                            1075                            609                                   3.5084      60.0000     132.0000       0.0000       
 3110                            1513                            1514                                  3.6179      60.0000     132.0000       0.0000       
 3111                            2174                            61                                   81.5933     150.0000      59.0000       0.0000       
 3112                            1202                            1515                                  3.2408      60.0000     132.0000       0.0000       
 3113                            2173                            2171                                 87.5065      85.0000     132.0000       0.0000       
 3114                            2159                            2155                                  2.4811      50.0000      57.0000       0.0000       
 3115                            2158                            2159                                172.6416      60.0000     132.0000       0.0000       
 3116                            2157                            407                                  13.4603      85.0000     132.0000       0.0000       
 3117                            2148                            1232                                 52.4076     100.0000      57.0000       0.0000       
 3118                            803                             2147                                 88.0418      60.0000     132.0000       0.0000       
 3119                            1516                            2146                                173.2219      60.0000     132.0000       0.0000       
 3120                            2144                            2145                                171.7344      60.0000     132.0000       0.0000       
 3121                            1530                            689                                 114.8079      60.0000     132.0000       0.0000       
 3122                            2143                            709                                   3.2596      60.0000     132.0000       0.0000       
 3123                            407                             787                                   3.8854      85.0000     132.0000       0.0000       
 3124                            406                             2142                                  3.6036      85.0000     132.0000       0.0000       
 3125                            1517                            1485                                 71.8781      85.0000     132.0000       0.0000       
 3126                            1166                            2141                                  5.3966      85.0000     132.0000       0.0000       
 3127                            1513                            645                                  51.8930      85.0000      57.0000       0.0000       
 3128                            1838                            298                                 171.3380      60.0000     132.0000       0.0000       
 3130                            592                             2140                                 81.2566      60.0000     132.0000       0.0000       
 3131                            590                             2140                                113.3431      60.0000     132.0000       0.0000       
 3132                            2149                            2148                                196.9195     100.0000      57.0000       0.0000       
 3133                            418                             265                                  56.9052     150.0000      59.0000       0.0000       
 3134                            261                             418                                  43.9973     100.0000      57.0000       0.0000       
 3135                            1529                            977                                  56.8410     150.0000      59.0000       0.0000       
 3136                            2143                            2156                                122.6208      50.0000      57.0000       0.0000       
 3137                            2156                            266                                   1.2399      50.0000      57.0000       0.0000       
 3138                            409                             2156                                 51.3450     100.0000      57.0000       0.0000       
 3141                            2155                            1203                                 77.2301      85.0000      57.0000       0.0000       
 3142                            732                             2154                                  0.9136     200.0000      61.0000       0.0000       
 3143                            2174                            2176                                  1.3000     150.0000      59.0000       0.0000       
 3144                            2154                            734                                  53.2808     200.0000      61.0000       0.0000       
 3145                            2151                            2150                                 50.6756      60.0000     132.0000       0.0000       
 3146                            2150                            2152                                 87.8206      85.0000     132.0000       0.0000       
 3147                            1165                            2153                                 10.4083      85.0000     132.0000       0.0000       
 3148                            2152                            1165                                 75.6449      85.0000     132.0000       0.0000       
 3149                            2151                            661                                   3.0284      60.0000     132.0000       0.0000       
 3150                            662                             2140                                 59.7690      60.0000     132.0000       0.0000       
 3151                            2150                            806                                   3.3860      60.0000     132.0000       0.0000       
 3152                            1529                            477                                  39.6046     150.0000     135.0000       0.0000       
 3153                            2177                            2178                                  0.9895     110.0000     132.0000       0.0000       
 3154                            2178                            2179                                 14.6598     100.0000      57.0000       0.0000       
 3155                            2103                            2177                                 50.7771     110.0000     132.0000       0.0000       
 3156                            1142                            572                                   4.0062      75.0000      67.0000       0.0000       
 3157                            746                             137                                  56.1190     150.0000     145.0000       0.0000       
 3158                            1020                            746                                  40.7577     150.0000     145.0000       0.0000       
 3159                            1048                            1427                                 20.0082     200.0000     145.0000       0.0000       
 3160                            1427                            1115                                 34.5674     200.0000     145.0000       0.0000       
 3161                            1073                            1050                                 14.0414     200.0000     145.0000       0.0000       
 3162                            1428                            1429                                 22.0800     300.0000     145.0000       0.0000       
 3166                            1463                            830                                   3.8593      60.0000     132.0000       0.0000       
 3167                            1464                            1465                                  3.1827      60.0000     132.0000       0.0000       
 3168                            1099                            2184                                 55.1545      85.0000     142.0000       0.0000       
 3169                            2183                            1904                                  2.4829      60.0000     132.0000       0.0000       
 3170                            2182                            2178                                  0.9882      60.0000     132.0000       0.0000       
 3171                            2184                            2185                                  1.3312      85.0000     142.0000       0.0000       
 3172                            1155                            131                                  19.5439     300.0000      76.0000       0.0000       
 3173                            2185                            2186                                  0.7410      85.0000     142.0000       0.0000       
 3174                            2186                            2187                                  8.2997     100.0000     142.0000       0.0000       
 3179                            1402                            1403                                198.2891      60.0000     132.0000       0.0000       
 3190                            2187                            2188                                  1.8133     100.0000     142.0000       0.0000       
 3192                            1351                            1348                                  5.0839      60.0000     132.0000       0.0000       
 3194                            1471                            1472                                  7.0000     110.0000     142.0000       0.0000       
 3199                            331                             2179                                 59.7520     110.0000     132.0000       0.0000       
 3206                            1358                            1507                                  3.8464      60.0000     132.0000       0.0000       
 3207                            1511                            2180                                401.1647      85.0000     132.0000       0.0000       
 3208                            2179                            2181                                  1.6703      85.0000     132.0000       0.0000       
 3209                            2180                            2179                                  1.6700      85.0000     132.0000       0.0000       
 3214                            1473                            1471                                 13.0004     110.0000     142.0000       0.0000       
 3215                            1474                            1470                                  7.5222     110.0000     142.0000       0.0000       
 3216                            1475                            1476                                  0.7014      85.0000     142.0000       0.0000       
 3217                            1477                            100                                   3.0198      85.0000     142.0000       0.0000       
 3218                            1478                            1479                                  2.8970      85.0000     142.0000       0.0000       
 3219                            1480                            1481                                  3.1585      85.0000     142.0000       0.0000       
 3220                            403                             2182                                180.5477      60.0000     132.0000       0.0000       
 3221                            1469                            1470                                  3.8395     110.0000     142.0000       0.0000       
 3222                            1346                            1482                                  3.6849      60.0000     132.0000       0.0000       
 3223                            1483                            1484                                  2.8970      60.0000     132.0000       0.0000       
 3224                            1485                            58                                    3.7350      85.0000     132.0000       0.0000       
 3230                            2181                            1352                                114.2372      85.0000     132.0000       0.0000       
 3231                            781                             2139                                  4.7812      60.0000     132.0000       0.0000       
 3232                            761                             655                                   4.4738      60.0000     132.0000       0.0000       
 3233                            1347                            2137                                  1.8607     150.0000      59.0000       0.0000       
 3234                            1999                            2000                                 16.4185      75.0000     132.0000       0.0000       
 3235                            1509                            593                                  87.2867      85.0000     132.0000       0.0000       
 3236                            593                             1837                                 90.1885      85.0000     132.0000       0.0000       
 3237                            1998                            1170                                  5.1501     200.0000      71.0000       0.0000       
 3238                            859                             1402                                 82.8684      85.0000     132.0000       0.0000       
 3239                            1343                            929                                  49.1132     100.0000     132.0000       0.0000       
 3240                            610                             1997                                 86.8580      85.0000     132.0000       0.0000       
 3242                            623                             1996                                  5.1022      60.0000     132.0000       0.0000       
 3243                            1634                            329                                  88.3276      85.0000     132.0000       0.0000       
 3248                            1368                            1993                                  2.7579      60.0000     132.0000       0.0000       
 3250                            344                             1634                                 47.5173      85.0000     132.0000       0.0000       
 3253                            2005                            2006                                  5.4830     100.0000      67.0000       0.0000       
 3254                            2023                            2024                                 25.5678      60.0000     132.0000       0.0000       
 3255                            2022                            2023                                 21.1243      60.0000     132.0000       0.0000       
 3256                            2021                            2022                                 25.5589      60.0000     132.0000       0.0000       
 3257                            2020                            2021                                 27.4394      60.0000     132.0000       0.0000       
 3258                            2019                            2020                                 10.1376      60.0000     132.0000       0.0000       
 3259                            2017                            2018                                  0.6478     100.0000      67.0000       0.0000       
 3260                            86                              2016                                 44.6171     100.0000      67.0000       0.0000       
 3261                            2003                            2004                                  3.0179     100.0000      67.0000       0.0000       
 3262                            2016                            2011                                 55.9105     100.0000      67.0000       0.0000       
 3263                            2013                            2014                                 24.7028     100.0000      67.0000       0.0000       
 3264                            2013                            444                                   3.9693     100.0000      67.0000       0.0000       
 3265                            2011                            2012                                  4.3703     100.0000      67.0000       0.0000       
 3266                            2009                            2010                                 56.7864      60.0000     132.0000       0.0000       
 3267                            2008                            2004                                  0.0914     100.0000      67.0000       0.0000       
 3268                            2007                            2008                                 21.8311     100.0000      67.0000       0.0000       
 3269                            2006                            2007                                  6.3253     100.0000      67.0000       0.0000       
 3270                            2011                            2015                                  3.7559     100.0000      67.0000       0.0000       
 3271                            1529                            1530                                  3.3672      60.0000     132.0000       0.0000       
 3294                            408                             1531                                  3.4194      60.0000     132.0000       0.0000       
 3311                            487                             2138                                  3.6519      60.0000     132.0000       0.0000       
 3312                            2024                            2025                                 19.7701      60.0000     132.0000       0.0000       
 3313                            1071                            422                                  59.5323     150.0000      59.0000       0.0000       
 3314                            2026                            2027                                 23.2309      60.0000     132.0000       0.0000       
 3315                            931                             1336                                133.1909      60.0000     132.0000       0.0000       
 3316                            2098                            404                                 128.4319      60.0000     132.0000       0.0000       
 3317                            2125                            2126                                 58.0257      50.0000      57.0000       0.0000       
 3318                            793                             2124                                 58.7429      50.0000      57.0000       0.0000       
 3319                            2122                            1157                                 70.1704     150.0000      59.0000       0.0000       
 3320                            2120                            1358                                 92.4649     250.0000     135.0000       0.0000       
 3321                            2122                            2123                                  6.0377      60.0000     132.0000       0.0000       
 3322                            2092                            2125                                127.3226      60.0000     132.0000       0.0000       
 3323                            2120                            2121                                  4.8007      60.0000     132.0000       0.0000       
 3324                            2103                            50                                    5.1104      60.0000     132.0000       0.0000       
 3325                            2114                            749                                 213.6335      85.0000     142.0000       0.0000       
 3326                            2112                            2113                                  3.0598      85.0000     142.0000       0.0000       
 3327                            2111                            870                                   2.8481      85.0000     142.0000       0.0000       
 3328                            754                             743                                 227.7328      85.0000     142.0000       0.0000       
 3329                            52                              2106                                  3.6836     100.0000      57.0000       0.0000       
 3330                            54                              714                                  49.6803     110.0000     132.0000       0.0000       
 3331                            2101                            2119                                 18.3768     110.0000     132.0000       0.0000       
 3332                            2025                            2026                                 21.8854      60.0000     132.0000       0.0000       
 3333                            55                              792                                   4.6265      60.0000     132.0000       0.0000       
 3334                            2129                            396                                   7.8969      60.0000     132.0000       0.0000       
 3335                            662                             1514                                112.2075      60.0000     132.0000       0.0000       
 3336                            645                             1517                                 86.1001      85.0000      57.0000       0.0000       
 3337                            61                              2136                                  3.1947      60.0000     132.0000       0.0000       
 3338                            57                              1376                                 55.1023     200.0000      61.0000       0.0000       
 3339                            1376                            2135                                  3.8168     200.0000      61.0000       0.0000       
 3340                            1482                            730                                   9.6589     200.0000      61.0000       0.0000       
 3341                            730                             1344                                 34.5912     200.0000      61.0000       0.0000       
 3342                            2127                            2128                                  5.4305      60.0000     132.0000       0.0000       
 3343                            41                              2134                                  5.3080      60.0000     132.0000       0.0000       
 3344                            57                              804                                   4.9192      60.0000     132.0000       0.0000       
 3345                            731                             1341                                181.6884      60.0000     132.0000       0.0000       
 3346                            2132                            2133                                407.6126     300.0000      66.0000       0.0000       
 3347                            2130                            2131                                 72.6477     300.0000      66.0000       0.0000       
 3348                            682                             2121                                394.2194      60.0000     132.0000       0.0000       
 3349                            805                             1345                                 59.5651      60.0000     132.0000       0.0000       
 3350                            2105                            2127                                 49.8532      60.0000     132.0000       0.0000       
 3351                            2134                            751                                 171.5171      60.0000     132.0000       0.0000       
 3352                            2104                            2100                                 26.9983     110.0000     132.0000       0.0000       
 3353                            2105                            714                                  59.1439     110.0000     132.0000       0.0000       
 3354                            932                             2099                                 11.6233     110.0000     132.0000       0.0000       
 3355                            2041                            2042                                 22.0079      85.0000     132.0000       0.0000       
 3356                            2100                            932                                  70.3676     110.0000     132.0000       0.0000       
 3357                            2040                            2041                                 26.4906      85.0000     132.0000       0.0000       
 3359                            1604                            2040                                 27.5109      85.0000     132.0000       0.0000       
 3360                            481                             2039                                 89.6656      85.0000     132.0000       0.0000       
 3361                            2042                            2043                                 27.6856      85.0000     132.0000       0.0000       
 3362                            2037                            2038                                  4.6858      60.0000     132.0000       0.0000       
 3363                            2035                            2036                                 20.1358      60.0000     132.0000       0.0000       
 3364                            2034                            2035                                  5.2651      60.0000     132.0000       0.0000       
 3365                            2032                            2033                                 12.6928      60.0000     135.0000       0.0000       
 3366                            627                             2028                                 21.0525      60.0000     132.0000       0.0000       
 3367                            267                             2031                                  4.1332     200.0000     137.0000       0.0000       
 3369                            2036                            2037                                  2.5555      60.0000     132.0000       0.0000       
 3370                            2043                            2044                                 14.5946      85.0000     132.0000       0.0000       
 3371                            2045                            2046                                 79.4356      60.0000     132.0000       0.0000       
 3372                            2045                            712                                   6.4675      60.0000     132.0000       0.0000       
 3373                            2099                            2102                                 58.4391     110.0000     132.0000       0.0000       
 3374                            2102                            2103                                 12.7691     110.0000     132.0000       0.0000       
 3375                            2100                            2101                                 29.3501     110.0000     132.0000       0.0000       
 3376                            2099                            2096                                 27.3503      60.0000     132.0000       0.0000       
 3377                            2097                            2098                                  3.6311      60.0000     132.0000       0.0000       
 3378                            627                             788                                  19.1500      85.0000     132.0000       0.0000       
 3379                            2096                            2097                                 21.1071      60.0000     132.0000       0.0000       
 3380                            54                              2092                                  4.9036      60.0000     132.0000       0.0000       
 3381                            1129                            1608                                  7.1472     100.0000      57.0000       0.0000       
 3383                            2028                            2029                                 35.9944      60.0000     132.0000       0.0000       
 3385                            777                             2047                                 74.2783      60.0000     132.0000       0.0000       
 3386                            2047                            2048                                  4.2703      60.0000     132.0000       0.0000       
 3387                            2434                            2435                                 21.7669      60.0000     132.0000       0.0000       
 3388                            70                              71                                    7.5396      60.0000     132.0000       0.0000       
 3389                            72                              73                                    2.9110      60.0000     132.0000       0.0000       
 3390                            2220                            2221                                 22.2482      60.0000     132.0000       0.0000       
 3391                            1871                            1872                                 21.4434      60.0000     132.0000       0.0000       
 3392                            2219                            1406                                 23.5042      60.0000     132.0000       0.0000       
 3393                            2258                            2259                                 32.9875      60.0000     132.0000       0.0000       
 3394                            2256                            2257                                 12.7849      60.0000     132.0000       0.0000       
 3395                            1994                            1995                                 40.4419      60.0000     132.0000       0.0000       
 3396                            1869                            1870                                 34.0188      60.0000     132.0000       0.0000       
 3397                            68                              69                                   24.4843      60.0000     132.0000       0.0000       
 3398                            1394                            1395                                 19.7578      60.0000     132.0000       0.0000       
 3399                            2911                            1398                                  5.2087      60.0000     132.0000       0.0000       
 3400                            2259                            2256                                 10.4242      60.0000     132.0000       0.0000       
 3401                            2901                            1643                                 12.7899      60.0000     132.0000       0.0000       
 3402                            2900                            2901                                 33.1128      60.0000     132.0000       0.0000       
 3403                            2258                            2900                                 20.0255      60.0000     132.0000       0.0000       
 3404                            2899                            1869                                 10.9261      60.0000     132.0000       0.0000       
 3405                            2898                            2899                                 20.3027      60.0000     132.0000       0.0000       
 3406                            2897                            2898                                 23.4346      60.0000     132.0000       0.0000       
 3407                            2896                            2897                                 21.3105      60.0000     132.0000       0.0000       
 3408                            2895                            2896                                 24.5592      60.0000     132.0000       0.0000       
 3409                            2894                            2895                                 57.8838      60.0000     132.0000       0.0000       
 3410                            2902                            2256                                 16.9480      60.0000     132.0000       0.0000       
 3411                            2435                            2893                                 19.1233      60.0000     132.0000       0.0000       
 3412                            2892                            2890                                 19.3709      60.0000     132.0000       0.0000       
 3413                            2890                            2891                                 24.7135      60.0000     132.0000       0.0000       
 3414                            1426                            2889                                 19.4070      60.0000     132.0000       0.0000       
 3415                            2888                            1425                                 20.6873      60.0000     132.0000       0.0000       
 3416                            2887                            2888                                 35.7237      60.0000     132.0000       0.0000       
 3417                            2257                            2887                                 50.3213      60.0000     132.0000       0.0000       
 3418                            2886                            1410                                 45.0928      60.0000     132.0000       0.0000       
 3419                            2885                            2886                                 17.8667      60.0000     132.0000       0.0000       
 3420                            2884                            2885                                 17.0443      60.0000     132.0000       0.0000       
 3421                            2883                            2884                                 19.3097      60.0000     132.0000       0.0000       
 3422                            2893                            2892                                 21.2117      60.0000     132.0000       0.0000       
 3423                            2891                            2902                                 26.2025      60.0000     132.0000       0.0000       
 3424                            2257                            1994                                  1.6620      60.0000     132.0000       0.0000       
 3425                            1995                            70                                    3.2995      60.0000     132.0000       0.0000       
 3426                            1872                            2920                                  9.4147      60.0000     132.0000       0.0000       
 3427                            1400                            1396                                  1.6162      60.0000     132.0000       0.0000       
 3428                            2919                            1401                                 16.5556      60.0000     132.0000       0.0000       
 3429                            2918                            2919                                  1.4929      60.0000     132.0000       0.0000       
 3430                            2917                            2918                                  8.8657      60.0000     132.0000       0.0000       
 3431                            2221                            2917                                  7.3229      60.0000     132.0000       0.0000       
 3432                            2916                            2220                                 15.5180      60.0000     132.0000       0.0000       
 3433                            2915                            2916                                  1.3796      60.0000     132.0000       0.0000       
 3434                            2913                            2914                                  8.4734      60.0000     132.0000       0.0000       
 3435                            1395                            2913                                  8.5623      60.0000     132.0000       0.0000       
 3436                            2912                            1394                                 16.5887      60.0000     132.0000       0.0000       
 3437                            1405                            2911                                  3.4290      60.0000     132.0000       0.0000       
 3438                            2910                            1404                                 20.3051      60.0000     132.0000       0.0000       
 3439                            1409                            2910                                  1.7682      60.0000     132.0000       0.0000       
 3440                            1870                            2909                                  1.9646      60.0000     132.0000       0.0000       
 3441                            2869                            1416                                  5.2142      60.0000     132.0000       0.0000       
 3442                            1411                            2908                                  3.7255      60.0000     132.0000       0.0000       
 3443                            2859                            2907                                  3.0884      60.0000     132.0000       0.0000       
 3444                            2889                            2906                                  2.7239      60.0000     132.0000       0.0000       
 3445                            2434                            2905                                  4.4705      60.0000     132.0000       0.0000       
 3446                            1644                            2904                                 10.2111      60.0000     132.0000       0.0000       
 3447                            2903                            2904                                  1.0725      60.0000     132.0000       0.0000       
 3448                            71                              68                                   19.7495      60.0000     132.0000       0.0000       
 3449                            2882                            2883                                 33.8358      60.0000     132.0000       0.0000       
 3450                            2920                            2915                                  8.8224      60.0000     132.0000       0.0000       
 3451                            1418                            2882                                 20.0084      60.0000     132.0000       0.0000       
 3452                            2880                            2881                                 19.2695      60.0000     132.0000       0.0000       
 3453                            2854                            2855                                 19.8522      60.0000     132.0000       0.0000       
 3454                            2853                            1995                                 10.8263      60.0000     132.0000       0.0000       
 3455                            1729                            2730                                179.2512      60.0000     132.0000       0.0000       
 3456                            2314                            2730                                 97.6499      60.0000     132.0000       0.0000       
 3457                            1425                            1426                                 24.5823      60.0000     132.0000       0.0000       
 3458                            71                              1424                                 18.8014      60.0000     132.0000       0.0000       
 3459                            1422                            1423                                 19.6818      60.0000     132.0000       0.0000       
 3460                            1416                            1421                                 25.1211      60.0000     132.0000       0.0000       
 3461                            1420                            1418                                  9.8303      60.0000     132.0000       0.0000       
 3462                            1418                            1419                                 22.1730      60.0000     132.0000       0.0000       
 3463                            2856                            2854                                 18.2142      60.0000     132.0000       0.0000       
 3464                            1416                            1417                                 12.0523      60.0000     132.0000       0.0000       
 3465                            1412                            1413                                 71.6010      60.0000     132.0000       0.0000       
 3466                            1410                            1411                                 50.3665      60.0000     132.0000       0.0000       
 3467                            1408                            1409                                  6.4865      60.0000     132.0000       0.0000       
 3468                            1407                            1408                                  2.3894      60.0000     132.0000       0.0000       
 3469                            1406                            1407                                 20.0653      60.0000     132.0000       0.0000       
 3470                            1404                            1405                                 23.9976      60.0000     132.0000       0.0000       
 3471                            1401                            72                                   23.8729      60.0000     132.0000       0.0000       
 3472                            1399                            1400                                 44.4662      60.0000     132.0000       0.0000       
 3473                            1398                            1399                                  1.1418      60.0000     132.0000       0.0000       
 3474                            1396                            1397                                  7.5891      60.0000     132.0000       0.0000       
 3475                            1414                            1415                                 21.7556      60.0000     132.0000       0.0000       
 3476                            2857                            2856                                 19.7340      60.0000     132.0000       0.0000       
 3477                            2858                            2857                                 20.1498      60.0000     132.0000       0.0000       
 3478                            2503                            2858                                 20.4912      60.0000     132.0000       0.0000       
 3479                            2879                            2880                                 18.3410      60.0000     132.0000       0.0000       
 3480                            2878                            2879                                 51.1085      60.0000     132.0000       0.0000       
 3481                            2877                            2878                                 17.0761      60.0000     132.0000       0.0000       
 3482                            1420                            2877                                  4.1532      60.0000     132.0000       0.0000       
 3483                            2876                            1422                                 17.7639      60.0000     132.0000       0.0000       
 3484                            1423                            2875                                 26.8429      60.0000     132.0000       0.0000       
 3485                            2874                            2873                                 19.4767      60.0000     132.0000       0.0000       
 3486                            2873                            2872                                 20.7992      60.0000     132.0000       0.0000       
 3487                            2872                            2870                                 21.0274      60.0000     132.0000       0.0000       
 3488                            2871                            2868                                 26.5862      60.0000     132.0000       0.0000       
 3489                            2870                            2871                                  0.0030      60.0000     132.0000       0.0000       
 3490                            2868                            2869                                 15.7264      60.0000     132.0000       0.0000       
 3491                            1415                            2867                                 27.0084      60.0000     132.0000       0.0000       
 3492                            2866                            1414                                 21.5770      60.0000     132.0000       0.0000       
 3493                            2865                            2866                                 27.8270      60.0000     132.0000       0.0000       
 3494                            2864                            2865                                 39.8862      60.0000     132.0000       0.0000       
 3495                            2863                            2864                                 20.0400      60.0000     132.0000       0.0000       
 3496                            2862                            2863                                 25.8192      60.0000     132.0000       0.0000       
 3497                            2861                            2862                                 20.3528      60.0000     132.0000       0.0000       
 3498                            1417                            2861                                  3.1934      60.0000     132.0000       0.0000       
 3499                            1421                            1420                                 18.4966      60.0000     132.0000       0.0000       
 3500                            1419                            2860                                 22.2250      60.0000     132.0000       0.0000       
 3501                            2859                            2502                                 20.2481      60.0000     132.0000       0.0000       
 3502                            2881                            1412                                 19.1632      60.0000     132.0000       0.0000       
 3503                            1643                            1644                                 75.9330      60.0000     132.0000       0.0000       
 3504                            2875                            2874                                 34.1209      60.0000     132.0000       0.0000       
 3505                            2502                            2503                                 20.9412      60.0000     132.0000       0.0000       
 3506                            3134                            3135                                 19.4585      60.0000     132.0000       0.0000       
 3507                            3133                            3134                                 21.8160      60.0000     132.0000       0.0000       
 3508                            3136                            3137                                 22.7913      60.0000     132.0000       0.0000       
 3509                            3135                            3136                                 20.3613      60.0000     132.0000       0.0000       
 3510                            1424                            3132                                 18.6840      60.0000     132.0000       0.0000       
 3511                            3131                            2894                                 13.0780      60.0000     132.0000       0.0000       
 3512                            3132                            3133                                 31.0001      60.0000     132.0000       0.0000       
 3513                            2914                            3241                                  1.8477      60.0000     132.0000       0.0000       
 3514                            3241                            1871                                 13.8872      60.0000     132.0000       0.0000       
 3515                            1397                            2912                                  1.3163      60.0000     132.0000       0.0000       
 3519                            1321                            1322                                 18.2915      50.0000     135.0000       0.0000       
 3521                            1322                            1323                                 15.3768      50.0000     135.0000       0.0000       
 3522                            1323                            1324                                 11.6057      50.0000     135.0000       0.0000       
 3523                            2051                            2049                                115.5087      50.0000     135.0000       0.0000       
 3524                            2052                            2051                                147.2371      50.0000     135.0000       0.0000       
 3527                            2049                            2050                                149.0738      50.0000     135.0000       0.0000       
 3531                            1324                            1325                                 10.0123      50.0000     135.0000       0.0000       
 3533                            2053                            2052                                140.8822      50.0000     135.0000       0.0000       
 3534                            2054                            2053                                125.7806      50.0000     135.0000       0.0000       
 3537                            2924                            2707                                  1.4853     350.0000     125.0000       0.0000       
 3538                            2309                            2054                                235.3237      50.0000     135.0000       0.0000       
 3541                            2310                            2311                                111.3647      85.0000     132.0000       0.0000       
 3543                            1325                            1326                                  3.4013      50.0000     135.0000       0.0000       
 3544                            1326                            1327                                  9.5639      50.0000     135.0000       0.0000       
 3551                            2939                            2964                                  0.2402      85.0000     132.0000       0.0000       
 3554                            2311                            2939                                 13.3324      85.0000     132.0000       0.0000       
 3555                            2962                            2963                                 26.2710      50.0000     135.0000       0.0000       
 3556                            2961                            2962                                 11.1352      50.0000     135.0000       0.0000       
 3557                            2050                            2310                                119.2368      60.0000     132.0000       0.0000       
 3559                            2959                            2960                                 17.8716      50.0000     135.0000       0.0000       
 3560                            2960                            2961                                 35.6322      50.0000     135.0000       0.0000       
 3561                            2957                            2958                                114.4278      50.0000     135.0000       0.0000       
 3562                            2948                            1321                                  0.3010      50.0000      50.0000       0.0000       
 3563                            780                             1328                                  5.9941      50.0000     135.0000       0.0000       
 3564                            1328                            1329                                  4.0685      50.0000     135.0000       0.0000       
 3567                            2958                            2959                                 13.6997      50.0000     135.0000       0.0000       
 3570                            2954                            2955                                 25.3649      50.0000     135.0000       0.0000       
 3571                            2955                            2956                                 17.7130      50.0000     135.0000       0.0000       
 3572                            2956                            2957                                 26.2534      50.0000     135.0000       0.0000       
 3574                            1329                            PM.VRP.GAM.004                        6.4356      50.0000     135.0000       0.0000       
 3576                            1327                            2954                                 13.4056      50.0000     135.0000       0.0000       
 3577                            3492                            3493                                 36.9602     400.0000      72.0000       0.0000       
 3578                            3489                            3490                                 13.5197     400.0000      72.0000       0.0000       
 3579                            371                             3489                                 38.8372     400.0000      72.0000       0.0000       
 3580                            3493                            3494                                 50.6777     400.0000      62.0000       0.0000       
 3581                            1226                            2628                                 19.8449     250.0000      66.0000       0.0000       
 3583                            1208                            3457                                  0.3738     300.0000      68.0000       0.0000       
 3584                            3482                            3483                                 12.0686     350.0000     135.0000       0.0000       
 3585                            355                             356                                  36.4714     400.0000      62.0000       0.0000       
 3586                            354                             355                                  35.8173     400.0000      62.0000       0.0000       
 3587                            353                             354                                  19.7345     400.0000      62.0000       0.0000       
 3588                            352                             353                                  21.3560     400.0000      62.0000       0.0000       
 3589                            351                             352                                  28.2696     400.0000      62.0000       0.0000       
 3590                            990                             991                                   6.9664     300.0000     135.0000       0.0000       
 3591                            872                             1226                                 11.3450     250.0000      66.0000       0.0000       
 3592                            989                             990                                  10.5124     300.0000     135.0000       0.0000       
 3594                            2660                            3458                                  0.8565     300.0000      68.0000       0.0000       
 3595                            3458                            1207                                 10.2488     300.0000      68.0000       0.0000       
 3596                            991                             3295                                  2.9780     300.0000     135.0000       0.0000       
 3597                            2647                            111                                   2.0530     300.0000      68.0000       0.0000       
 3598                            3294                            3481                                  9.9851     350.0000     135.0000       0.0000       
 3599                            3481                            3482                                  7.6050     350.0000     135.0000       0.0000       
 3600                            3483                            365                                   5.6259     350.0000     135.0000       0.0000       
 3601                            2631                            2632                                 15.3617     300.0000     135.0000       0.0000       
 3602                            3516                            3517                                 13.4259     400.0000      62.0000       0.0000       
 3603                            2633                            2634                                 20.6487     300.0000     135.0000       0.0000       
 3604                            3525                            3526                                 23.6980     400.0000      62.0000       0.0000       
 3605                            3526                            3527                                 20.8412     400.0000      62.0000       0.0000       
 3606                            3527                            3528                                 23.7036     400.0000      62.0000       0.0000       
 3607                            3528                            3529                                 20.8825     400.0000      62.0000       0.0000       
 3608                            3529                            3530                                 20.0764     400.0000      62.0000       0.0000       
 3609                            3530                            351                                   9.3650     400.0000      62.0000       0.0000       
 3610                            2643                            2644                                 19.4797     300.0000     135.0000       0.0000       
 3611                            2644                            2645                                 10.5648     300.0000     135.0000       0.0000       
 3612                            1207                            2647                                 10.8313     300.0000      68.0000       0.0000       
 3613                            2648                            2649                                  9.8004     300.0000      68.0000       0.0000       
 3614                            3524                            3525                                 12.5524     400.0000      62.0000       0.0000       
 3615                            2649                            2650                                 19.0799     300.0000      68.0000       0.0000       
 3616                            2651                            2652                                 14.7627     300.0000      68.0000       0.0000       
 3617                            2645                            2660                                 13.6746     300.0000      68.0000       0.0000       
 3618                            2628                            2648                                  4.7369     250.0000      66.0000       0.0000       
 3619                            3494                            3564                                 14.3231     400.0000      62.0000       0.0000       
 3620                            3564                            3565                                 28.3851     400.0000      62.0000       0.0000       
 3621                            3565                            3566                                 17.9264     400.0000      62.0000       0.0000       
 3622                            3566                            3567                                  7.5088     400.0000      62.0000       0.0000       
 3623                            3567                            3568                                  4.5899     400.0000      62.0000       0.0000       
 3624                            3568                            3569                                 14.8761     400.0000      62.0000       0.0000       
 3625                            3569                            3515                                 32.2179     400.0000      62.0000       0.0000       
 3626                            2650                            2651                                 27.0965     300.0000      68.0000       0.0000       
 3627                            3523                            3524                                 11.4345     400.0000      62.0000       0.0000       
 3628                            3522                            3523                                 10.5702     400.0000      62.0000       0.0000       
 3629                            3521                            3522                                 11.2082     400.0000      62.0000       0.0000       
 3630                            2634                            2635                                 18.1606     300.0000     135.0000       0.0000       
 3631                            2635                            2636                                 17.0996     300.0000     135.0000       0.0000       
 3632                            2636                            2637                                 14.2269     300.0000     135.0000       0.0000       
 3633                            2637                            2638                                 17.8237     300.0000     135.0000       0.0000       
 3634                            2638                            2639                                 18.3162     300.0000     135.0000       0.0000       
 3635                            2639                            2640                                 16.7689     300.0000     135.0000       0.0000       
 3636                            2640                            2641                                 17.3595     300.0000     135.0000       0.0000       
 3637                            2641                            2642                                 21.7802     300.0000     135.0000       0.0000       
 3638                            2642                            2643                                 19.3470     300.0000     135.0000       0.0000       
 3639                            3490                            3507                                  9.1440     400.0000      72.0000       0.0000       
 3640                            3507                            3508                                 65.5929     400.0000      72.0000       0.0000       
 3641                            3508                            3509                                 19.1212     400.0000      72.0000       0.0000       
 3642                            3509                            3510                                 17.3500     400.0000      72.0000       0.0000       
 3643                            3510                            3511                                 24.3858     400.0000      72.0000       0.0000       
 3644                            3511                            3512                                 28.9068     400.0000      72.0000       0.0000       
 3645                            3512                            3513                                 19.1278     400.0000      72.0000       0.0000       
 3646                            3513                            3514                                 31.1957     400.0000      72.0000       0.0000       
 3647                            3514                            3491                                 13.4866     400.0000      72.0000       0.0000       
 3648                            3515                            3516                                  2.8423     400.0000      62.0000       0.0000       
 3649                            3517                            3518                                  4.6338     400.0000      62.0000       0.0000       
 3650                            3518                            3519                                 10.9235     400.0000      62.0000       0.0000       
 3651                            3519                            3520                                 10.7340     400.0000      62.0000       0.0000       
 3652                            3520                            3521                                  5.5471     400.0000      62.0000       0.0000       
 3653                            2632                            2633                                 16.3554     300.0000     135.0000       0.0000       
 3654                            357                             358                                   8.0348     400.0000      62.0000       0.0000       
 3655                            356                             357                                  39.6258     400.0000      62.0000       0.0000       
 3656                            359                             360                                  17.8658     400.0000      62.0000       0.0000       
 3657                            3302                            3303                                 23.5054     100.0000      65.0000       0.0000       
 3658                            3303                            3304                                 17.1746     100.0000      65.0000       0.0000       
 3659                            358                             359                                  12.7387     400.0000      62.0000       0.0000       
 3660                            3305                            3306                                  5.0000     100.0000      65.0000       0.0000       
 3673                            2652                            2930                                 18.3393     300.0000     135.0000       0.0000       
 3674                            2930                            2931                                  0.0937     300.0000     135.0000       0.0000       
 3675                            2931                            988                                   1.5884     300.0000     135.0000       0.0000       
 3676                            1226                            1227                                  1.4057     100.0000      65.0000       0.0000       
 3678                            1207                            1208                                  1.6874     300.0000      68.0000       0.0000       
 3680                            3300                            3301                                  8.0033     110.0000      65.0000       0.0000       
 3681                            1781                            3300                                 20.5811     110.0000      65.0000       0.0000       
 3682                            3304                            3305                                 16.7815     100.0000      65.0000       0.0000       
 3683                            369                             370                                   9.6493     350.0000     135.0000       0.0000       
 3684                            367                             368                                  18.5677     350.0000     135.0000       0.0000       
 3685                            368                             369                                  16.4985     350.0000     135.0000       0.0000       
 3686                            370                             371                                   9.6264     350.0000     135.0000       0.0000       
 3687                            3292                            3293                                  7.6243     350.0000     135.0000       0.0000       
 3688                            3293                            3294                                  7.1971     350.0000     135.0000       0.0000       
 3689                            3295                            2631                                 13.7867     300.0000     135.0000       0.0000       
 3690                            1227                            3296                                  0.4029     100.0000      65.0000       0.0000       
 3691                            366                             367                                  42.7213     350.0000     135.0000       0.0000       
 3692                            365                             366                                  38.0452     350.0000     135.0000       0.0000       
 3693                            360                             361                                  24.1587     400.0000      62.0000       0.0000       
 3694                            361                             362                                  10.6055     400.0000      62.0000       0.0000       
 3695                            3291                            3292                                  4.8838     350.0000     135.0000       0.0000       
 3696                            2924                            3497                                  0.8926     350.0000     125.0000       0.0000       
 3697                            2058                            2059                                 20.6875     350.0000     135.0000       0.0000       
 3698                            2057                            2058                                 27.0593     350.0000     135.0000       0.0000       
 3700                            2066                            2067                                 18.9054     350.0000     135.0000       0.0000       
 3701                            2056                            2057                                 23.1553     350.0000     135.0000       0.0000       
 3702                            2067                            2068                                 10.4868     350.0000     135.0000       0.0000       
 3703                            2055                            2056                                 24.9345     350.0000     135.0000       0.0000       
 3704                            2070                            2071                                  9.7120     350.0000     135.0000       0.0000       
 3705                            2069                            2070                                 17.7467     350.0000     135.0000       0.0000       
 3706                            2068                            2069                                 28.6113     350.0000     135.0000       0.0000       
 3707                            1173                            2055                                  6.5009     350.0000     135.0000       0.0000       
 3708                            3500                            3501                                 28.6840     350.0000     135.0000       0.0000       
 3709                            3499                            3500                                 15.0684     350.0000     135.0000       0.0000       
 3710                            3498                            3499                                 20.4546     350.0000     135.0000       0.0000       
 3711                            3497                            3498                                  8.0380     350.0000     125.0000       0.0000       
 3712                            2071                            2072                                 31.8775     350.0000     135.0000       0.0000       
 3713                            3501                            1098                                  4.7816     350.0000     135.0000       0.0000       
 3714                            1098                            3538                                 17.4778     350.0000     135.0000       0.0000       
 3715                            2059                            2060                                 18.5884     350.0000     135.0000       0.0000       
 3716                            3571                            2576                                  4.7237     400.0000      62.0000       0.0000       
 3717                            3570                            3571                                  2.3859     400.0000      62.0000       0.0000       
 3718                            3338                            3339                                  9.1454     350.0000     135.0000       0.0000       
 3719                            3339                            3291                                  2.5277     350.0000     135.0000       0.0000       
 3720                            3558                            1173                                 10.6003     350.0000     135.0000       0.0000       
 3721                            3557                            3558                                 20.8529     350.0000     135.0000       0.0000       
 3722                            3556                            3557                                 22.4237     350.0000     135.0000       0.0000       
 3723                            3555                            3556                                 22.8611     350.0000     135.0000       0.0000       
 3724                            3554                            3555                                 27.1182     350.0000     135.0000       0.0000       
 3725                            3553                            3554                                 27.0411     350.0000     135.0000       0.0000       
 3726                            3552                            3553                                 23.8289     350.0000     135.0000       0.0000       
 3727                            3551                            3552                                 28.2842     350.0000     135.0000       0.0000       
 VZ1.AAT.GAM.070                 2576                            2577                                  7.2770     400.0000      62.0000       0.0000       
 3729                            3550                            3551                                 12.9086     350.0000     135.0000       0.0000       
 3730                            3548                            3549                                 26.5866     350.0000     135.0000       0.0000       
 3731                            3547                            3548                                 25.4569     350.0000     135.0000       0.0000       
 3732                            2539                            3547                                 11.0801     350.0000     135.0000       0.0000       
 3733                            3546                            2539                                 36.2754     350.0000     135.0000       0.0000       
 3734                            3545                            3546                                 11.7379     350.0000     135.0000       0.0000       
 3735                            3544                            3545                                 22.1325     350.0000     135.0000       0.0000       
 3736                            3543                            3544                                 18.2431     350.0000     135.0000       0.0000       
 3737                            3542                            3543                                 22.1172     350.0000     135.0000       0.0000       
 3738                            3541                            3542                                 34.8665     350.0000     135.0000       0.0000       
 3739                            3540                            3541                                 17.3420     350.0000     135.0000       0.0000       
 3740                            3539                            3540                                 21.7476     350.0000     135.0000       0.0000       
 3741                            3538                            3539                                 25.6416     350.0000     135.0000       0.0000       
 3742                            3549                            3550                                 19.2690     350.0000     135.0000       0.0000       
 3743                            2060                            2061                                  8.5396     350.0000     135.0000       0.0000       
 3744                            2065                            2066                                 10.2599     350.0000     135.0000       0.0000       
 3745                            2064                            2065                                 19.3505     350.0000     135.0000       0.0000       
 3746                            2063                            2064                                 21.4903     350.0000     135.0000       0.0000       
 3747                            3463                            3464                                 21.4817     350.0000     135.0000       0.0000       
 3748                            3462                            3463                                 21.8529     350.0000     135.0000       0.0000       
 3749                            3461                            3462                                 23.0218     350.0000     135.0000       0.0000       
 3750                            2072                            586                                   5.7376     350.0000     135.0000       0.0000       
 3751                            586                             3461                                  6.8376     350.0000     135.0000       0.0000       
 3752                            3465                            3338                                  5.7687     350.0000     135.0000       0.0000       
 3753                            2061                            2062                                 23.4831     350.0000     135.0000       0.0000       
 3754                            2062                            2063                                 26.7753     350.0000     135.0000       0.0000       
 3755                            3464                            3465                                 19.2866     350.0000     135.0000       0.0000       
 3772                            2939                            2940                                  6.5152      60.0000     132.0000       0.0000       
 3773                            2940                            2941                                 21.2538      60.0000     132.0000       0.0000       
 3774                            2941                            PM.VRP.GAM.005                       21.4190      60.0000     132.0000       0.0000       
 3775                            2943                            2944                                  4.7730      60.0000     132.0000       0.0000       
 3776                            2944                            2945                                 10.8918      60.0000     132.0000       0.0000       
 3779                            2946                            2947                                 56.4318      60.0000     132.0000       0.0000       
 3782                            2952                            2953                                  2.5766      60.0000     132.0000       0.0000       
 3783                            2945                            2953                                  0.5773      60.0000     132.0000       0.0000       
 3787                            2949                            2950                                  7.5403      60.0000     132.0000       0.0000       
 3794                            2950                            2952                                  0.3960      60.0000     132.0000       0.0000       
 3827                            2953                            2965                                 46.7702      60.0000     132.0000       0.0000       
 3828                            2965                            2946                                 20.8633      60.0000     132.0000       0.0000       
 3836                            1236                            3299                                  9.8413     200.0000     145.0000       0.0000       
 3842                            2471                            3405                                 15.4475      60.0000     132.0000       0.0000       
 3847                            3471                            3472                                 24.5025      60.0000     142.0000       0.0000       
 3848                            3470                            3471                                 13.9528      60.0000     142.0000       0.0000       
 3849                            3469                            3470                                 11.5355      60.0000     142.0000       0.0000       
 3850                            3468                            3469                                 10.4728      60.0000     142.0000       0.0000       
 3872                            2647                            3468                                  1.2791      60.0000     142.0000       0.0000       
 3873                            3466                            3467                                  0.4202     300.0000      68.0000       0.0000       
 3874                            872                             3302                                  0.9915     100.0000      65.0000       0.0000       
 3895                            113                             3466                                  0.9626     300.0000      68.0000       0.0000       
 3918                            3589                            3570                                  1.0000     400.0000      62.0000       0.0000       
 3920                            3194                            3196                                  1.0000      63.0000     140.0000       0.0000       
 3921                            3492                            1087                                 27.0000     400.0000      62.0000       0.0000       
 3922                            1087                            3491                                 20.0000     400.0000      62.0000       0.0000       
 3924                            988                             3293                                  4.0000     300.0000     125.0000       0.0000       
 3925                            3293                            989                                  10.0000     300.0000     125.0000       0.0000       
 52                              2929                            473                                   5.0000     400.0000      71.0000       0.0000       

[PUMPS]

[VALVES]
 VRP.GAM.005                     PM.VRP.GAM.005                  2949                                 50.0000   PRV      31.7500       0.0000 ;VRP.GAM.005
 VRP.GAM.004                     PM.VRP.GAM.004                  2948                                 50.0000   PRV       7.7700       0.0000
 VRP.GAM.003                     PM.VRP.GAM.003                  2714                                150.0000   PRV      16.4600       0.0000
 VRP.GAM.006                     PM.VRP.GAM.006                  2703                                150.0000   PRV      15.3300       0.0000
 VRP.GAM.018                     PM.VRP.GAM.018                  3478                                100.0000   PRV      15.0900       0.0000

[DEMANDS]
 1215                                  4.800000  UDA.002                        
 0                                     2.077449  UDA.002                        
 425                                   1.867449  UDA.002                        
 1473                                  1.620000  UDA.002                        
 6                                     1.328724  UDA.002                        
 1763                                  0.890000  UDA.002                        
 2261                                  0.734898  UDA.002                        
 1197                                  0.894898  UDA.002                        
 3183                                  0.698519  UDA.002                        
 286                                   0.378724  UDA.002                        
 1214                                  0.610000  UDA.002                        
 2289                                  0.560000  UDA.002                        
 7                                     0.520000  UDA.002                        
 1997                                  0.376173  UDA.002                        
 426                                   0.480000  UDA.002                        
 3090                                  0.178724  UDA.002                        
 2136                                  0.531071  UDA.002                        
 387                                   0.518519  UDA.002                        
 1830                                  0.128724  DMC.003                        
 1835                                  0.471071  DMC.003                        
 446                                   0.517449  UDA.002                        
 2121                                  0.296173  UDA.002                        
 1137                                  0.615968  UDA.002                        
 1597                                  0.228724  UDA.002                        
 789                                   0.471071  UDA.002                        
 2173                                  0.635968  UDA.002                        
 1196                                  0.458724  UDA.002                        
 1579                                  0.461071  UDA.002                        
 2032                                  0.286173  DMC.003                        
 1771                                  0.410000  UDA.002                        
 1332                                  0.258724  UDA.002                        
 650                                   0.412346  UDA.002                        
 39                                    0.158724  UDA.002                        
 2522                                  0.257449  UDA.002                        
 870                                   0.296173  UDA.002                        
 649                                   0.413622  UDA.002                        
 343                                   0.306173  UDA.002                        
 3188                                  0.218724  UDA.002                        
 330                                   0.160000  UDA.002                        
 320                                   0.313622  UDA.002                        
 2983                                  0.360000  UDA.002                        
 334                                   0.363622  UDA.002                        
 619                                   0.334898  DMC.003                        
 1999                                  0.461071  UDA.002                        
 43                                    0.284898  DMC.003                        
 2441                                  0.274898  UDA.002                        
 103                                   0.170000  UDA.002                        
 2440                                  0.266173  UDA.002                        
 341                                   0.180000  UDA.002                        
 1647                                  0.256173  UDA.002                        
 246                                   0.197449  UDA.002                        
 1364                                  0.451071  UDA.002                        
 108                                   0.158724  UDA.002                        
 2566                                  0.320000  UDA.002                        
 1839                                  0.478519  DMC.003                        
 926                                   0.421071  DMC.003                        
 80                                    0.392346  UDA.002                        
 160                                   0.160000  UDA.002                        
 100                                   0.188724  UDA.002                        
 1481                                  0.198724  UDA.002                        
 1479                                  0.266173  UDA.002                        
 1088                                  0.348724  UDA.002                        
 388                                   0.286173  UDA.002                        
 1820                                  0.246173  DMC.003                        
 1507                                  0.439795  UDA.002                        
 1107                                  0.300000  UDA.002                        
 2029                                  0.613417  DMC.003                        
 3070                                  0.070000  UDA.002                        
 1782                                  0.308724  UDA.002                        
 1110                                  0.342346  UDA.002                        
 245                                   0.256173  UDA.002                        
 2478                                  0.278724  UDA.002                        
 640                                   0.304898  DMC.003                        
 124                                   0.237449  UDA.002                        
 1339                                  0.197449  UDA.002                        
 1406                                  0.170000  UDA.002                        
 795                                   0.256173  DMC.003                        
 393                                   0.266173  DMC.003                        
 663                                   0.459795  UDA.002                        
 1242                                  0.060000  UDA.002                        
 1868                                  0.110000  UDA.002                        
 583                                   0.274898  UDA.002                        
 770                                   0.273622  DMC.003                        
 620                                   0.217449  DMC.003                        
 2008                                  0.260000  UDA.002                        
 1100                                  0.352346  UDA.002                        
 2172                                  0.148724  UDA.002                        
 2448                                  0.217449  DMC.003                        
 2627                                  0.458519  UDA.002                        
 611                                   0.187449  UDA.002                        
 1838                                  0.284898  UDA.002                        
 2123                                  0.168724  UDA.002                        
 866                                   0.177449  DMC.003                        
 106                                   0.118724  UDA.002                        
 3                                     0.240000  UDA.002                        
 805                                   0.188724  UDA.002                        
 744                                   0.236173  UDA.002                        
 2696                                  0.391071  DMC.003                        
 1735                                  0.207449  UDA.002                        
 2368                                  0.333622  DMC.003                        
 2429                                  0.187449  UDA.002                        
 336                                   0.158724  UDA.002                        
 2436                                  0.429795  UDA.002                        
 927                                   0.226173  DMC.003                        
 743                                   0.303622  UDA.002                        
 1076                                  0.187449  UDA.002                        
 2442                                  0.401071  DMC.003                        
 766                                   0.207449  DMC.003                        
 2028                                  0.244898  DMC.003                        
 1666                                  0.190000  UDA.002                        
 2476                                  0.332346  UDA.002                        
 1563                                  0.264898  DMC.003                        
 348                                   0.226173  UDA.002                        
 3240                                  0.220000  UDA.002                        
 82                                    0.220000  UDA.002                        
 2314                                  0.246173  DMC.003                        
 3249                                  0.130000  UDA.002                        
 597                                   0.167449  DMC.003                        
 801                                   0.283622  DMC.003                        
 2218                                  0.226173  UDA.002                        
 3375                                  0.120000  UDA.002                        
 769                                   0.371071  DMC.003                        
 2514                                  0.448519  UDA.002                        
 814                                   0.371071  DMC.003                        
 648                                   0.148724  UDA.002                        
 2668                                  0.226173  DMC.003                        
 335                                   0.210000  UDA.002                        
 403                                   0.108724  UDA.002                        
 1640                                  0.120000  UDA.002                        
 627                                   0.216173  DMC.003                        
 624                                   0.187449  UDA.002                        
 2343                                  0.303622  DMC.003                        
 1108                                  0.198724  UDA.002                        
 1646                                  0.341071  UDA.002                        
 123                                   0.391071  UDA.002                        
 1382                                  0.244898  UDA.002                        
 2559                                  0.128724  UDA.002                        
 2114                                  0.322346  UDA.002                        
 2450                                  0.177449  DMC.003                        
 4                                     0.200000  UDA.002                        
 107                                   0.263622  UDA.002                        
 1079                                  0.170000  DMC.003                        
 1121                                  0.128724  UDA.002                        
 385                                   0.322346  UDA.002                        
 1665                                  0.127449  UDA.002                        
 1120                                  0.177449  UDA.002                        
 2420                                  0.254898  DMC.003                        
 2316                                  0.293622  DMC.003                        
 94                                    0.176173  UDA.002                        
 1636                                  0.313622  UDA.002                        
 93                                    0.234898  UDA.002                        
 37                                    0.196173  DMC.003                        
 1614                                  0.167449  UDA.002                        
 639                                   0.090000  DMC.003                        
 2224                                  0.187449  UDA.002                        
 718                                   0.322346  DMC.003                        
 2437                                  0.206173  DMC.003                        
 1515                                  0.254898  DMC.003                        
 1109                                  0.137449  UDA.002                        
 664                                   0.264898  UDA.002                        
 1403                                  0.147449  UDA.002                        
 1051                                  0.170000  UDA.002                        
 95                                    0.157449  UDA.002                        
 818                                   0.118724  DMC.003                        
 867                                   0.080000  DMC.003                        
 3079                                  0.128724  UDA.002                        
 325                                   0.147449  UDA.002                        
 794                                   0.108724  DMC.003                        
 1516                                  0.070000  DMC.003                        
 104                                   0.107449  UDA.002                        
 3069                                  0.157449  UDA.002                        
 3185                                  0.090000  UDA.002                        
 831                                   0.244898  UDA.002                        
 2736                                  0.088724  UDA.002                        
 1867                                  0.100000  UDA.002                        
 1755                                  0.188724  UDA.002                        
 618                                   0.070000  DMC.003                        
 1183                                  0.147449  DMC.003                        
 1477                                  0.118724  UDA.002                        
 591                                   0.234898  UDA.002                        
 2307                                  0.090000  DMC.003                        
 1366                                  0.283622  UDA.002                        
 1361                                  0.167449  UDA.002                        
 1834                                  0.128724  DMC.003                        
 1144                                  0.283622  UDA.002                        
 815                                   0.206173  DMC.003                        
 2681                                  0.070000  UDA.002                        
 2250                                  0.147449  DMC.003                        
 798                                   0.157449  UDA.002                        
 81                                    0.156173  UDA.002                        
 830                                   0.090000  UDA.002                        
 2113                                  0.098724  UDA.002                        
 3080                                  0.110000  UDA.002                        
 3039                                  0.020000  DMC.003                        
 96                                    0.058724  UDA.002                        
 617                                   0.108724  DMC.003                        
 1096                                  0.186173  UDA.002                        
 804                                   0.157449  UDA.002                        
 747                                   0.196173  UDA.002                        
 779                                   0.090000  DMC.003                        
 771                                   0.128724  DMC.003                        
 2543                                  0.166173  DMC.003                        
 1836                                  0.100000  DMC.003                        
 158                                   0.137449  UDA.002                        
 2142                                  0.060000  DMC.003                        
 1819                                  0.108724  DMC.003                        
 1736                                  0.147449  UDA.002                        
 592                                   0.118724  UDA.002                        
 1577                                  0.157449  UDA.002                        
 2439                                  0.078724  UDA.002                        
 709                                   0.050000  DMC.003                        
 958                                   0.166173  UDA.002                        
 2158                                  0.137449  DMC.003                        
 848                                   0.186173  DMC.003                        
 1599                                  0.118724  UDA.002                        
 957                                   0.243622  UDA.002                        
 749                                   0.166173  UDA.002                        
 2146                                  0.098724  DMC.003                        
 647                                   0.186173  UDA.002                        
 574                                   0.186173  UDA.002                        
 799                                   0.157449  UDA.002                        
 1729                                  0.196173  DMC.003                        
 1739                                  0.321071  UDA.002                        
 156                                   0.060000  UDA.002                        
 2693                                  0.110000  DMC.003                        
 1827                                  0.147449  DMC.003                        
 3192                                  0.224898  UDA.002                        
 2140                                  0.108724  UDA.002                        
 3170                                  0.118724  UDA.002                        
 1381                                  0.118724  UDA.002                        
 2697                                  0.080000  UDA.002                        
 3190                                  0.080000  UDA.002                        
 110                                   0.038724  UDA.002                        
 2558                                  0.088724  UDA.002                        
 626                                   0.060000  DMC.003                        
 3194                                  0.060000  UDA.002                        
 258                                   0.060000  UDA.002                        
 662                                   0.176173  UDA.002                        
 2010                                  0.108724  UDA.002                        
 1829                                  0.147449  DMC.003                        
 581                                   0.263622  UDA.002                        
 3181                                  0.120000  UDA.002                        
 109                                   0.068724  UDA.002                        
 651                                   0.068724  UDA.002                        
 2304                                  0.080000  DMC.003                        
 2419                                  0.157449  UDA.002                        
 930                                   0.168724  UDA.002                        
 60                                    0.130000  UDA.002                        
 2279                                  0.130000  UDA.002                        
 3030                                  0.040000  DMC.003                        
 1402                                  0.117449  UDA.002                        
 2212                                  0.088724  UDA.002                        
 1018                                  0.088724  DMC.003                        
 646                                   0.060000  UDA.002                        
 396                                   0.137449  UDA.002                        
 339                                   0.098724  UDA.002                        
 2013                                  0.060000  UDA.002                        
 2137                                  0.098724  UDA.002                        
 1394                                  0.070000  UDA.002                        
 813                                   0.070000  DMC.003                        
 326                                   0.108724  UDA.002                        
 2286                                  0.068724  UDA.002                        
 2454                                  0.030000  DMC.003                        
 3171                                  0.234898  UDA.002                        
 2527                                  0.080000  DMC.003                        
 3046                                  0.118724  DMC.003                        
 738                                   0.127449  UDA.002                        
 1154                                  0.050000  UDA.002                        
 1511                                  0.098724  UDA.002                        
 667                                   0.253622  DMC.003                        
 2498                                  0.176173  DMC.003                        
 2896                                  0.110000  UDA.002                        
 1090                                  0.457244  UDA.002                        
 719                                   0.147449  DMC.003                        
 263                                   0.108724  DMC.003                        
 754                                   0.070000  UDA.002                        
 72                                    0.070000  UDA.002                        
 1358                                  0.158724  UDA.002                        
 1480                                  0.078724  UDA.002                        
 1345                                  0.176173  UDA.002                        
 1172                                  0.098724  UDA.002                        
 424                                   0.060000  DMC.003                        
 3163                                  0.060000  UDA.002                        
 994                                   0.214898  UDA.002                        
 3091                                  0.097449  UDA.002                        
 1103                                  0.108724  UDA.002                        
 782                                   0.186173  UDA.002                        
 3232                                  0.068724  UDA.002                        
 2443                                  0.068724  UDA.002                        
 2698                                  0.088724  UDA.002                        
 788                                   0.204898  DMC.003                        
 2318                                  0.127449  DMC.003                        
 2144                                  0.050000  DMC.003                        
 1844                                  0.088724  UDA.002                        
 2370                                  0.137449  DMC.003                        
 2366                                  0.060000  DMC.003                        
 1842                                  0.060000  UDA.002                        
 2469                                  0.137449  DMC.003                        
 3167                                  0.098724  UDA.002                        
 1871                                  0.060000  UDA.002                        
 3164                                  0.176173  UDA.002                        
 30                                    0.098724  DMC.003                        
 1401                                  0.060000  UDA.002                        
 1369                                  0.107449  UDA.002                        
 1512                                  0.117449  UDA.002                        
 1177                                  0.040000  UDA.002                        
 2031                                  0.078724  DMC.003                        
 2466                                  0.156173  UDA.002                        
 2367                                  0.088724  DMC.003                        
 2176                                  0.050000  UDA.002                        
 736                                   0.243622  UDA.002                        
 2313                                  0.050000  DMC.003                        
 477                                   0.050000  DMC.003                        
 845                                   0.060000  DMC.003                        
 3186                                  0.060000  UDA.002                        
 682                                   0.060000  UDA.002                        
 1338                                  0.098724  UDA.002                        
 345                                   0.253622  UDA.002                        
 2145                                  0.060000  DMC.003                        
 1478                                  0.098724  UDA.002                        
 140                                   0.098724  UDA.002                        
 2695                                  0.060000  DMC.003                        
 2291                                  0.174898  UDA.002                        
 2255                                  0.108724  UDA.002                        
 768                                   0.186173  DMC.003                        
 733                                   0.301071  UDA.002                        
 3099                                  0.030000  UDA.002                        
 3174                                  0.156173  UDA.002                        
 1843                                  0.078724  UDA.002                        
 3038                                  0.078724  DMC.003                        
 841                                   0.117449  DMC.003                        
 851                                   0.040000  DMC.003                        
 1464                                  0.088724  UDA.002                        
 3178                                  0.050000  UDA.002                        
 689                                   0.088724  DMC.003                        
 1638                                  0.050000  UDA.002                        
 445                                   0.050000  UDA.002                        
 3158                                  0.127449  UDA.002                        
 1746                                  0.050000  UDA.002                        
 811                                   0.127449  DMC.003                        
 580                                   0.100000  UDA.002                        
 2287                                  0.087449  UDA.002                        
 3052                                  0.010000  DMC.003                        
 2477                                  0.137449  UDA.002                        
 1020                                  0.060000  UDA.002                        
 322                                   0.060000  UDA.002                        
 260                                   0.214898  DMC.003                        
 844                                   0.107449  DMC.003                        
 3108                                  0.030000  UDA.002                        
 3078                                  0.068724  UDA.002                        
 582                                   0.184898  UDA.002                        
 2308                                  0.157449  DMC.003                        
 745                                   0.194898  UDA.002                        
 3184                                  0.117449  UDA.002                        
 2421                                  0.078724  UDA.002                        
 3290                                  0.167449  UDA.002                        
 2134                                  0.050000  UDA.002                        
 2033                                  0.088724  DMC.003                        
 778                                   0.166173  DMC.003                        
 857                                   0.127449  UDA.002                        
 821                                   0.088724  DMC.003                        
 3165                                  0.050000  UDA.002                        
 633                                   0.127449  DMC.003                        
 849                                   0.137449  DMC.003                        
 2220                                  0.060000  UDA.002                        
 1642                                  0.020000  UDA.002                        
 605                                   0.030000  DMC.003                        
 708                                   0.107449  DMC.003                        
 3505                                  0.107449  DMC.003                        
 2315                                  0.194898  DMC.003                        
 1578                                  0.040000  UDA.002                        
 1601                                  0.078724  UDA.002                        
 159                                   0.156173  UDA.002                        
 98                                    0.078724  UDA.002                        
 1133                                  0.078724  UDA.002                        
 1349                                  0.090000  UDA.002                        
 2548                                  0.000000  UDA.002                        
 1531                                  0.204898  DMC.003                        
 575                                   0.166173  UDA.002                        
 1598                                  0.088724  UDA.002                        
 1635                                  0.050000  UDA.002                        
 2188                                  0.010000  UDA.002                        
 1596                                  0.292346  DMC.003                        
 1484                                  0.060000  UDA.002                        
 2284                                  0.060000  UDA.002                        
 56                                    0.020000  UDA.002                        
 2126                                  0.020000  UDA.002                        
 748                                   0.136173  DMC.003                        
 3157                                  0.107449  UDA.002                        
 3177                                  0.030000  UDA.002                        
 2299                                  0.117449  UDA.002                        
 1363                                  0.156173  UDA.002                        
 3374                                  0.040000  UDA.002                        
 274                                   0.117449  DMC.003                        
 820                                   0.050000  DMC.003                        
 1356                                  0.050000  UDA.002                        
 751                                   0.050000  UDA.002                        
 389                                   0.088724  UDA.002                        
 3056                                  0.214898  DMC.003                        
 3031                                  0.097449  DMC.003                        
 819                                   0.097449  DMC.003                        
 1404                                  0.068724  UDA.002                        
 413                                   0.030000  DMC.003                        
 434                                   0.068724  DMC.003                        
 3032                                  0.068724  DMC.003                        
 85                                    0.107449  UDA.002                        
 1831                                  0.080000  DMC.003                        
 1641                                  0.080000  UDA.002                        
 1825                                  0.194898  DMC.003                        
 1840                                  0.117449  DMC.003                        
 728                                   0.040000  UDA.002                        
 42                                    0.427244  DMC.003                        
 3064                                  0.156173  DMC.003                        
 63                                    0.117449  UDA.002                        
 822                                   0.078724  DMC.003                        
 157                                   0.117449  UDA.002                        
 2165                                  0.050000  DMC.003                        
 843                                   0.166173  DMC.003                        
 2124                                  0.088724  UDA.002                        
 660                                   0.050000  UDA.002                        
 2265                                  0.127449  UDA.002                        
 3051                                  0.060000  DMC.003                        
 1576                                  0.020000  DMC.003                        
 764                                   0.020000  UDA.002                        
 806                                   0.020000  UDA.002                        
 3098                                  0.020000  UDA.002                        
 1246                                  0.070000  DMC.003                        
 3453                                  0.070000  UDA.002                        
 2181                                  0.068724  UDA.002                        
 2128                                  0.068724  UDA.002                        
 261                                   0.030000  DMC.003                        
 18                                    0.040000  DMC.003                        
 2863                                  0.040000  UDA.002                        
 2892                                  0.040000  UDA.002                        
 241                                   0.040000  UDA.002                        
 735                                   0.040000  UDA.002                        
 1337                                  0.117449  UDA.002                        
 762                                   0.233622  UDA.002                        
 328                                   0.078724  UDA.002                        
 3162                                  0.040000  UDA.002                        
 409                                   0.078724  DMC.003                        
 3086                                  0.000000  UDA.002                        
 2285                                  0.050000  UDA.002                        
 1809                                  0.088724  DMC.003                        
 2253                                  0.050000  UDA.002                        
 3301                                  0.127449  UDA.002                        
 3077                                  0.087449  UDA.002                        
 578                                   0.048724  UDA.002                        
 652                                   0.020000  UDA.002                        
 3065                                  0.020000  DMC.003                        
 254                                   0.070000  UDA.002                        
 1529                                  0.070000  DMC.003                        
 1373                                  0.070000  UDA.002                        
 285                                   0.030000  UDA.002                        
 609                                   0.146173  UDA.002                        
 1178                                  0.030000  UDA.002                        
 787                                   0.184898  DMC.003                        
 643                                   0.184898  UDA.002                        
 338                                   0.040000  UDA.002                        
 3231                                  0.040000  UDA.002                        
 812                                   0.078724  DMC.003                        
 2098                                  0.040000  UDA.002                        
 2555                                  0.117449  UDA.002                        
 2866                                  0.040000  UDA.002                        
 724                                   0.117449  UDA.002                        
 2865                                  0.156173  UDA.002                        
 2324                                  0.078724  UDA.002                        
 3247                                  0.040000  UDA.002                        
 36                                    0.078724  DMC.003                        
 3166                                  0.126173  UDA.002                        
 1744                                  0.098724  UDA.002                        
 1828                                  0.097449  DMC.003                        
 731                                   0.020000  UDA.002                        
 3560                                  0.058724  DMC.003                        
 1691                                  0.020000  UDA.002                        
 2180                                  0.020000  UDA.002                        
 2009                                  0.097449  UDA.002                        
 2694                                  0.136173  DMC.003                        
 298                                   0.058724  UDA.002                        
 3454                                  0.030000  UDA.002                        
 2338                                  0.068724  UDA.002                        
 19                                    0.107449  DMC.003                        
 422                                   0.107449  DMC.003                        
 1998                                  0.030000  UDA.002                        
 1747                                  0.068724  UDA.002                        
 479                                   0.030000  DMC.003                        
 1821                                  0.107449  DMC.003                        
 978                                   0.146173  DMC.003                        
 952                                   0.040000  DMC.003                        
 2125                                  0.078724  UDA.002                        
 803                                   0.194898  DMC.003                        
 842                                   0.078724  DMC.003                        
 2274                                  0.078724  UDA.002                        
 1211                                  0.040000  DMC.003                        
 2139                                  0.117449  UDA.002                        
 398                                   0.040000  UDA.002                        
 1400                                  0.040000  UDA.002                        
 83                                    0.040000  UDA.002                        
 2168                                  0.040000  DMC.003                        
 2092                                  0.040000  UDA.002                        
 1485                                  0.117449  UDA.002                        
 1189                                  0.156173  DMC.003                        
 2222                                  0.078724  UDA.002                        
 644                                   0.087449  UDA.002                        
 1353                                  0.098724  UDA.002                        
 1218                                  0.137449  DMC.003                        
 1410                                  0.097449  UDA.002                        
 404                                   0.020000  UDA.002                        
 2468                                  0.174898  DMC.003                        
 264                                   0.097449  DMC.003                        
 1592                                  0.020000  UDA.002                        
 3403                                  0.136173  UDA.002                        
 3264                                  0.020000  UDA.002                        
 3208                                  0.058724  UDA.002                        
 655                                   0.136173  UDA.002                        
 760                                   0.030000  UDA.002                        
 2159                                  0.146173  DMC.003                        
 3169                                  0.107449  UDA.002                        
 1380                                  0.030000  UDA.002                        
 88                                    0.030000  UDA.002                        
 2376                                  0.068724  DMC.003                        
 1604                                  0.030000  DMC.003                        
 151                                   0.030000  UDA.002                        
 488                                   0.184898  UDA.002                        
 3047                                  0.068724  DMC.003                        
 810                                   0.030000  DMC.003                        
 1872                                  0.030000  UDA.002                        
 807                                   0.068724  UDA.002                        
 2730                                  0.107449  DMC.003                        
 1808                                  0.107449  DMC.003                        
 3187                                  0.107449  UDA.002                        
 1824                                  0.040000  DMC.003                        
 1802                                  0.117449  DMC.003                        
 2223                                  0.040000  UDA.002                        
 758                                   0.040000  UDA.002                        
 1346                                  0.040000  UDA.002                        
 3063                                  0.000000  DMC.003                        
 3248                                  0.050000  UDA.002                        
 1913                                  0.050000  UDA.002                        
 2312                                  0.048724  DMC.003                        
 1530                                  0.020000  DMC.003                        
 1395                                  0.020000  UDA.002                        
 1340                                  0.020000  UDA.002                        
 1798                                  0.097449  DMC.003                        
 86                                    0.058724  UDA.002                        
 668                                   0.058724  UDA.002                        
 852                                   0.020000  DMC.003                        
 2221                                  0.020000  UDA.002                        
 3179                                  0.174898  UDA.002                        
 590                                   0.136173  UDA.002                        
 606                                   0.020000  DMC.003                        
 2023                                  0.030000  DMC.003                        
 1823                                  0.030000  DMC.003                        
 793                                   0.030000  UDA.002                        
 2371                                  0.107449  DMC.003                        
 1350                                  0.030000  UDA.002                        
 1791                                  0.068724  DMC.003                        
 2425                                  0.262346  DMC.003                        
 826                                   0.301071  DMC.003                        
 3176                                  0.107449  UDA.002                        
 1514                                  0.107449  UDA.002                        
 2375                                  0.107449  DMC.003                        
 827                                   0.030000  DMC.003                        
 1413                                  0.040000  UDA.002                        
 800                                   0.078724  DMC.003                        
 3059                                  0.000000  DMC.003                        
 481                                   0.088724  DMC.003                        
 3219                                  0.010000  UDA.002                        
 323                                   0.010000  UDA.002                        
 792                                   0.174898  UDA.002                        
 3175                                  0.058724  UDA.002                        
 1336                                  0.058724  UDA.002                        
 2893                                  0.020000  UDA.002                        
 2219                                  0.020000  UDA.002                        
 3204                                  0.020000  UDA.002                        
 808                                   0.174898  UDA.002                        
 270                                   0.058724  DMC.003                        
 2383                                  0.068724  DMC.003                        
 2384                                  0.068724  DMC.003                        
 1643                                  0.223622  UDA.002                        
 21                                    0.030000  DMC.003                        
 1341                                  0.068724  UDA.002                        
 1342                                  0.030000  UDA.002                        
 1994                                  0.030000  UDA.002                        
 3486                                  0.068724  DMC.003                        
 756                                   0.030000  UDA.002                        
 1822                                  0.030000  DMC.003                        
 3559                                  0.030000  DMC.003                        
 3254                                  0.117449  UDA.002                        
 2501                                  0.078724  UDA.002                        
 3484                                  0.000000  DMC.003                        
 1750                                  0.010000  UDA.002                        
 1104                                  0.048724  UDA.002                        
 327                                   0.010000  UDA.002                        
 860                                   0.010000  DMC.003                        
 405                                   0.020000  UDA.002                        
 784                                   0.136173  UDA.002                        
 1644                                  0.058724  UDA.002                        
 2895                                  0.058724  UDA.002                        
 332                                   0.020000  UDA.002                        
 1816                                  0.097449  DMC.003                        
 402                                   0.020000  UDA.002                        
 2862                                  0.020000  UDA.002                        
 1335                                  0.020000  UDA.002                        
 1072                                  0.020000  UDA.002                        
 3140                                  0.020000  UDA.002                        
 589                                   0.020000  UDA.002                        
 2147                                  0.020000  DMC.003                        
 1778                                  0.174898  UDA.002                        
 931                                   0.058724  UDA.002                        
 1799                                  0.058724  DMC.003                        
 2042                                  0.058724  DMC.003                        
 850                                   0.020000  DMC.003                        
 3487                                  0.058724  DMC.003                        
 1234                                  0.097449  DMC.003                        
 1344                                  0.030000  UDA.002                        
 59                                    0.030000  UDA.002                        
 947                                   0.068724  DMC.003                        
 3387                                  0.030000  UDA.002                        
 2475                                  0.030000  DMC.003                        
 2878                                  0.030000  UDA.002                        
 2875                                  0.068724  UDA.002                        
 2998                                  0.078724  DMC.003                        
 1135                                  0.040000  UDA.002                        
 1463                                  0.010000  UDA.002                        
 3057                                  0.048724  DMC.003                        
 2041                                  0.048724  DMC.003                        
 3036                                  0.087449  DMC.003                        
 53                                    0.010000  UDA.002                        
 3084                                  0.048724  UDA.002                        
 2715                                  0.010000  DMC.003                        
 1348                                  0.010000  UDA.002                        
 858                                   0.010000  UDA.002                        
 2288                                  0.020000  UDA.002                        
 2138                                  0.213622  UDA.002                        
 2339                                  0.020000  UDA.002                        
 2467                                  0.213622  DMC.003                        
 2385                                  0.058724  DMC.003                        
 2864                                  0.020000  UDA.002                        
 2516                                  0.058724  DMC.003                        
 2726                                  0.058724  DMC.003                        
 2100                                  0.020000  UDA.002                        
 1360                                  0.020000  UDA.002                        
 3211                                  0.020000  UDA.002                        
 823                                   0.058724  DMC.003                        
 2883                                  0.020000  UDA.002                        
 1905                                  0.020000  DMC.003                        
 948                                   0.058724  DMC.003                        
 105                                   0.058724  UDA.002                        
 3037                                  0.097449  DMC.003                        
 1176                                  0.020000  UDA.002                        
 1591                                  0.020000  UDA.002                        
 1188                                  0.097449  DMC.003                        
 419                                   0.020000  DMC.003                        
 3048                                  0.020000  DMC.003                        
 1419                                  0.020000  UDA.002                        
 1417                                  0.020000  UDA.002                        
 3101                                  0.020000  UDA.002                        
 1357                                  0.020000  UDA.002                        
 1347                                  0.020000  UDA.002                        
 1909                                  0.136173  DMC.003                        
 600                                   0.020000  DMC.003                        
 714                                   0.020000  UDA.002                        
 2022                                  0.020000  DMC.003                        
 765                                   0.097449  UDA.002                        
 2379                                  0.030000  DMC.003                        
 1035                                  0.068724  DMC.003                        
 3488                                  0.068724  DMC.003                        
 1390                                  0.030000  UDA.002                        
 2157                                  0.068724  DMC.003                        
 1807                                  0.107449  DMC.003                        
 3298                                  0.000000  UDA.002                        
 2684                                  0.000000  UDA.002                        
 437                                   0.010000  UDA.002                        
 1352                                  0.010000  UDA.002                        
 3456                                  0.048724  UDA.002                        
 2557                                  0.048724  UDA.002                        
 3220                                  0.048724  UDA.002                        
 1354                                  0.048724  UDA.002                        
 853                                   0.010000  DMC.003                        
 2021                                  0.048724  DMC.003                        
 1212                                  0.010000  DMC.003                        
 3055                                  0.010000  DMC.003                        
 3109                                  0.010000  UDA.002                        
 932                                   0.048724  UDA.002                        
 1421                                  0.020000  UDA.002                        
 1385                                  0.058724  UDA.002                        
 2169                                  0.058724  DMC.003                        
 3060                                  0.020000  DMC.003                        
 1414                                  0.020000  UDA.002                        
 604                                   0.020000  DMC.003                        
 3160                                  0.097449  UDA.002                        
 1811                                  0.020000  DMC.003                        
 1810                                  0.058724  DMC.003                        
 2900                                  0.020000  UDA.002                        
 2882                                  0.020000  UDA.002                        
 2894                                  0.058724  UDA.002                        
 1906                                  0.020000  DMC.003                        
 951                                   0.020000  DMC.003                        
 2897                                  0.020000  UDA.002                        
 3035                                  0.077449  DMC.003                        
 2024                                  0.000000  DMC.003                        
 3043                                  0.038724  DMC.003                        
 2040                                  0.038724  DMC.003                        
 1740                                  0.000000  UDA.002                        
 3173                                  0.010000  UDA.002                        
 2728                                  0.048724  DMC.003                        
 121                                   0.048724  UDA.002                        
 3071                                  0.087449  UDA.002                        
 1412                                  0.010000  UDA.002                        
 269                                   0.010000  DMC.003                        
 69                                    0.048724  UDA.002                        
 2879                                  0.010000  UDA.002                        
 3506                                  0.010000  DMC.003                        
 1062                                  0.010000  DMC.003                        
 2260                                  0.010000  UDA.002                        
 3201                                  0.010000  UDA.002                        
 1752                                  0.010000  UDA.002                        
 1140                                  0.010000  UDA.002                        
 99                                    0.010000  UDA.002                        
 1157                                  0.048724  UDA.002                        
 3042                                  0.010000  DMC.003                        
 2856                                  0.010000  UDA.002                        
 2857                                  0.097449  UDA.002                        
 1405                                  0.097449  UDA.002                        
 2163                                  0.020000  DMC.003                        
 2382                                  0.020000  DMC.003                        
 755                                   0.058724  UDA.002                        
 1368                                  0.020000  UDA.002                        
 3193                                  0.020000  UDA.002                        
 2096                                  0.020000  UDA.002                        
 1911                                  0.020000  DMC.003                        
 1416                                  0.020000  UDA.002                        
 25                                    0.058724  DMC.003                        
 251                                   0.058724  UDA.002                        
 3135                                  0.020000  UDA.002                        
 3154                                  0.136173  UDA.002                        
 2282                                  0.020000  UDA.002                        
 1429                                  0.020000  UDA.002                        
 475                                   0.020000  DMC.003                        
 394                                   0.020000  UDA.002                        
 3405                                  0.020000  DMC.003                        
 715                                   0.020000  UDA.002                        
 1585                                  0.058724  DMC.003                        
 1690                                  0.058724  DMC.003                        
 2458                                  0.020000  DMC.003                        
 1187                                  0.058724  DMC.003                        
 2871                                  0.020000  UDA.002                        
 28                                    0.097449  DMC.003                        
 3133                                  0.020000  UDA.002                        
 2902                                  0.020000  UDA.002                        
 2043                                  0.058724  DMC.003                        
 2127                                  0.020000  UDA.002                        
 PM1.DMC.GAM.003                       0.027895  DMC.003                        
 2166                                  0.000000  DMC.003                        
 3503                                  0.000000  DMC.003                        
 1099                                  0.038724  UDA.002                        
 75                                    0.038724  UDA.002                        
 1832                                  0.038724  DMC.003                        
 3413                                  0.048724  UDA.002                        
 3012                                  0.010000  UDA.002                        
 3001                                  0.048724  UDA.002                        
 250                                   0.010000  UDA.002                        
 1061                                  0.010000  DMC.003                        
 953                                   0.010000  DMC.003                        
 1661                                  0.010000  UDA.002                        
 259                                   0.010000  DMC.003                        
 946                                   0.087449  DMC.003                        
 3189                                  0.048724  UDA.002                        
 1910                                  0.048724  DMC.003                        
 1374                                  0.010000  UDA.002                        
 2880                                  0.010000  UDA.002                        
 3412                                  0.010000  UDA.002                        
 2377                                  0.087449  DMC.003                        
 1427                                  0.010000  UDA.002                        
 1564                                  0.010000  DMC.003                        
 1613                                  0.010000  DMC.003                        
 1583                                  0.048724  DMC.003                        
 386                                   0.048724  UDA.002                        
 143                                   0.010000  UDA.002                        
 2171                                  0.010000  UDA.002                        
 623                                   0.010000  UDA.002                        
 840                                   0.010000  DMC.003                        
 1800                                  0.087449  DMC.003                        
 2105                                  0.010000  UDA.002                        
 3105                                  0.010000  UDA.002                        
 3460                                  0.020000  UDA.002                        
 1764                                  0.020000  UDA.002                        
 1465                                  0.058724  UDA.002                        
 3280                                  0.020000  UDA.002                        
 1995                                  0.020000  UDA.002                        
 2568                                  0.058724  UDA.002                        
 585                                   0.020000  UDA.002                        
 1615                                  0.020000  DMC.003                        
 594                                   0.038724  UDA.002                        
 3246                                  0.000000  UDA.002                        
 1423                                  0.000000  UDA.002                        
 3092                                  0.000000  UDA.002                        
 3093                                  0.000000  UDA.002                        
 2122                                  0.000000  UDA.002                        
 1801                                  0.000000  DMC.003                        
 2551                                  0.000000  UDA.002                        
 1674                                  0.000000  UDA.002                        
 1608                                  0.038724  UDA.002                        
 2887                                  0.000000  UDA.002                        
 1136                                  0.154898  UDA.002                        
 442                                   0.000000  UDA.002                        
 2725                                  0.010000  DMC.003                        
 2724                                  0.010000  DMC.003                        
 2673                                  0.010000  UDA.002                        
 443                                   0.087449  UDA.002                        
 2764                                  0.010000  UDA.002                        
 2502                                  0.010000  UDA.002                        
 2026                                  0.010000  DMC.003                        
 3107                                  0.010000  UDA.002                        
 1418                                  0.048724  UDA.002                        
 1806                                  0.010000  DMC.003                        
 2886                                  0.010000  UDA.002                        
 1399                                  0.010000  UDA.002                        
 1411                                  0.010000  UDA.002                        
 2292                                  0.010000  UDA.002                        
 1415                                  0.048724  UDA.002                        
 2457                                  0.010000  DMC.003                        
 1424                                  0.010000  UDA.002                        
 1425                                  0.010000  UDA.002                        
 1426                                  0.010000  UDA.002                        
 1869                                  0.010000  UDA.002                        
 1864                                  0.010000  UDA.002                        
 3053                                  0.010000  DMC.003                        
 1857                                  0.010000  UDA.002                        
 1586                                  0.048724  DMC.003                        
 2890                                  0.010000  UDA.002                        
 2891                                  0.010000  UDA.002                        
 2854                                  0.010000  UDA.002                        
 2184                                  0.048724  UDA.002                        
 2170                                  0.010000  UDA.002                        
 1792                                  0.010000  DMC.003                        
 1797                                  0.010000  DMC.003                        
 2104                                  0.010000  UDA.002                        
 1805                                  0.010000  DMC.003                        
 3136                                  0.010000  UDA.002                        
 2102                                  0.010000  UDA.002                        
 954                                   0.048724  DMC.003                        
 3221                                  0.048724  UDA.002                        
 2435                                  0.010000  UDA.002                        
 2881                                  0.010000  UDA.002                        
 1038                                  0.010000  DMC.003                        
 2381                                  0.010000  DMC.003                        
 1153                                  0.010000  UDA.002                        
 3225                                  0.010000  UDA.002                        
 859                                   0.010000  UDA.002                        
 3200                                  0.010000  UDA.002                        
 3120                                  0.010000  UDA.002                        
 637                                   0.048724  DMC.003                        
 2456                                  0.048724  DMC.003                        
 2874                                  0.048724  UDA.002                        
 3153                                  0.038724  UDA.002                        
 3097                                  0.000000  UDA.002                        
 2885                                  0.000000  UDA.002                        
 3044                                  0.000000  DMC.003                        
 3562                                  0.077449  DMC.003                        
 3279                                  0.000000  UDA.002                        
 2721                                  0.000000  DMC.003                        
 1588                                  0.000000  UDA.002                        
 1017                                  0.000000  DMC.003                        
 102                                   0.000000  UDA.002                        
 1673                                  0.000000  UDA.002                        
 1407                                  0.000000  UDA.002                        
 1393                                  0.000000  UDA.002                        
 2111                                  0.038724  UDA.002                        
 2186                                  0.000000  UDA.002                        
 2305                                  0.000000  DMC.003                        
 438                                   0.038724  UDA.002                        
 2460                                  0.000000  DMC.003                        
 1760                                  0.000000  UDA.002                        
 3168                                  0.010000  UDA.002                        
 1127                                  0.010000  UDA.002                        
 1130                                  0.010000  DMC.003                        
 2177                                  0.010000  UDA.002                        
 3159                                  0.010000  UDA.002                        
 3148                                  0.010000  UDA.002                        
 2729                                  0.010000  DMC.003                        
 139                                   0.010000  UDA.002                        
 2259                                  0.010000  UDA.002                        
 1186                                  0.048724  DMC.003                        
 3137                                  0.010000  UDA.002                        
 3122                                  0.010000  DMC.003                        
 2858                                  0.010000  UDA.002                        
 138                                   0.010000  UDA.002                        
 51                                    0.010000  UDA.002                        
 3102                                  0.010000  UDA.002                        
 1063                                  0.010000  DMC.003                        
 2992                                  0.010000  DMC.003                        
 1606                                  0.010000  DMC.003                        
 1605                                  0.010000  DMC.003                        
 1907                                  0.010000  DMC.003                        
 1908                                  0.048724  DMC.003                        
 1584                                  0.010000  DMC.003                        
 1582                                  0.010000  DMC.003                        
 2876                                  0.010000  UDA.002                        
 1562                                  0.010000  DMC.003                        
 2020                                  0.010000  DMC.003                        
 2025                                  0.010000  DMC.003                        
 3561                                  0.048724  DMC.003                        
 1387                                  0.010000  UDA.002                        
 1371                                  0.010000  UDA.002                        
 2723                                  0.010000  DMC.003                        
 3172                                  0.010000  UDA.002                        
 1102                                  0.010000  UDA.002                        
 2262                                  0.010000  UDA.002                        
 2378                                  0.048724  DMC.003                        
 142                                   0.010000  UDA.002                        
 297                                   0.010000  UDA.002                        
 2762                                  0.010000  UDA.002                        
 2470                                  0.010000  DMC.003                        
 76                                    0.010000  UDA.002                        
 2459                                  0.048724  DMC.003                        
 2515                                  0.010000  UDA.002                        
 2434                                  0.010000  UDA.002                        
 3306                                  0.010000  UDA.002                        
 440                                   0.010000  UDA.002                        
 2418                                  0.010000  DMC.003                        
 3299                                  0.048724  UDA.002                        
 2277                                  0.010000  UDA.002                        
 713                                   0.010000  DMC.003                        
 441                                   0.048724  UDA.002                        
 1355                                  0.010000  UDA.002                        
 846                                   0.010000  DMC.003                        
 2374                                  0.010000  DMC.003                        
 977                                   0.010000  DMC.003                        
 2335                                  0.010000  UDA.002                        
 3198                                  0.010000  UDA.002                        
 864                                   0.010000  DMC.003                        
 816                                   0.010000  DMC.003                        
 1813                                  0.010000  DMC.003                        
 68                                    0.010000  UDA.002                        
 2861                                  0.000000  UDA.002                        
 2868                                  0.000000  UDA.002                        
 1420                                  0.038724  UDA.002                        
 2479                                  0.000000  UDA.002                        
 155                                   0.000000  UDA.002                        
 153                                   0.000000  UDA.002                        
 2872                                  0.038724  UDA.002                        
 433                                   0.038724  DMC.003                        
 2432                                  0.000000  DMC.003                        
 3082                                  0.000000  UDA.002                        
 3083                                  0.038724  UDA.002                        
 2182                                  0.000000  UDA.002                        
 3132                                  0.077449  UDA.002                        
 3134                                  0.000000  UDA.002                        
 2735                                  0.077449  UDA.002                        
 2187                                  0.000000  UDA.002                        
 616                                   0.000000  UDA.002                        
 1132                                  0.000000  DMC.003                        
 3224                                  0.000000  UDA.002                        
 2258                                  0.000000  UDA.002                        
 1092                                  0.000000  UDA.002                        
 1049                                  0.000000  UDA.002                        
 2278                                  0.000000  UDA.002                        
 2281                                  0.000000  UDA.002                        
 863                                   0.000000  DMC.003                        
 2873                                  0.116173  UDA.002                        
 2317                                  0.000000  DMC.003                        
 2503                                  0.000000  UDA.002                        
 3537                                  0.000000  UDA.002                        
 77                                    0.000000  UDA.002                        
 1731                                  0.038724  DMC.003                        
 1745                                  0.000000  UDA.002                        
 2888                                  0.000000  UDA.002                        
 2019                                  0.000000  DMC.003                        
 1756                                  0.038724  UDA.002                        
 45                                    0.000000  DMC.003                        
 3054                                  0.000000  DMC.003                        
 2898                                  0.000000  UDA.002                        
 1883                                  0.000000  UDA.002                        
 3404                                  0.000000  DMC.003                        
 112                                   0.000000  UDA.002                        
 57                                    0.000000  UDA.002                        
 3222                                  0.038724  UDA.002                        
 113                                   0.000000  UDA.002                        
 2549                                  0.000000  UDA.002                        
 2386                                  0.000000  DMC.003                        
 50                                    0.000000  UDA.002                        
 741                                   0.000000  UDA.002                        
 3455                                  0.038724  UDA.002                        
 430                                   0.000000  DMC.003                        
 3236                                  0.000000  UDA.002                        
 3206                                  0.000000  UDA.002                        
 824                                   0.000000  DMC.003                        
 33                                    0.000000  DMC.003                        
 2739                                  0.000000  UDA.002                        
 2567                                  0.000000  DMC.003                        
 2373                                  0.038724  DMC.003                        
 3411                                  0.000000  UDA.002                        
 27                                    0.000000  DMC.003                        
 24                                    0.000000  DMC.003                        
 2672                                  0.000000  UDA.002                        
 67                                    0.000000  UDA.002                        
 659                                   0.000000  UDA.002                        
 3472                                  0.000000  UDA.002                        
 3245                                  0.000000  UDA.002                        
 2433                                  0.000000  DMC.003                        
 101                                   0.116173  UDA.002                        
 3480                                  0.000000  UDA.002                        
 97                                    0.038724  UDA.002                        
 411                                   0.000000  DMC.003                        
 3289                                  0.000000  UDA.002                        
 3284                                  0.077449  UDA.002                        
 84                                    0.000000  UDA.002                        
 3267                                  0.000000  UDA.002                        
 395                                   0.000000  UDA.002                        
 134                                   0.000000  UDA.002                        
 71                                    0.000000  UDA.002                        
 2523                                  0.000000  UDA.002                        
 3471                                  0.000000  UDA.002                        
 586                                   0.038724  UDA.002                        
 3470                                  0.000000  UDA.002                        
 268                                   0.000000  DMC.003                        
 603                                   0.038724  DMC.003                        
 3469                                  0.000000  UDA.002                        
 945                                   0.000000  DMC.003                        
 3504                                  0.000000  DMC.003                        
 998                                   0.038724  UDA.002                        
 2714                                  0.000000  DMC.003                        
 949                                   0.038724  DMC.003                        
 3041                                  0.000000  DMC.003                        
 2972                                  0.000000  UDA.002                        
 1754                                  0.077449  UDA.002                        
 2869                                  0.000000  UDA.002                        
 3017                                  0.000000  UDA.002                        
 3029                                  0.000000  DMC.003                        
 3112                                  0.038724  UDA.002                        
 2859                                  0.000000  UDA.002                        
 1645                                  0.000000  UDA.002                        
 1639                                  0.000000  UDA.002                        
 1890                                  0.000000  UDA.002                        
 2174                                  0.000000  UDA.002                        
 2884                                  0.000000  UDA.002                        
 1                                     0.000000  UDA.002                        
 2185                                  0.000000  UDA.002                        
 1365                                  0.038724  UDA.002                        
 2003                                  0.000000  UDA.002                        
 2045                                  0.000000  DMC.003                        
 1372                                  0.000000  UDA.002                        
 1510                                  0.038724  UDA.002                        
 1376                                  0.000000  UDA.002                        
 1377                                  0.000000  UDA.002                        
 3085                                  0.000000  UDA.002                        
 1386                                  0.000000  UDA.002                        
 2870                                  0.000000  UDA.002                        
 2867                                  0.000000  UDA.002                        
 1422                                  0.038724  UDA.002                        
 2889                                  0.000000  UDA.002                        
 1748                                  0.000000  UDA.002                        
 2855                                  0.000000  UDA.002                        
 2254                                  0.038724  UDA.002                        
 2303                                  0.000000  DMC.003                        
 2295                                  0.000000  UDA.002                        
 3182                                  0.000000  UDA.002                        
 1826                                  0.000000  DMC.003                        
 3180                                  0.000000  UDA.002                        
 1036                                  0.077449  DMC.003                        
 1044                                  0.000000  DMC.003                        
 1077                                  0.000000  UDA.002                        
 1856                                  0.000000  UDA.002                        
 3143                                  0.000000  UDA.002                        
 1114                                  0.077449  UDA.002                        
 1789                                  0.000000  DMC.003                        
 1093                                  0.000000  UDA.002                        
 1126                                  0.000000  UDA.002                        
 1134                                  0.038724  UDA.002                        
 2909                                  0.000000  UDA.002                        
 3145                                  0.000000  UDA.002                        
 1162                                  0.000000  UDA.002                        
 2904                                  0.000000  UDA.002                        
 1769                                  0.000000  UDA.002                        
 1143                                  0.000000  UDA.002                        
 3076                                  0.000000  UDA.002                        
 2901                                  0.077449  UDA.002                        
 1786                                  0.000000  DMC.003                        
 2899                                  0.000000  UDA.002                        
 2                                     0.000000  UDA.002                        
 5                                     0.000000  UDA.002                        
 8                                     0.000000  UDA.002                        
 20                                    0.000000  DMC.003                        
 22                                    0.000000  DMC.003                        
 23                                    0.000000  DMC.003                        
 26                                    0.000000  DMC.003                        
 29                                    0.000000  DMC.003                        
 31                                    0.038724  DMC.003                        
 32                                    0.000000  DMC.003                        
 34                                    0.000000  DMC.003                        
 35                                    0.000000  DMC.003                        
 38                                    0.000000  DMC.003                        
 40                                    0.000000  UDA.002                        
 41                                    0.000000  UDA.002                        
 44                                    0.077449  DMC.003                        
 46                                    0.000000  DMC.003                        
 47                                    0.000000  DMC.003                        
 48                                    0.000000  DMC.003                        
 49                                    0.000000  DMC.003                        
 52                                    0.000000  UDA.002                        
 54                                    0.000000  UDA.002                        
 55                                    0.000000  UDA.002                        
 58                                    0.000000  UDA.002                        
 61                                    0.038724  UDA.002                        
 62                                    0.000000  UDA.002                        
 64                                    0.000000  UDA.002                        
 65                                    0.000000  UDA.002                        
 66                                    0.000000  UDA.002                        
 70                                    0.000000  UDA.002                        
 73                                    0.000000  UDA.002                        
 74                                    0.000000  UDA.002                        
 78                                    0.038724  UDA.002                        
 79                                    0.000000  UDA.002                        
 87                                    0.000000  UDA.002                        
 89                                    0.000000  UDA.002                        
 90                                    0.000000  UDA.002                        
 91                                    0.000000  UDA.002                        
 92                                    0.038724  UDA.002                        
 111                                   0.000000  UDA.002                        
 114                                   0.000000  UDA.002                        
 115                                   0.000000  UDA.002                        
 116                                   0.000000  UDA.002                        
 117                                   0.000000  UDA.002                        
 118                                   0.000000  UDA.002                        
 119                                   0.000000  UDA.002                        
 120                                   0.000000  UDA.002                        
 122                                   0.000000  UDA.002                        
 125                                   0.000000  UDA.002                        
 126                                   0.000000  UDA.002                        
 127                                   0.000000  UDA.002                        
 128                                   0.000000  UDA.002                        
 129                                   0.038724  UDA.002                        
 130                                   0.000000  UDA.002                        
 131                                   0.000000  UDA.002                        
 132                                   0.000000  UDA.002                        
 133                                   0.000000  UDA.002                        
 135                                   0.000000  UDA.002                        
 136                                   0.000000  UDA.002                        
 137                                   0.000000  UDA.002                        
 141                                   0.038724  UDA.002                        
 144                                   0.000000  UDA.002                        
 145                                   0.038724  UDA.002                        
 146                                   0.000000  UDA.002                        
 147                                   0.000000  UDA.002                        
 148                                   0.000000  UDA.002                        
 149                                   0.000000  UDA.002                        
 150                                   0.000000  UDA.002                        
 152                                   0.000000  UDA.002                        
 154                                   0.000000  UDA.002                        
 242                                   0.000000  UDA.002                        
 243                                   0.000000  UDA.002                        
 244                                   0.000000  UDA.002                        
 247                                   0.000000  UDA.002                        
 248                                   0.000000  UDA.002                        
 249                                   0.000000  UDA.002                        
 252                                   0.000000  UDA.002                        
 253                                   0.000000  UDA.002                        
 255                                   0.000000  UDA.002                        
 256                                   0.000000  UDA.002                        
 257                                   0.000000  UDA.002                        
 262                                   0.000000  DMC.003                        
 265                                   0.000000  DMC.003                        
 266                                   0.000000  DMC.003                        
 267                                   0.038724  DMC.003                        
 271                                   0.000000  DMC.003                        
 272                                   0.000000  DMC.003                        
 273                                   0.000000  DMC.003                        
 319                                   0.000000  UDA.002                        
 324                                   0.000000  UDA.002                        
 329                                   0.000000  UDA.002                        
 331                                   0.000000  UDA.002                        
 333                                   0.000000  UDA.002                        
 337                                   0.000000  UDA.002                        
 340                                   0.000000  UDA.002                        
 342                                   0.000000  UDA.002                        
 344                                   0.000000  UDA.002                        
 346                                   0.000000  DMC.003                        
 347                                   0.000000  DMC.003                        
 351                                   0.000000  UDA.002                        
 352                                   0.000000  UDA.002                        
 353                                   0.000000  UDA.002                        
 354                                   0.000000  UDA.002                        
 355                                   0.000000  UDA.002                        
 356                                   0.000000  UDA.002                        
 357                                   0.000000  UDA.002                        
 358                                   0.000000  UDA.002                        
 359                                   0.000000  UDA.002                        
 360                                   0.000000  UDA.002                        
 361                                   0.000000  UDA.002                        
 362                                   0.000000  UDA.002                        
 365                                   0.000000  UDA.002                        
 366                                   0.000000  UDA.002                        
 367                                   0.000000  UDA.002                        
 368                                   0.000000  UDA.002                        
 369                                   0.000000  UDA.002                        
 370                                   0.000000  UDA.002                        
 371                                   0.000000  UDA.002                        
 376                                   0.000000  DMC.003                        
 384                                   0.000000  UDA.002                        
 390                                   0.000000  DMC.003                        
 397                                   0.000000  UDA.002                        
 399                                   0.000000  UDA.002                        
 400                                   0.000000  UDA.002                        
 401                                   0.038724  UDA.002                        
 406                                   0.000000  DMC.003                        
 407                                   0.000000  DMC.003                        
 408                                   0.038724  DMC.003                        
 410                                   0.038724  DMC.003                        
 412                                   0.000000  DMC.003                        
 414                                   0.000000  DMC.003                        
 415                                   0.000000  DMC.003                        
 416                                   0.000000  DMC.003                        
 417                                   0.000000  DMC.003                        
 418                                   0.000000  DMC.003                        
 420                                   0.000000  DMC.003                        
 421                                   0.000000  DMC.003                        
 423                                   0.000000  DMC.003                        
 429                                   0.000000  DMC.003                        
 431                                   0.000000  DMC.003                        
 432                                   0.000000  DMC.003                        
 435                                   0.038724  DMC.003                        
 436                                   0.000000  UDA.002                        
 439                                   0.000000  UDA.002                        
 444                                   0.000000  UDA.002                        
 447                                   0.000000  UDA.002                        
 448                                   0.000000  UDA.002                        
 473                                   0.000000  UDA.002                        
 474                                   0.000000  UDA.002                        
 476                                   0.000000  DMC.003                        
 478                                   0.000000  DMC.003                        
 480                                   0.000000  DMC.003                        
 487                                   0.000000  UDA.002                        
 572                                   0.000000  UDA.002                        
 573                                   0.000000  UDA.002                        
 576                                   0.000000  UDA.002                        
 577                                   0.000000  UDA.002                        
 579                                   0.000000  UDA.002                        
 584                                   0.000000  UDA.002                        
 587                                   0.000000  UDA.002                        
 588                                   0.000000  UDA.002                        
 593                                   0.000000  UDA.002                        
 595                                   0.000000  DMC.003                        
 596                                   0.000000  DMC.003                        
 598                                   0.000000  DMC.003                        
 599                                   0.000000  DMC.003                        
 601                                   0.038724  DMC.003                        
 602                                   0.000000  DMC.003                        
 607                                   0.000000  DMC.003                        
 608                                   0.000000  DMC.003                        
 610                                   0.000000  UDA.002                        
 615                                   0.038724  UDA.002                        
 636                                   0.000000  DMC.003                        
 645                                   0.038724  UDA.002                        
 657                                   0.000000  UDA.002                        
 658                                   0.000000  UDA.002                        
 661                                   0.038724  UDA.002                        
 681                                   0.000000  UDA.002                        
 688                                   0.038724  DMC.003                        
 712                                   0.038724  DMC.003                        
 720                                   0.000000  UDA.002                        
 721                                   0.000000  UDA.002                        
 725                                   0.000000  UDA.002                        
 726                                   0.000000  UDA.002                        
 727                                   0.000000  UDA.002                        
 730                                   0.000000  UDA.002                        
 732                                   0.000000  UDA.002                        
 734                                   0.000000  UDA.002                        
 737                                   0.000000  UDA.002                        
 739                                   0.000000  UDA.002                        
 740                                   0.000000  UDA.002                        
 742                                   0.000000  UDA.002                        
 746                                   0.077449  UDA.002                        
 750                                   0.000000  UDA.002                        
 752                                   0.000000  DMC.003                        
 753                                   0.000000  DMC.003                        
 757                                   0.000000  UDA.002                        
 759                                   0.000000  UDA.002                        
 761                                   0.000000  UDA.002                        
 763                                   0.000000  UDA.002                        
 767                                   0.000000  DMC.003                        
 772                                   0.000000  DMC.003                        
 773                                   0.000000  DMC.003                        
 777                                   0.000000  DMC.003                        
 780                                   0.000000  DMC.003                        
 781                                   0.000000  UDA.002                        
 783                                   0.000000  DMC.003                        
 809                                   0.000000  DMC.003                        
 817                                   0.038724  DMC.003                        
 825                                   0.000000  DMC.003                        
 837                                   0.000000  DMC.003                        
 838                                   0.038724  DMC.003                        
 839                                   0.000000  DMC.003                        
 847                                   0.000000  DMC.003                        
 854                                   0.000000  DMC.003                        
 855                                   0.000000  DMC.003                        
 856                                   0.000000  DMC.003                        
 865                                   0.000000  DMC.003                        
 871                                   0.000000  UDA.002                        
 872                                   0.000000  UDA.002                        
 929                                   0.000000  UDA.002                        
 944                                   0.000000  DMC.003                        
 950                                   0.000000  DMC.003                        
 959                                   0.000000  UDA.002                        
 960                                   0.000000  UDA.002                        
 961                                   0.000000  UDA.002                        
 962                                   0.000000  UDA.002                        
 963                                   0.000000  UDA.002                        
 964                                   0.000000  UDA.002                        
 985                                   0.000000  DMC.003                        
 988                                   0.000000  UDA.002                        
 989                                   0.000000  UDA.002                        
 990                                   0.000000  UDA.002                        
 991                                   0.000000  UDA.002                        
 1019                                  0.000000  DMC.003                        
 1023                                  0.000000  UDA.002                        
 1025                                  0.000000  UDA.002                        
 1026                                  0.000000  UDA.002                        
 1033                                  0.000000  DMC.003                        
 1034                                  0.000000  DMC.003                        
 1037                                  0.000000  DMC.003                        
 1039                                  0.000000  DMC.003                        
 1040                                  0.000000  DMC.003                        
 1041                                  0.000000  DMC.003                        
 1045                                  0.000000  DMC.003                        
 1046                                  0.000000  DMC.003                        
 1047                                  0.000000  DMC.003                        
 1048                                  0.000000  UDA.002                        
 1050                                  0.000000  UDA.002                        
 1052                                  0.038724  UDA.002                        
 1053                                  0.000000  UDA.002                        
 1059                                  0.000000  DMC.003                        
 1060                                  0.000000  DMC.003                        
 1064                                  0.000000  DMC.003                        
 1065                                  0.000000  DMC.003                        
 1066                                  0.000000  DMC.003                        
 1073                                  0.000000  UDA.002                        
 1074                                  0.000000  UDA.002                        
 1075                                  0.038724  UDA.002                        
 1080                                  0.000000  DMC.003                        
 1081                                  0.000000  DMC.003                        
 1082                                  0.000000  DMC.003                        
 1087                                  0.000000  UDA.002                        
 1089                                  0.000000  UDA.002                        
 1094                                  0.000000  UDA.002                        
 1095                                  0.000000  UDA.002                        
 1097                                  0.000000  UDA.002                        
 1098                                  0.000000  UDA.002                        
 1101                                  0.038724  UDA.002                        
 1111                                  0.000000  UDA.002                        
 1112                                  0.000000  UDA.002                        
 1113                                  0.116173  UDA.002                        
 1115                                  0.000000  UDA.002                        
 1116                                  0.038724  UDA.002                        
 1122                                  0.000000  UDA.002                        
 1123                                  0.000000  UDA.002                        
 1124                                  0.000000  UDA.002                        
 1125                                  0.000000  UDA.002                        
 1128                                  0.000000  UDA.002                        
 1129                                  0.000000  UDA.002                        
 1131                                  0.000000  DMC.003                        
 1141                                  0.000000  UDA.002                        
 1142                                  0.000000  UDA.002                        
 1152                                  0.000000  UDA.002                        
 1155                                  0.000000  UDA.002                        
 1156                                  0.000000  UDA.002                        
 1158                                  0.000000  UDA.002                        
 1163                                  0.000000  UDA.002                        
 1164                                  0.000000  UDA.002                        
 1165                                  0.000000  UDA.002                        
 1166                                  0.000000  UDA.002                        
 1167                                  0.000000  UDA.002                        
 1168                                  0.000000  UDA.002                        
 1169                                  0.000000  UDA.002                        
 1170                                  0.000000  UDA.002                        
 1171                                  0.038724  UDA.002                        
 1173                                  0.000000  UDA.002                        
 1174                                  0.000000  UDA.002                        
 1175                                  0.000000  UDA.002                        
 1181                                  0.000000  UDA.002                        
 1182                                  0.000000  UDA.002                        
 1184                                  0.000000  DMC.003                        
 1185                                  0.000000  DMC.003                        
 1190                                  0.000000  DMC.003                        
 1198                                  0.000000  UDA.002                        
 1199                                  0.000000  UDA.002                        
 1200                                  0.000000  UDA.002                        
 1202                                  0.000000  DMC.003                        
 1203                                  0.038724  DMC.003                        
 1207                                  0.038724  UDA.002                        
 1208                                  0.000000  UDA.002                        
 1213                                  0.000000  DMC.003                        
 1216                                  0.000000  DMC.003                        
 1217                                  0.000000  DMC.003                        
 1219                                  0.038724  DMC.003                        
 1220                                  0.000000  DMC.003                        
 1221                                  0.000000  DMC.003                        
 1222                                  0.000000  DMC.003                        
 1223                                  0.000000  DMC.003                        
 1224                                  0.000000  DMC.003                        
 1225                                  0.000000  DMC.003                        
 1226                                  0.038724  UDA.002                        
 1227                                  0.000000  UDA.002                        
 1231                                  0.000000  DMC.003                        
 1232                                  0.000000  DMC.003                        
 1233                                  0.038724  DMC.003                        
 1236                                  0.000000  UDA.002                        
 1237                                  0.000000  UDA.002                        
 1238                                  0.000000  UDA.002                        
 1239                                  0.000000  UDA.002                        
 1240                                  0.000000  UDA.002                        
 1241                                  0.077449  UDA.002                        
 1243                                  0.000000  UDA.002                        
 1318                                  0.000000  DMC.003                        
 1319                                  0.000000  DMC.003                        
 1320                                  0.000000  DMC.003                        
 1321                                  0.000000  DMC.003                        
 1322                                  0.000000  DMC.003                        
 1323                                  0.000000  DMC.003                        
 1324                                  0.000000  DMC.003                        
 1325                                  0.000000  DMC.003                        
 1326                                  0.000000  DMC.003                        
 1327                                  0.000000  DMC.003                        
 1328                                  0.000000  DMC.003                        
 1329                                  0.000000  DMC.003                        
 1330                                  0.000000  DMC.003                        
 1331                                  0.000000  DMC.003                        
 1343                                  0.000000  UDA.002                        
 1351                                  0.000000  UDA.002                        
 1359                                  0.000000  UDA.002                        
 1362                                  0.000000  UDA.002                        
 1367                                  0.000000  UDA.002                        
 1370                                  0.000000  UDA.002                        
 1375                                  0.000000  UDA.002                        
 1378                                  0.000000  UDA.002                        
 1379                                  0.000000  UDA.002                        
 1383                                  0.000000  UDA.002                        
 1384                                  0.000000  UDA.002                        
 1388                                  0.038724  UDA.002                        
 1389                                  0.000000  UDA.002                        
 1391                                  0.000000  UDA.002                        
 1392                                  0.000000  UDA.002                        
 1396                                  0.000000  UDA.002                        
 1397                                  0.000000  UDA.002                        
 1398                                  0.000000  UDA.002                        
 1408                                  0.000000  UDA.002                        
 1409                                  0.000000  UDA.002                        
 1428                                  0.000000  UDA.002                        
 1469                                  0.000000  UDA.002                        
 1470                                  0.000000  UDA.002                        
 1471                                  0.000000  UDA.002                        
 1472                                  0.000000  UDA.002                        
 1474                                  0.038724  UDA.002                        
 1475                                  0.000000  UDA.002                        
 1476                                  0.000000  UDA.002                        
 1482                                  0.000000  UDA.002                        
 1483                                  0.000000  UDA.002                        
 1509                                  0.000000  UDA.002                        
 1513                                  0.000000  UDA.002                        
 1517                                  0.000000  UDA.002                        
 1550                                  0.000000  DMC.003                        
 1565                                  0.000000  DMC.003                        
 1580                                  0.000000  DMC.003                        
 1581                                  0.000000  DMC.003                        
 1587                                  0.000000  DMC.003                        
 1589                                  0.000000  UDA.002                        
 1590                                  0.000000  UDA.002                        
 1593                                  0.000000  UDA.002                        
 1594                                  0.000000  UDA.002                        
 1595                                  0.000000  UDA.002                        
 1607                                  0.000000  DMC.003                        
 1634                                  0.000000  UDA.002                        
 1637                                  0.000000  UDA.002                        
 1659                                  0.000000  DMC.003                        
 1660                                  0.000000  UDA.002                        
 1662                                  0.000000  UDA.002                        
 1663                                  0.000000  UDA.002                        
 1664                                  0.000000  UDA.002                        
 1667                                  0.000000  UDA.002                        
 1668                                  0.000000  UDA.002                        
 1669                                  0.000000  UDA.002                        
 1670                                  0.000000  UDA.002                        
 1671                                  0.000000  UDA.002                        
 1672                                  0.000000  UDA.002                        
 1675                                  0.000000  UDA.002                        
 1676                                  0.000000  UDA.002                        
 1677                                  0.000000  UDA.002                        
 1678                                  0.000000  UDA.002                        
 1689                                  0.038724  DMC.003                        
 1728                                  0.000000  DMC.003                        
 1730                                  0.000000  DMC.003                        
 1732                                  0.000000  DMC.003                        
 1737                                  0.000000  UDA.002                        
 1738                                  0.000000  UDA.002                        
 1741                                  0.000000  UDA.002                        
 1742                                  0.000000  UDA.002                        
 1743                                  0.000000  UDA.002                        
 1749                                  0.000000  UDA.002                        
 1751                                  0.077449  UDA.002                        
 1753                                  0.000000  UDA.002                        
 1757                                  0.000000  UDA.002                        
 1758                                  0.000000  UDA.002                        
 1759                                  0.000000  UDA.002                        
 1761                                  0.000000  UDA.002                        
 1762                                  0.000000  UDA.002                        
 1765                                  0.000000  UDA.002                        
 1766                                  0.000000  UDA.002                        
 1767                                  0.000000  UDA.002                        
 1768                                  0.000000  UDA.002                        
 1770                                  0.000000  UDA.002                        
 1772                                  0.000000  UDA.002                        
 1773                                  0.000000  UDA.002                        
 1774                                  0.000000  UDA.002                        
 1775                                  0.000000  UDA.002                        
 1776                                  0.000000  UDA.002                        
 1777                                  0.000000  UDA.002                        
 1779                                  0.000000  UDA.002                        
 1780                                  0.000000  UDA.002                        
 1781                                  0.000000  UDA.002                        
 1783                                  0.000000  DMC.003                        
 1784                                  0.038724  DMC.003                        
 1785                                  0.000000  DMC.003                        
 1787                                  0.000000  DMC.003                        
 1788                                  0.000000  DMC.003                        
 1790                                  0.000000  DMC.003                        
 1793                                  0.000000  DMC.003                        
 1794                                  0.000000  DMC.003                        
 1795                                  0.000000  DMC.003                        
 1796                                  0.000000  DMC.003                        
 1803                                  0.000000  DMC.003                        
 1804                                  0.000000  DMC.003                        
 1812                                  0.000000  DMC.003                        
 1814                                  0.000000  DMC.003                        
 1815                                  0.000000  DMC.003                        
 1817                                  0.000000  DMC.003                        
 1818                                  0.000000  DMC.003                        
 1071                                  0.000000  DMC.003                        
 1837                                  0.038724  UDA.002                        
 1845                                  0.000000  UDA.002                        
 1846                                  0.038724  UDA.002                        
 1858                                  0.000000  UDA.002                        
 1865                                  0.038724  UDA.002                        
 1870                                  0.000000  UDA.002                        
 1904                                  0.000000  UDA.002                        
 1912                                  0.000000  DMC.003                        
 1914                                  0.000000  UDA.002                        
 1993                                  0.000000  UDA.002                        
 1996                                  0.000000  UDA.002                        
 2000                                  0.000000  UDA.002                        
 2004                                  0.000000  UDA.002                        
 2005                                  0.000000  UDA.002                        
 2006                                  0.000000  UDA.002                        
 2007                                  0.000000  UDA.002                        
 2011                                  0.000000  UDA.002                        
 2012                                  0.000000  UDA.002                        
 2014                                  0.000000  UDA.002                        
 2015                                  0.077449  UDA.002                        
 2016                                  0.000000  UDA.002                        
 2017                                  0.000000  UDA.002                        
 2018                                  0.000000  UDA.002                        
 2027                                  0.000000  DMC.003                        
 2034                                  0.000000  DMC.003                        
 2035                                  0.000000  DMC.003                        
 2036                                  0.000000  DMC.003                        
 2037                                  0.000000  DMC.003                        
 2038                                  0.000000  DMC.003                        
 2039                                  0.038724  DMC.003                        
 2044                                  0.038724  DMC.003                        
 2046                                  0.116173  DMC.003                        
 2047                                  0.000000  DMC.003                        
 2048                                  0.000000  DMC.003                        
 2049                                  0.000000  DMC.003                        
 2050                                  0.000000  DMC.003                        
 2051                                  0.038724  DMC.003                        
 2052                                  0.000000  DMC.003                        
 2053                                  0.077449  DMC.003                        
 2054                                  0.000000  DMC.003                        
 2055                                  0.000000  UDA.002                        
 2056                                  0.000000  UDA.002                        
 2057                                  0.000000  UDA.002                        
 2058                                  0.000000  UDA.002                        
 2059                                  0.000000  UDA.002                        
 2060                                  0.000000  UDA.002                        
 2061                                  0.000000  UDA.002                        
 2062                                  0.000000  UDA.002                        
 2063                                  0.000000  UDA.002                        
 2064                                  0.000000  UDA.002                        
 2065                                  0.000000  UDA.002                        
 2066                                  0.000000  UDA.002                        
 2067                                  0.000000  UDA.002                        
 2068                                  0.000000  UDA.002                        
 2069                                  0.000000  UDA.002                        
 2070                                  0.000000  UDA.002                        
 2071                                  0.000000  UDA.002                        
 2072                                  0.000000  UDA.002                        
 2097                                  0.000000  UDA.002                        
 2099                                  0.000000  UDA.002                        
 2101                                  0.000000  UDA.002                        
 2103                                  0.000000  UDA.002                        
 2106                                  0.000000  UDA.002                        
 2112                                  0.000000  UDA.002                        
 2119                                  0.000000  UDA.002                        
 2120                                  0.000000  UDA.002                        
 2129                                  0.000000  UDA.002                        
 2130                                  0.000000  UDA.002                        
 2131                                  0.000000  UDA.002                        
 2132                                  0.000000  UDA.002                        
 2133                                  0.000000  UDA.002                        
 2135                                  0.000000  UDA.002                        
 2141                                  0.000000  UDA.002                        
 2143                                  0.000000  DMC.003                        
 2148                                  0.000000  DMC.003                        
 2149                                  0.038724  DMC.003                        
 2150                                  0.000000  UDA.002                        
 2151                                  0.000000  UDA.002                        
 2152                                  0.000000  UDA.002                        
 2153                                  0.000000  UDA.002                        
 2154                                  0.038724  UDA.002                        
 2155                                  0.038724  DMC.003                        
 2156                                  0.000000  DMC.003                        
 2160                                  0.000000  DMC.003                        
 2161                                  0.000000  DMC.003                        
 2162                                  0.000000  DMC.003                        
 2164                                  0.000000  DMC.003                        
 2167                                  0.000000  DMC.003                        
 2175                                  0.000000  UDA.002                        
 2178                                  0.000000  UDA.002                        
 2179                                  0.000000  UDA.002                        
 2183                                  0.000000  UDA.002                        
 2213                                  0.000000  UDA.002                        
 2214                                  0.000000  UDA.002                        
 2215                                  0.000000  UDA.002                        
 2216                                  0.000000  UDA.002                        
 2217                                  0.000000  UDA.002                        
 2256                                  0.000000  UDA.002                        
 2257                                  0.000000  UDA.002                        
 2263                                  0.000000  UDA.002                        
 2264                                  0.000000  UDA.002                        
 2266                                  0.038724  UDA.002                        
 2267                                  0.000000  UDA.002                        
 2268                                  0.000000  UDA.002                        
 2269                                  0.000000  UDA.002                        
 2270                                  0.000000  UDA.002                        
 2271                                  0.000000  UDA.002                        
 2272                                  0.000000  UDA.002                        
 2273                                  0.000000  UDA.002                        
 2275                                  0.000000  UDA.002                        
 2276                                  0.000000  UDA.002                        
 2280                                  0.000000  UDA.002                        
 2283                                  0.000000  UDA.002                        
 2290                                  0.000000  UDA.002                        
 2296                                  0.000000  UDA.002                        
 2297                                  0.038724  UDA.002                        
 2300                                  0.000000  DMC.003                        
 2301                                  0.000000  UDA.002                        
 2302                                  0.000000  UDA.002                        
 2306                                  0.000000  UDA.002                        
 2309                                  0.000000  DMC.003                        
 2310                                  0.000000  DMC.003                        
 2311                                  0.038724  DMC.003                        
 2321                                  0.000000  UDA.002                        
 2322                                  0.000000  UDA.002                        
 2323                                  0.000000  UDA.002                        
 2325                                  0.000000  UDA.002                        
 2334                                  0.038724  UDA.002                        
 2340                                  0.000000  UDA.002                        
 2341                                  0.000000  UDA.002                        
 2369                                  0.000000  DMC.003                        
 2372                                  0.038724  DMC.003                        
 2380                                  0.038724  DMC.003                        
 2387                                  0.000000  DMC.003                        
 2423                                  0.000000  UDA.002                        
 2424                                  0.000000  UDA.002                        
 2438                                  0.000000  UDA.002                        
 2451                                  0.000000  DMC.003                        
 2452                                  0.038724  DMC.003                        
 2453                                  0.000000  DMC.003                        
 2455                                  0.000000  DMC.003                        
 2461                                  0.000000  DMC.003                        
 2462                                  0.154898  DMC.003                        
 2465                                  0.000000  UDA.002                        
 2471                                  0.000000  DMC.003                        
 2472                                  0.000000  DMC.003                        
 2500                                  0.000000  UDA.002                        
 2520                                  0.000000  UDA.002                        
 2521                                  0.000000  DMC.003                        
 2524                                  0.000000  DMC.003                        
 2525                                  0.000000  DMC.003                        
 2526                                  0.000000  DMC.003                        
 2533                                  0.000000  UDA.002                        
 2539                                  0.000000  UDA.002                        
 2540                                  0.000000  UDA.002                        
 2541                                  0.000000  UDA.002                        
 2544                                  0.000000  UDA.002                        
 2545                                  0.000000  UDA.002                        
 2546                                  0.000000  UDA.002                        
 2547                                  0.000000  UDA.002                        
 2550                                  0.000000  UDA.002                        
 2552                                  0.000000  UDA.002                        
 2553                                  0.000000  UDA.002                        
 2554                                  0.000000  UDA.002                        
 2569                                  0.000000  UDA.002                        
 2570                                  0.000000  UDA.002                        
 2576                                  0.000000  UDA.002                        
 2577                                  0.000000  UDA.002                        
 2626                                  0.000000  UDA.002                        
 2628                                  0.000000  UDA.002                        
 2631                                  0.000000  UDA.002                        
 2632                                  0.000000  UDA.002                        
 2633                                  0.000000  UDA.002                        
 2634                                  0.000000  UDA.002                        
 2635                                  0.000000  UDA.002                        
 2636                                  0.000000  UDA.002                        
 2637                                  0.000000  UDA.002                        
 2638                                  0.000000  UDA.002                        
 2639                                  0.000000  UDA.002                        
 2640                                  0.000000  UDA.002                        
 2641                                  0.000000  UDA.002                        
 2642                                  0.000000  UDA.002                        
 2643                                  0.000000  UDA.002                        
 2644                                  0.000000  UDA.002                        
 2645                                  0.000000  UDA.002                        
 2646                                  0.000000  UDA.002                        
 2647                                  0.000000  UDA.002                        
 2648                                  0.000000  UDA.002                        
 2649                                  0.000000  UDA.002                        
 2650                                  0.000000  UDA.002                        
 2651                                  0.000000  UDA.002                        
 2652                                  0.000000  UDA.002                        
 2657                                  0.000000  UDA.002                        
 2660                                  0.000000  UDA.002                        
 2666                                  0.000000  DMC.003                        
 2669                                  0.000000  UDA.002                        
 2670                                  0.000000  UDA.002                        
 2671                                  0.000000  UDA.002                        
 2674                                  0.000000  UDA.002                        
 PM.VRP.GAM.004                        0.000000  DMC.003                        
 2678                                  0.000000  UDA.002                        
 2679                                  0.000000  UDA.002                        
 2680                                  0.000000  UDA.002                        
 2682                                  0.000000  UDA.002                        
 2683                                  0.000000  UDA.002                        
 2685                                  0.000000  UDA.002                        
 2686                                  0.000000  UDA.002                        
 2687                                  0.000000  UDA.002                        
 2688                                  0.038724  UDA.002                        
 2689                                  0.000000  UDA.002                        
 2690                                  0.000000  UDA.002                        
 2691                                  0.000000  DMC.003                        
 2692                                  0.000000  DMC.003                        
 2699                                  0.000000  UDA.002                        
 2700                                  0.000000  UDA.002                        
 2701                                  0.000000  UDA.002                        
 2703                                  0.000000  UDA.002                        
 2704                                  0.000000  UDA.002                        
 2705                                  0.000000  UDA.002                        
 2706                                  0.000000  UDA.002                        
 2707                                  0.000000  UDA.002                        
 2708                                  0.000000  UDA.002                        
 2709                                  0.000000  UDA.002                        
 2710                                  0.000000  UDA.002                        
 2711                                  0.000000  UDA.002                        
 PM.VRP.GAM.003                        0.000000  DMC.003                        
 2716                                  0.000000  UDA.002                        
 2717                                  0.000000  UDA.002                        
 2718                                  0.000000  DMC.003                        
 2719                                  0.000000  DMC.003                        
 2720                                  0.000000  DMC.003                        
 2722                                  0.077449  DMC.003                        
 2727                                  0.000000  DMC.003                        
 2737                                  0.038724  DMC.003                        
 2738                                  0.000000  UDA.002                        
 2740                                  0.000000  UDA.002                        
 2741                                  0.000000  UDA.002                        
 2742                                  0.000000  UDA.002                        
 2743                                  0.000000  UDA.002                        
 2744                                  0.000000  UDA.002                        
 2745                                  0.000000  UDA.002                        
 2746                                  0.000000  UDA.002                        
 2747                                  0.000000  UDA.002                        
 2748                                  0.000000  UDA.002                        
 2749                                  0.000000  UDA.002                        
 2750                                  0.000000  UDA.002                        
 2751                                  0.000000  UDA.002                        
 2752                                  0.000000  UDA.002                        
 2753                                  0.000000  UDA.002                        
 2754                                  0.000000  UDA.002                        
 2755                                  0.000000  UDA.002                        
 2756                                  0.000000  UDA.002                        
 2757                                  0.000000  UDA.002                        
 2758                                  0.000000  UDA.002                        
 2759                                  0.000000  UDA.002                        
 2760                                  0.000000  UDA.002                        
 2763                                  0.038724  UDA.002                        
 PM1.DMC.GAM.004                       0.000000  UDA.002                        
 2766                                  0.000000  UDA.002                        
 2767                                  0.000000  UDA.002                        
 2768                                  0.000000  UDA.002                        
 2769                                  0.000000  UDA.002                        
 2770                                  0.000000  UDA.002                        
 2771                                  0.000000  UDA.002                        
 2772                                  0.000000  UDA.002                        
 2773                                  0.000000  UDA.002                        
 2774                                  0.000000  UDA.002                        
 2853                                  0.000000  UDA.002                        
 2860                                  0.000000  UDA.002                        
 2877                                  0.000000  UDA.002                        
 2903                                  0.000000  UDA.002                        
 2905                                  0.000000  UDA.002                        
 2906                                  0.000000  UDA.002                        
 2907                                  0.000000  UDA.002                        
 2908                                  0.000000  UDA.002                        
 2910                                  0.000000  UDA.002                        
 2911                                  0.000000  UDA.002                        
 2912                                  0.000000  UDA.002                        
 2913                                  0.000000  UDA.002                        
 2914                                  0.000000  UDA.002                        
 2915                                  0.000000  UDA.002                        
 2916                                  0.000000  UDA.002                        
 2917                                  0.000000  UDA.002                        
 2918                                  0.000000  UDA.002                        
 2919                                  0.000000  UDA.002                        
 2920                                  0.000000  UDA.002                        
 2922                                  0.000000  UDA.002                        
 2924                                  0.000000  UDA.002                        
 2925                                  0.000000  UDA.002                        
 2929                                  0.000000  UDA.002                        
 2930                                  0.000000  UDA.002                        
 2931                                  0.000000  UDA.002                        
 PM.VRP.GAM.006                        0.000000  UDA.002                        
 2939                                  0.000000  DMC.003                        
 2940                                  0.038724  DMC.003                        
 2941                                  0.116173  DMC.003                        
 PM.VRP.GAM.005                        0.000000  DMC.003                        
 2943                                  0.000000  DMC.003                        
 2944                                  0.000000  DMC.003                        
 2945                                  0.000000  DMC.003                        
 2946                                  0.000000  DMC.003                        
 2947                                  0.000000  DMC.003                        
 2948                                  0.000000  DMC.003                        
 2949                                  0.000000  DMC.003                        
 2950                                  0.000000  DMC.003                        
 2952                                  0.000000  DMC.003                        
 2953                                  0.000000  DMC.003                        
 2954                                  0.000000  DMC.003                        
 2955                                  0.000000  DMC.003                        
 2956                                  0.000000  DMC.003                        
 2957                                  0.000000  DMC.003                        
 2958                                  0.000000  DMC.003                        
 2959                                  0.000000  DMC.003                        
 2960                                  0.000000  DMC.003                        
 2961                                  0.000000  DMC.003                        
 2962                                  0.000000  DMC.003                        
 2963                                  0.000000  DMC.003                        
 2964                                  0.077449  DMC.003                        
 2965                                  0.038724  DMC.003                        
 2966                                  0.000000  UDA.002                        
 2967                                  0.000000  UDA.002                        
 2968                                  0.000000  UDA.002                        
 2969                                  0.000000  UDA.002                        
 2970                                  0.000000  UDA.002                        
 2971                                  0.000000  UDA.002                        
 2973                                  0.000000  UDA.002                        
 2974                                  0.000000  UDA.002                        
 2975                                  0.000000  UDA.002                        
 2976                                  0.000000  UDA.002                        
 2977                                  0.000000  UDA.002                        
 2981                                  0.000000  UDA.002                        
 2982                                  0.000000  UDA.002                        
 2984                                  0.000000  UDA.002                        
 2985                                  0.000000  UDA.002                        
 2986                                  0.000000  DMC.003                        
 2987                                  0.000000  DMC.003                        
 2988                                  0.000000  DMC.003                        
 2989                                  0.000000  DMC.003                        
 2990                                  0.000000  DMC.003                        
 2991                                  0.000000  DMC.003                        
 2993                                  0.000000  DMC.003                        
 2994                                  0.000000  DMC.003                        
 2995                                  0.000000  DMC.003                        
 2996                                  0.000000  DMC.003                        
 2997                                  0.000000  DMC.003                        
 2999                                  0.000000  DMC.003                        
 3000                                  0.000000  DMC.003                        
 3002                                  0.077449  UDA.002                        
 3003                                  0.000000  UDA.002                        
 3004                                  0.000000  UDA.002                        
 3005                                  0.038724  UDA.002                        
 3006                                  0.000000  UDA.002                        
 3007                                  0.000000  UDA.002                        
 3008                                  0.038724  UDA.002                        
 3009                                  0.000000  UDA.002                        
 3010                                  0.000000  UDA.002                        
 3011                                  0.000000  UDA.002                        
 3013                                  0.000000  UDA.002                        
 3014                                  0.000000  UDA.002                        
 3015                                  0.000000  UDA.002                        
 3016                                  0.000000  UDA.002                        
 3018                                  0.000000  UDA.002                        
 3019                                  0.000000  UDA.002                        
 3020                                  0.000000  UDA.002                        
 3021                                  0.000000  UDA.002                        
 3022                                  0.000000  DMC.003                        
 3023                                  0.000000  DMC.003                        
 3024                                  0.000000  UDA.002                        
 3025                                  0.000000  UDA.002                        
 3026                                  0.000000  UDA.002                        
 3027                                  0.000000  UDA.002                        
 3028                                  0.000000  UDA.002                        
 3033                                  0.000000  DMC.003                        
 3034                                  0.000000  DMC.003                        
 3040                                  0.038724  DMC.003                        
 3045                                  0.000000  DMC.003                        
 3049                                  0.000000  DMC.003                        
 3050                                  0.000000  DMC.003                        
 3058                                  0.000000  DMC.003                        
 3061                                  0.000000  DMC.003                        
 3062                                  0.000000  DMC.003                        
 3066                                  0.000000  DMC.003                        
 3067                                  0.000000  DMC.003                        
 3068                                  0.000000  UDA.002                        
 3072                                  0.000000  UDA.002                        
 3073                                  0.000000  UDA.002                        
 3074                                  0.000000  UDA.002                        
 3075                                  0.000000  UDA.002                        
 3081                                  0.000000  UDA.002                        
 3087                                  0.000000  UDA.002                        
 3088                                  0.038724  UDA.002                        
 3089                                  0.000000  UDA.002                        
 3094                                  0.000000  UDA.002                        
 3095                                  0.000000  UDA.002                        
 3096                                  0.000000  UDA.002                        
 3100                                  0.038724  UDA.002                        
 3103                                  0.000000  UDA.002                        
 3104                                  0.000000  UDA.002                        
 3106                                  0.038724  UDA.002                        
 3110                                  0.000000  UDA.002                        
 3111                                  0.000000  UDA.002                        
 3113                                  0.000000  DMC.003                        
 3114                                  0.000000  DMC.003                        
 3115                                  0.000000  UDA.002                        
 3116                                  0.000000  UDA.002                        
 3117                                  0.000000  UDA.002                        
 3118                                  0.000000  UDA.002                        
 3119                                  0.000000  UDA.002                        
 3121                                  0.000000  DMC.003                        
 3123                                  0.077449  DMC.003                        
 3124                                  0.000000  UDA.002                        
 3125                                  0.000000  DMC.003                        
 3126                                  0.000000  DMC.003                        
 3127                                  0.038724  DMC.003                        
 3128                                  0.000000  DMC.003                        
 3129                                  0.000000  DMC.003                        
 3130                                  0.000000  DMC.003                        
 3131                                  0.000000  UDA.002                        
 3138                                  0.000000  UDA.002                        
 3139                                  0.000000  UDA.002                        
 3141                                  0.000000  UDA.002                        
 3142                                  0.038724  UDA.002                        
 3144                                  0.000000  UDA.002                        
 3146                                  0.000000  UDA.002                        
 3147                                  0.000000  UDA.002                        
 3149                                  0.000000  UDA.002                        
 3150                                  0.000000  UDA.002                        
 3151                                  0.000000  UDA.002                        
 3152                                  0.000000  UDA.002                        
 3155                                  0.000000  UDA.002                        
 3156                                  0.000000  UDA.002                        
 3161                                  0.000000  UDA.002                        
 3191                                  0.000000  UDA.002                        
 3195                                  0.000000  UDA.002                        
 3196                                  0.000000  UDA.002                        
 3197                                  0.000000  UDA.002                        
 3199                                  0.000000  UDA.002                        
 3202                                  0.000000  UDA.002                        
 3203                                  0.000000  UDA.002                        
 3205                                  0.000000  UDA.002                        
 3207                                  0.000000  UDA.002                        
 3209                                  0.000000  UDA.002                        
 3210                                  0.000000  UDA.002                        
 3212                                  0.077449  UDA.002                        
 3213                                  0.000000  UDA.002                        
 3214                                  0.000000  UDA.002                        
 3215                                  0.000000  UDA.002                        
 3216                                  0.038724  UDA.002                        
 3217                                  0.000000  UDA.002                        
 3218                                  0.000000  UDA.002                        
 3223                                  0.000000  UDA.002                        
 3226                                  0.000000  UDA.002                        
 3227                                  0.000000  UDA.002                        
 3228                                  0.000000  UDA.002                        
 3229                                  0.000000  UDA.002                        
 3230                                  0.000000  UDA.002                        
 3233                                  0.000000  UDA.002                        
 3234                                  0.000000  UDA.002                        
 3235                                  0.000000  UDA.002                        
 3237                                  0.000000  UDA.002                        
 3238                                  0.000000  UDA.002                        
 3239                                  0.000000  UDA.002                        
 3241                                  0.000000  UDA.002                        
 3242                                  0.000000  UDA.002                        
 3243                                  0.000000  UDA.002                        
 3244                                  0.000000  UDA.002                        
 3250                                  0.000000  UDA.002                        
 3251                                  0.000000  UDA.002                        
 3252                                  0.000000  UDA.002                        
 3253                                  0.000000  UDA.002                        
 3263                                  0.038724  UDA.002                        
 3265                                  0.000000  UDA.002                        
 3266                                  0.000000  UDA.002                        
 3268                                  0.000000  UDA.002                        
 3269                                  0.000000  UDA.002                        
 3270                                  0.000000  UDA.002                        
 3271                                  0.000000  UDA.002                        
 3272                                  0.000000  UDA.002                        
 3273                                  0.000000  UDA.002                        
 3274                                  0.000000  UDA.002                        
 3275                                  0.000000  UDA.002                        
 3276                                  0.000000  UDA.002                        
 3277                                  0.000000  UDA.002                        
 3278                                  0.000000  UDA.002                        
 3281                                  0.000000  DMC.003                        
 3282                                  0.000000  DMC.003                        
 3283                                  0.000000  UDA.002                        
 3285                                  0.038724  UDA.002                        
 3286                                  0.000000  UDA.002                        
 3287                                  0.000000  UDA.002                        
 3288                                  0.000000  UDA.002                        
 3291                                  0.000000  UDA.002                        
 3292                                  0.000000  UDA.002                        
 3293                                  0.000000  UDA.002                        
 3294                                  0.000000  UDA.002                        
 3295                                  0.000000  UDA.002                        
 3296                                  0.000000  UDA.002                        
 3297                                  0.000000  UDA.002                        
 3300                                  0.000000  UDA.002                        
 3302                                  0.000000  UDA.002                        
 3303                                  0.000000  UDA.002                        
 3304                                  0.000000  UDA.002                        
 3305                                  0.000000  UDA.002                        
 3338                                  0.000000  UDA.002                        
 3339                                  0.000000  UDA.002                        
 3371                                  0.000000  UDA.002                        
 3372                                  0.000000  UDA.002                        
 3373                                  0.000000  UDA.002                        
 3376                                  0.000000  UDA.002                        
 3377                                  0.000000  UDA.002                        
 3378                                  0.000000  UDA.002                        
 3385                                  0.000000  UDA.002                        
 3386                                  0.000000  UDA.002                        
 3388                                  0.000000  UDA.002                        
 3389                                  0.000000  UDA.002                        
 3390                                  0.038724  UDA.002                        
 3398                                  0.000000  UDA.002                        
 3399                                  0.000000  UDA.002                        
 3402                                  0.038724  DMC.003                        
 3406                                  0.000000  DMC.003                        
 3407                                  0.000000  UDA.002                        
 3408                                  0.000000  UDA.002                        
 3414                                  0.000000  DMC.003                        
 3415                                  0.000000  DMC.003                        
 3416                                  0.000000  DMC.003                        
 3417                                  0.000000  DMC.003                        
 3418                                  0.000000  DMC.003                        
 3419                                  0.000000  DMC.003                        
 3450                                  0.000000  UDA.002                        
 3451                                  0.038724  UDA.002                        
 3452                                  0.000000  UDA.002                        
 3457                                  0.000000  UDA.002                        
 3458                                  0.000000  UDA.002                        
 3459                                  0.000000  UDA.002                        
 3461                                  0.000000  UDA.002                        
 3462                                  0.000000  UDA.002                        
 3463                                  0.000000  UDA.002                        
 3464                                  0.000000  UDA.002                        
 3465                                  0.000000  UDA.002                        
 3466                                  0.000000  UDA.002                        
 3467                                  0.000000  UDA.002                        
 3468                                  0.000000  UDA.002                        
 3475                                  0.000000  UDA.002                        
 3476                                  0.000000  UDA.002                        
 PM.VRP.GAM.018                        0.000000  UDA.002                        
 3478                                  0.000000  UDA.002                        
 3481                                  0.000000  UDA.002                        
 3482                                  0.000000  UDA.002                        
 3483                                  0.000000  UDA.002                        
 3485                                  0.000000  DMC.003                        
 3489                                  0.000000  UDA.002                        
 3490                                  0.000000  UDA.002                        
 3491                                  0.000000  UDA.002                        
 3492                                  0.000000  UDA.002                        
 3493                                  0.000000  UDA.002                        
 3494                                  0.000000  UDA.002                        
 3497                                  0.000000  UDA.002                        
 3498                                  0.000000  UDA.002                        
 3499                                  0.000000  UDA.002                        
 3500                                  0.000000  UDA.002                        
 3501                                  0.000000  UDA.002                        
 3502                                  0.000000  DMC.003                        
 3507                                  0.000000  UDA.002                        
 3508                                  0.000000  UDA.002                        
 3509                                  0.000000  UDA.002                        
 3510                                  0.000000  UDA.002                        
 3511                                  0.000000  UDA.002                        
 3512                                  0.000000  UDA.002                        
 3513                                  0.000000  UDA.002                        
 3514                                  0.000000  UDA.002                        
 3515                                  0.000000  UDA.002                        
 3516                                  0.000000  UDA.002                        
 3517                                  0.000000  UDA.002                        
 3518                                  0.000000  UDA.002                        
 3519                                  0.000000  UDA.002                        
 3520                                  0.000000  UDA.002                        
 3521                                  0.000000  UDA.002                        
 3522                                  0.000000  UDA.002                        
 3523                                  0.000000  UDA.002                        
 3524                                  0.000000  UDA.002                        
 3525                                  0.000000  UDA.002                        
 3526                                  0.000000  UDA.002                        
 3527                                  0.000000  UDA.002                        
 3528                                  0.000000  UDA.002                        
 3529                                  0.000000  UDA.002                        
 3530                                  0.000000  UDA.002                        
 3538                                  0.000000  UDA.002                        
 3539                                  0.000000  UDA.002                        
 3540                                  0.000000  UDA.002                        
 3541                                  0.000000  UDA.002                        
 3542                                  0.000000  UDA.002                        
 3543                                  0.000000  UDA.002                        
 3544                                  0.000000  UDA.002                        
 3545                                  0.000000  UDA.002                        
 3546                                  0.000000  UDA.002                        
 3547                                  0.000000  UDA.002                        
 3548                                  0.000000  UDA.002                        
 3549                                  0.000000  UDA.002                        
 3550                                  0.000000  UDA.002                        
 3551                                  0.000000  UDA.002                        
 3552                                  0.000000  UDA.002                        
 3553                                  0.000000  UDA.002                        
 3554                                  0.000000  UDA.002                        
 3555                                  0.000000  UDA.002                        
 3556                                  0.000000  UDA.002                        
 3557                                  0.000000  UDA.002                        
 3558                                  0.000000  UDA.002                        
 3563                                  0.077449  DMC.003                        
 3564                                  0.000000  UDA.002                        
 3565                                  0.000000  UDA.002                        
 3566                                  0.000000  UDA.002                        
 3567                                  0.000000  UDA.002                        
 3568                                  0.000000  UDA.002                        
 3569                                  0.000000  UDA.002                        
 3570                                  0.000000                                
 3571                                  0.000000                                
 3576                                  0.000000  DMC.003                        

[EMITTERS]

[STATUS]
 1549                            closed
 1892                            closed
 1983                            closed

[PATTERNS]
;AAT.GAM.050
 UDA.003                               0.8600       0.7500       0.6700       0.6200       0.6000       0.6100
 UDA.003                               0.6600       0.8000       0.9200       1.0400       1.1600       1.2500
 UDA.003                               1.3200       1.3100       1.2500       1.1900       1.1600       1.1600
 UDA.003                               1.1700       1.2000       1.1800       1.1200       1.0500       0.9700
;AAT.GAM.070
 UDA.002                               0.8300       0.7100       0.6100       0.5500       0.5200       0.5300
 UDA.002                               0.5900       0.7700       0.9200       1.0600       1.2000       1.3000
 UDA.002                               1.3700       1.3600       1.2900       1.2400       1.2000       1.1800
 UDA.002                               1.1800       1.2100       1.1900       1.1400       1.0800       0.9800
;AAT.GAM.090
 UDA.004                               0.8500       0.7400       0.6700       0.6200       0.6100       0.6100
 UDA.004                               0.6600       0.8100       0.9400       1.0700       1.1800       1.2800
 UDA.004                               1.3200       1.3000       1.2300       1.1800       1.1500       1.1400
 UDA.004                               1.1500       1.1900       1.1800       1.1200       1.0400       0.9600
;DMC.GAM.003
 DMC.003                               0.7200       0.6000       0.5500       0.5300       0.5100       0.5200
 DMC.003                               0.6100       0.9100       0.9800       1.1000       1.2300       1.3300
 DMC.003                               1.4300       1.3200       1.2700       1.1900       1.2000       1.1900
 DMC.003                               1.2200       1.2600       1.2000       1.1400       1.0400       0.9700

[CURVES]

[CONTROLS]
 LINK VRP.GAM.005 31.7500 AT TIME 0.0000 HOURS
 LINK VRP.GAM.005 31.8300 AT TIME 1.0000 HOURS
 LINK VRP.GAM.005 31.7600 AT TIME 2.0000 HOURS
 LINK VRP.GAM.005 31.7600 AT TIME 3.0000 HOURS
 LINK VRP.GAM.005 31.7100 AT TIME 4.0000 HOURS
 LINK VRP.GAM.005 31.7100 AT TIME 5.0000 HOURS
 LINK VRP.GAM.005 31.7100 AT TIME 6.0000 HOURS
 LINK VRP.GAM.005 31.6700 AT TIME 7.0000 HOURS
 LINK VRP.GAM.005 31.6500 AT TIME 8.0000 HOURS
 LINK VRP.GAM.005 31.6100 AT TIME 9.0000 HOURS
 LINK VRP.GAM.005 31.5600 AT TIME 10.0000 HOURS
 LINK VRP.GAM.005 31.5900 AT TIME 11.0000 HOURS
 LINK VRP.GAM.005 31.5600 AT TIME 12.0000 HOURS
 LINK VRP.GAM.005 31.6200 AT TIME 13.0000 HOURS
 LINK VRP.GAM.005 31.5500 AT TIME 14.0000 HOURS
 LINK VRP.GAM.005 31.6500 AT TIME 15.0000 HOURS
 LINK VRP.GAM.005 31.5700 AT TIME 16.0000 HOURS
 LINK VRP.GAM.005 31.5700 AT TIME 17.0000 HOURS
 LINK VRP.GAM.005 31.7300 AT TIME 18.0000 HOURS
 LINK VRP.GAM.005 31.6900 AT TIME 19.0000 HOURS
 LINK VRP.GAM.005 31.6200 AT TIME 20.0000 HOURS
 LINK VRP.GAM.005 31.6600 AT TIME 21.0000 HOURS
 LINK VRP.GAM.005 31.7500 AT TIME 22.0000 HOURS
 LINK VRP.GAM.005 31.6600 AT TIME 23.0000 HOURS
 LINK VRP.GAM.004 7.7700 AT TIME 0.0000 HOURS
 LINK VRP.GAM.004 7.7600 AT TIME 1.0000 HOURS
 LINK VRP.GAM.004 7.7400 AT TIME 2.0000 HOURS
 LINK VRP.GAM.004 7.7300 AT TIME 3.0000 HOURS
 LINK VRP.GAM.004 7.7400 AT TIME 4.0000 HOURS
 LINK VRP.GAM.004 7.7500 AT TIME 5.0000 HOURS
 LINK VRP.GAM.004 7.7700 AT TIME 6.0000 HOURS
 LINK VRP.GAM.004 7.6400 AT TIME 7.0000 HOURS
 LINK VRP.GAM.004 7.7300 AT TIME 8.0000 HOURS
 LINK VRP.GAM.004 7.7600 AT TIME 9.0000 HOURS
 LINK VRP.GAM.004 7.6100 AT TIME 10.0000 HOURS
 LINK VRP.GAM.004 7.6400 AT TIME 11.0000 HOURS
 LINK VRP.GAM.004 7.8000 AT TIME 12.0000 HOURS
 LINK VRP.GAM.004 7.7900 AT TIME 13.0000 HOURS
 LINK VRP.GAM.004 7.7400 AT TIME 14.0000 HOURS
 LINK VRP.GAM.004 7.7400 AT TIME 15.0000 HOURS
 LINK VRP.GAM.004 7.4800 AT TIME 16.0000 HOURS
 LINK VRP.GAM.004 7.7200 AT TIME 17.0000 HOURS
 LINK VRP.GAM.004 7.7200 AT TIME 18.0000 HOURS
 LINK VRP.GAM.004 7.7600 AT TIME 19.0000 HOURS
 LINK VRP.GAM.004 7.7500 AT TIME 20.0000 HOURS
 LINK VRP.GAM.004 7.7800 AT TIME 21.0000 HOURS
 LINK VRP.GAM.004 7.7500 AT TIME 22.0000 HOURS
 LINK VRP.GAM.004 7.7200 AT TIME 23.0000 HOURS
 LINK VRP.GAM.003 16.4600 AT TIME 0.0000 HOURS
 LINK VRP.GAM.003 16.4400 AT TIME 1.0000 HOURS
 LINK VRP.GAM.003 16.5000 AT TIME 2.0000 HOURS
 LINK VRP.GAM.003 16.5100 AT TIME 3.0000 HOURS
 LINK VRP.GAM.003 16.4600 AT TIME 4.0000 HOURS
 LINK VRP.GAM.003 16.5500 AT TIME 5.0000 HOURS
 LINK VRP.GAM.003 16.7900 AT TIME 6.0000 HOURS
 LINK VRP.GAM.003 24.2900 AT TIME 7.0000 HOURS
 LINK VRP.GAM.003 24.3500 AT TIME 8.0000 HOURS
 LINK VRP.GAM.003 24.4100 AT TIME 9.0000 HOURS
 LINK VRP.GAM.003 24.3000 AT TIME 10.0000 HOURS
 LINK VRP.GAM.003 24.3800 AT TIME 11.0000 HOURS
 LINK VRP.GAM.003 24.3600 AT TIME 12.0000 HOURS
 LINK VRP.GAM.003 24.3300 AT TIME 13.0000 HOURS
 LINK VRP.GAM.003 24.3800 AT TIME 14.0000 HOURS
 LINK VRP.GAM.003 24.2900 AT TIME 15.0000 HOURS
 LINK VRP.GAM.003 24.2600 AT TIME 16.0000 HOURS
 LINK VRP.GAM.003 24.3000 AT TIME 17.0000 HOURS
 LINK VRP.GAM.003 24.3200 AT TIME 18.0000 HOURS
 LINK VRP.GAM.003 24.3700 AT TIME 19.0000 HOURS
 LINK VRP.GAM.003 24.3700 AT TIME 20.0000 HOURS
 LINK VRP.GAM.003 24.3900 AT TIME 21.0000 HOURS
 LINK VRP.GAM.003 24.4200 AT TIME 22.0000 HOURS
 LINK VRP.GAM.003 24.2700 AT TIME 23.0000 HOURS
 LINK VRP.GAM.006 15.3300 AT TIME 0.0000 HOURS
 LINK VRP.GAM.006 15.6600 AT TIME 1.0000 HOURS
 LINK VRP.GAM.006 15.8400 AT TIME 2.0000 HOURS
 LINK VRP.GAM.006 15.7400 AT TIME 3.0000 HOURS
 LINK VRP.GAM.006 16.0000 AT TIME 4.0000 HOURS
 LINK VRP.GAM.006 15.8900 AT TIME 5.0000 HOURS
 LINK VRP.GAM.006 25.0700 AT TIME 6.0000 HOURS
 LINK VRP.GAM.006 25.1200 AT TIME 7.0000 HOURS
 LINK VRP.GAM.006 25.2200 AT TIME 8.0000 HOURS
 LINK VRP.GAM.006 24.9600 AT TIME 9.0000 HOURS
 LINK VRP.GAM.006 25.3300 AT TIME 10.0000 HOURS
 LINK VRP.GAM.006 25.9700 AT TIME 11.0000 HOURS
 LINK VRP.GAM.006 26.1600 AT TIME 12.0000 HOURS
 LINK VRP.GAM.006 26.0900 AT TIME 13.0000 HOURS
 LINK VRP.GAM.006 25.5800 AT TIME 14.0000 HOURS
 LINK VRP.GAM.006 25.3800 AT TIME 15.0000 HOURS
 LINK VRP.GAM.006 25.5500 AT TIME 16.0000 HOURS
 LINK VRP.GAM.006 25.3100 AT TIME 17.0000 HOURS
 LINK VRP.GAM.006 25.7000 AT TIME 18.0000 HOURS
 LINK VRP.GAM.006 25.5700 AT TIME 19.0000 HOURS
 LINK VRP.GAM.006 26.0700 AT TIME 20.0000 HOURS
 LINK VRP.GAM.006 25.1900 AT TIME 21.0000 HOURS
 LINK VRP.GAM.006 15.1400 AT TIME 22.0000 HOURS
 LINK VRP.GAM.006 16.0500 AT TIME 23.0000 HOURS
 LINK VRP.GAM.018 15.0900 AT TIME 0.0000 HOURS
 LINK VRP.GAM.018 15.3400 AT TIME 1.0000 HOURS
 LINK VRP.GAM.018 15.1400 AT TIME 2.0000 HOURS
 LINK VRP.GAM.018 15.2400 AT TIME 3.0000 HOURS
 LINK VRP.GAM.018 15.2100 AT TIME 4.0000 HOURS
 LINK VRP.GAM.018 14.9700 AT TIME 5.0000 HOURS
 LINK VRP.GAM.018 16.0900 AT TIME 6.0000 HOURS
 LINK VRP.GAM.018 15.9600 AT TIME 7.0000 HOURS
 LINK VRP.GAM.018 16.1700 AT TIME 8.0000 HOURS
 LINK VRP.GAM.018 16.3700 AT TIME 9.0000 HOURS
 LINK VRP.GAM.018 15.9800 AT TIME 10.0000 HOURS
 LINK VRP.GAM.018 16.2100 AT TIME 11.0000 HOURS
 LINK VRP.GAM.018 15.7600 AT TIME 12.0000 HOURS
 LINK VRP.GAM.018 16.1600 AT TIME 13.0000 HOURS
 LINK VRP.GAM.018 16.3600 AT TIME 14.0000 HOURS
 LINK VRP.GAM.018 16.1300 AT TIME 15.0000 HOURS
 LINK VRP.GAM.018 16.1000 AT TIME 16.0000 HOURS
 LINK VRP.GAM.018 16.2800 AT TIME 17.0000 HOURS
 LINK VRP.GAM.018 16.0200 AT TIME 18.0000 HOURS
 LINK VRP.GAM.018 16.1600 AT TIME 19.0000 HOURS
 LINK VRP.GAM.018 16.2800 AT TIME 20.0000 HOURS
 LINK VRP.GAM.018 16.3200 AT TIME 21.0000 HOURS
 LINK VRP.GAM.018 13.9800 AT TIME 22.0000 HOURS
 LINK VRP.GAM.018 14.6400 AT TIME 23.0000 HOURS

[RULES]

[QUALITY]

[SOURCES]

[MIXING]

[REACTIONS]
 ORDER  BULK            1.00
 ORDER  WALL            1
 ORDER  TANK            1.00
 GLOBAL BULK            0.000000
 GLOBAL WALL            0.000000

[ENERGY]
 GLOBAL EFFIC        75.0000
 DEMAND CHARGE       0.0000

[TIMES]
 DURATION            24:00:00
 HYDRAULIC TIMESTEP  1:00:00
 QUALITY TIMESTEP    0:06:00
 REPORT TIMESTEP     1:00:00
 REPORT START        0:00:00
 PATTERN TIMESTEP    1:00:00
 PATTERN START       0:00:00
 RULE TIMESTEP       0:06:00
 START CLOCKTIME     0:00:00
 STATISTIC           NONE

[OPTIONS]
 UNITS               LPS
 PRESSURE            METERS
 HEADLOSS            H-W
 UNBALANCED          CONTINUE 10
 QUALITY             NONE
 DEMAND MULTIPLIER   1.0000
 EMITTER EXPONENT    0.5000
 VISCOSITY           1.000000
 DIFFUSIVITY         1.000000
 SPECIFIC GRAVITY    1.000000
 TRIALS              40
 ACCURACY            0.00100000
 TOLERANCE           0.01000000
 CHECKFREQ           10
 MAXCHECK            10
 DAMPLIMIT           0.00000000

[REPORT]
 PAGESIZE            0
 STATUS              NO
 SUMMARY             NO
 ENERGY              NO
 MESSAGES            YES
 NODES               NONE
 LINKS               NONE
 Elevation           NO
 Demand              PRECISION 2
 Head                PRECISION 2
 Pressure            PRECISION 2
 Quality             NO
 Length              NO
 Diameter            NO
 Flow                PRECISION 2
 Velocity            PRECISION 2
 Headloss            PRECISION 2
 Quality             NO
 State               NO
 Setting             NO
 Reaction            NO

[COORDINATES]
 1215                             172188.727000 8226891.706000
 0                                171946.949000 8227044.887000
 425                              171786.644000 8227080.526000
 1473                             171491.373000 8226174.766000
 6                                172036.144000 8227098.127000
 1763                             171888.608000 8226672.746000
 2261                             172233.894000 8224954.119000
 1197                             172303.547000 8226995.266000
 3183                             172708.603000 8224213.999000
 286                              172367.711000 8225179.732000
 1214                             172185.407000 8226780.446000
 2289                             171378.543000 8225979.150000
 7                                172131.308000 8227146.947000
 1997                             171546.008000 8224719.644000
 426                              171849.845000 8226964.798000
 3090                             172496.351000 8225077.046000
 2136                             171292.516000 8225081.242000
 387                              171183.838000 8226492.528000
 1830                             170920.618000 8225768.570000
 1835                             170207.625000 8225661.278000
 446                              171604.302000 8226949.018000
 2121                             172038.449000 8225285.083000
 1137                             171154.838000 8226443.748000
 1597                             172078.137000 8226399.715000
 789                              172079.513000 8224593.608000
 2173                             171198.827000 8224932.654000
 1196                             172297.867000 8226776.756000
 1579                             172269.658000 8225035.064000
 2032                             170937.567000 8226069.384000
 1771                             171910.149000 8226659.408000
 1332                             171435.800000 8225549.575000
 650                              171679.199000 8224946.400000
 39                               171495.117000 8225639.604000
 2522                             171809.382000 8225776.187000
 870                              172034.210000 8225964.992000
 649                              171338.522000 8225154.201000
 343                              171742.650000 8224803.499000
 3188                             172820.293000 8224384.244000
 330                              171633.198000 8224870.757000
 320                              171841.801000 8224970.122000
 2983                             171795.417000 8226934.354000
 334                              172181.164000 8224762.146000
 619                              170568.677000 8226192.888000
 1999                             171880.888000 8224418.484000
 43                               169724.896000 8225850.344000
 2441                             171884.869000 8225037.568000
 103                              171170.367000 8226303.485000
 2440                             172004.569000 8225918.780000
 341                              171787.144000 8224879.857000
 1647                             171942.396000 8225130.802000
 246                              171735.939000 8225036.749000
 1364                             171651.593000 8224654.992000
 108                              171705.199000 8226830.081000
 2566                             172191.077000 8226999.906000
 1839                             170181.066000 8225563.744000
 926                              170629.338000 8226052.660000
 80                               171344.277000 8226723.565000
 160                              171550.187000 8226727.025000
 100                              172065.607000 8226011.755000
 1481                             171869.767000 8225869.695000
 1479                             171807.077000 8225964.035000
 1088                             172193.260000 8227106.145000
 388                              171286.097000 8226296.975000
 1820                             170374.421000 8225882.990000
 1507                             171989.668000 8225207.155000
 1107                             172083.756000 8227241.189000
 2029                             170647.917000 8225669.424000
 3070                             171545.469000 8225674.547000
 1782                             172017.839000 8226530.370000
 1110                             172222.940000 8226441.793000
 245                              171396.417000 8225247.524000
 2478                             171716.580000 8226690.640000
 640                              170727.827000 8225823.784000
 124                              172177.987000 8226193.935000
 1339                             171629.467000 8225283.644000
 1406                             172407.713000 8224400.196000
 795                              171222.969000 8225684.138000
 393                              170615.077000 8226266.852000
 663                              172150.105000 8224710.340000
 1242                             172181.318000 8224529.094000
 1868                             172651.608000 8225091.045000
 583                              171210.077000 8226542.005000
 770                              169931.564000 8225926.456000
 620                              170238.221000 8226395.653000
 2008                             171771.461000 8226475.661000
 1100                             171142.734000 8226254.144000
 2172                             171245.848000 8225006.363000
 2448                             170715.077000 8225831.504000
 2627                             171134.557000 8226194.517000
 611                              171587.548000 8224796.071000
 1838                             171241.942000 8225565.935000
 2123                             172085.591000 8225357.021000
 866                              171315.899000 8225832.337000
 106                              171126.262000 8226397.279000
 3                                172138.832000 8227150.932000
 805                              171806.347000 8225567.214000
 744                              171904.396000 8226112.259000
 2696                             169956.916000 8225612.042000
 1735                             172152.827000 8226286.385000
 2368                             169967.966000 8226565.284000
 2429                             171315.651000 8225345.900000
 336                              172224.587000 8224830.137000
 2436                             172126.332000 8224667.548000
 927                              170968.091000 8225843.158000
 743                              171935.175000 8226157.582000
 1076                             171355.354000 8226188.548000
 2442                             170343.329000 8225832.973000
 766                              170319.115000 8225789.987000
 2028                             170617.247000 8225688.264000
 1666                             171329.518000 8225961.646000
 2476                             172007.981000 8226244.971000
 1563                             170288.112000 8226469.463000
 348                              171325.669000 8226141.807000
 3240                             172751.362000 8224473.620000
 82                               171431.567000 8226865.775000
 2314                             169826.945000 8225987.561000
 3249                             172920.750000 8224335.078000
 597                              171271.597000 8225756.704000
 801                              170997.387000 8225427.314000
 2218                             172384.438000 8224507.514000
 3375                             171111.485000 8226157.584000
 769                              169841.741000 8225778.468000
 2514                             172046.416000 8226551.495000
 814                              170358.169000 8226116.038000
 648                              171971.045000 8226204.038000
 2668                             170027.298000 8225567.908000
 335                              172228.028000 8224827.044000
 403                              171666.317000 8225261.254000
 1640                             172587.155000 8224840.305000
 627                              170606.597000 8225670.104000
 624                              171500.257000 8224654.866000
 2343                             170015.886000 8226636.894000
 1108                             172256.057000 8226489.405000
 1646                             172032.523000 8224518.436000
 123                              172033.112000 8226285.129000
 1382                             172631.061000 8224914.032000
 2559                             171670.270000 8226719.973000
 2114                             171838.417000 8225824.015000
 2450                             170270.889000 8225714.141000
 4                                172127.810000 8227140.577000
 107                              171571.978000 8226913.299000
 1079                             170640.416000 8226097.994000
 1121                             171760.615000 8225070.183000
 385                              171313.300000 8226346.091000
 1665                             171549.360000 8225871.235000
 1120                             171237.119000 8226656.893000
 2420                             170862.077000 8225674.046000
 2316                             169672.177000 8226083.175000
 94                               171373.037000 8226769.905000
 1636                             172433.847000 8224931.269000
 93                               171429.470000 8226537.635000
 37                               170757.539000 8226269.478000
 1614                             171161.338000 8224864.991000
 639                              170892.478000 8225723.330000
 2224                             172458.898000 8224750.854000
 718                              170092.401000 8226154.707000
 2437                             170973.201000 8225279.775000
 1515                             170927.312000 8225205.494000
 1109                             172253.597000 8226491.034000
 664                              171811.117000 8224920.168000
 1403                             172247.408000 8224283.374000
 1051                             172020.133000 8226336.086000
 95                               171375.914000 8226768.017000
 818                              170272.674000 8226168.740000
 867                              171167.890000 8225922.037000
 3079                             171638.507000 8225693.003000
 325                              172337.858000 8224430.944000
 794                              171077.144000 8225774.504000
 1516                             170881.482000 8225130.112000
 104                              171168.235000 8226300.634000
 3069                             171587.664000 8225743.454000
 3185                             172689.572000 8224070.474000
 831                              170947.078000 8225090.745000
 2736                             171525.750000 8226846.159000
 1867                             172355.558000 8224581.864000
 1755                             171845.578000 8226537.335000
 618                              170675.697000 8226127.745000
 1183                             170003.336000 8226210.134000
 1477                             172064.022000 8226009.185000
 591                              171266.017000 8225492.214000
 2307                             170399.405000 8225914.598000
 1366                             171609.175000 8224587.065000
 1361                             171703.118000 8224732.784000
 1834                             169891.936000 8225859.154000
 1144                             171400.039000 8226488.571000
 815                              170336.726000 8226129.169000
 2681                             171759.699000 8225740.608000
 2250                             170169.706000 8226543.484000
 798                              171039.665000 8225237.029000
 81                               171346.907000 8226727.927000
 830                              171092.674000 8225000.662000
 2113                             171845.272000 8226016.798000
 3080                             171651.705000 8225713.848000
 3039                             170156.288000 8226474.209000
 96                               171401.987000 8226817.315000
 617                              171013.243000 8225915.845000
 1096                             171296.683000 8226093.688000
 804                              171654.866000 8225662.972000
 747                              171627.265000 8225887.950000
 779                              170021.329000 8225571.309000
 771                              169977.333000 8226001.196000
 2543                             170698.817000 8225776.524000
 1836                             170178.290000 8225565.683000
 158                              172210.465000 8226567.813000
 2142                             170819.200000 8225604.528000
 1819                             170423.991000 8225946.934000
 1736                             172155.197000 8226290.095000
 592                              171236.957000 8225443.644000
 1577                             172676.816000 8224990.472000
 2439                             172239.391000 8226300.170000
 709                              170762.859000 8225512.761000
 958                              172190.757000 8226383.935000
 2158                             170693.559000 8225155.220000
 848                              170533.706000 8225448.951000
 1599                             171685.913000 8225983.665000
 957                              172011.627000 8226495.024000
 749                              171656.422000 8225935.896000
 2146                             170733.804000 8225220.651000
 647                              172158.579000 8226085.095000
 574                              171265.611000 8226704.744000
 799                              171185.434000 8225147.794000
 1729                             169725.051000 8226164.685000
 1739                             171488.527000 8226632.554000
 156                              172143.002000 8226609.937000
 2693                             170082.931000 8226403.503000
 1827                             170525.116000 8225884.179000
 3192                             172913.983000 8224339.085000
 2140                             171194.907000 8225374.114000
 3170                             172679.371000 8224482.068000
 1381                             172481.249000 8225004.396000
 2697                             171413.545000 8225852.188000
 3190                             172732.627000 8224043.391000
 110                              171537.927000 8226865.970000
 2558                             171514.624000 8226815.580000
 626                              170452.542000 8225764.840000
 3194                             172736.984000 8224041.735000
 258                              171274.937000 8226052.405000
 662                              171164.187000 8225322.844000
 2010                             171731.417000 8225448.444000
 1829                             170583.440000 8225979.163000
 581                              171517.579000 8226680.744000
 3181                             172660.858000 8224244.735000
 109                              171568.517000 8226915.735000
 651                              172212.297000 8226251.485000
 2304                             171070.297000 8225546.974000
 2419                             172074.098000 8226598.481000
 930                              172082.638000 8224591.084000
 60                               171335.447000 8225156.454000
 2279                             171693.279000 8226559.503000
 3030                             170184.968000 8226518.345000
 1402                             172079.798000 8224389.324000
 2212                             171500.287000 8226646.575000
 1018                             171211.411000 8225986.022000
 646                              171232.261000 8225220.255000
 396                              171808.176000 8225236.494000
 339                              171775.985000 8225106.534000
 2013                             171216.716000 8226632.305000
 2137                             171424.279000 8225294.558000
 1394                             172540.615000 8224317.846000
 813                              170379.179000 8226103.097000
 326                              172186.038000 8224526.726000
 2286                             172007.047000 8225916.925000
 2454                             170686.937000 8225784.254000
 3171                             172684.438000 8224479.024000
 2527                             171060.617000 8225992.578000
 3046                             170634.283000 8226246.514000
 738                              172186.916000 8226132.122000
 1154                             171405.085000 8226815.588000
 1511                             171470.272000 8225365.842000
 667                              170715.684000 8225437.601000
 2498                             170201.876000 8226320.445000
 2896                             172552.481000 8224184.136000
 1090                             171916.201000 8225089.154000
 719                              170416.809000 8225951.838000
 263                              171026.687000 8225476.224000
 754                              172128.522000 8226037.254000
 72                               172701.739000 8224218.197000
 1358                             171986.198000 8225208.814000
 1480                             171868.059000 8225867.038000
 1345                             171774.207000 8225517.064000
 1172                             171341.021000 8226394.570000
 424                              170700.326000 8226174.254000
 3163                             172584.820000 8224540.245000
 994                              171208.280000 8226539.535000
 3091                             172522.354000 8225117.613000
 1103                             171541.095000 8226863.794000
 782                              171440.068000 8225315.421000
 3232                             172145.403000 8224458.218000
 2443                             171986.951000 8224447.249000
 2698                             171570.648000 8225759.843000
 788                              170622.867000 8225660.004000
 2318                             169890.456000 8225856.754000
 2144                             170873.015000 8225444.005000
 1844                             172186.467000 8226266.945000
 2370                             169929.407000 8226499.883000
 2366                             170207.913000 8226609.887000
 1842                             172330.794000 8224762.825000
 2469                             171179.762000 8225608.716000
 3167                             172637.104000 8224507.647000
 1871                             172585.275000 8224290.199000
 3164                             172590.723000 8224536.652000
 30                               170952.467000 8226151.935000
 1401                             172681.369000 8224230.646000
 1369                             171701.848000 8224730.824000
 1512                             171365.139000 8225198.607000
 1177                             172289.274000 8224692.327000
 2031                             170964.907000 8226139.285000
 2466                             171969.218000 8225863.023000
 2367                             170055.286000 8226704.755000
 2176                             171248.533000 8225012.648000
 736                              172179.221000 8226196.872000
 2313                             169788.456000 8225925.404000
 477                              171022.347000 8225690.659000
 845                              170468.168000 8225487.806000
 3186                             172684.726000 8224073.257000
 682                              172371.725000 8225074.521000
 1338                             171694.217000 8225389.694000
 345                              171704.049000 8224986.975000
 2145                             171018.510000 8225352.770000
 1478                             171808.617000 8225966.488000
 140                              171594.911000 8225842.626000
 2695                             169796.566000 8225712.284000
 2291                             171840.547000 8225822.145000
 2255                             171954.328000 8224373.844000
 768                              170721.549000 8226203.637000
 733                              171478.754000 8225377.304000
 3099                             171987.012000 8225387.728000
 3174                             172731.487000 8224450.299000
 1843                             172205.148000 8224212.394000
 3038                             170217.512000 8226436.890000
 841                              170393.947000 8225535.046000
 851                              170587.651000 8225414.100000
 1464                             171052.286000 8224933.815000
 3178                             172773.896000 8224425.360000
 689                              171101.437000 8225594.654000
 1638                             172540.496000 8224767.907000
 445                              171602.617000 8226946.510000
 3158                             172543.939000 8224566.448000
 1746                             171445.132000 8226555.399000
 811                              170414.961000 8226080.923000
 580                              171520.467000 8226678.845000
 2287                             171971.817000 8225861.495000
 3052                             170645.854000 8226205.410000
 2477                             170992.975000 8225164.550000
 1020                             171601.728000 8225856.139000
 322                              171835.593000 8224974.051000
 260                              170793.956000 8225323.395000
 844                              170451.056000 8225499.238000
 3108                             172064.468000 8225372.899000
 3078                             171601.619000 8225632.230000
 582                              171371.741000 8226441.960000
 2308                             170690.377000 8225157.174000
 745                              171874.725000 8226064.127000
 3184                             172871.847000 8224363.367000
 2421                             170906.361000 8225024.813000
 3290                             172129.811000 8225918.116000
 2134                             171526.961000 8225699.545000
 2033                             170944.457000 8226080.044000
 778                              169555.000000 8225865.648000
 857                              172291.741000 8224361.009000
 821                              170217.827000 8226203.072000
 3165                             172479.714000 8224357.600000
 633                              170549.299000 8225938.313000
 849                              170553.858000 8225436.775000
 2220                             172633.303000 8224260.306000
 1642                             172390.077000 8224856.219000
 605                              171101.734000 8226053.750000
 708                              170423.488000 8225722.938000
 3505                             170607.312000 8225253.243000
 2315                             169630.286000 8226011.954000
 1578                             172528.528000 8225080.120000
 1601                             171727.484000 8226013.446000
 159                              171548.482000 8226724.573000
 98                               172143.977000 8226056.705000
 1133                             171878.902000 8225041.754000
 1349                             171506.887000 8225438.424000
 2548                             171765.786000 8226749.238000
 1531                             170826.320000 8225368.510000
 575                              171461.350000 8226585.265000
 1598                             171986.282000 8226458.467000
 1635                             172361.758000 8224810.880000
 2188                             171119.854000 8226204.187000
 1596                             171122.722000 8225847.865000
 1484                             171139.914000 8225074.715000
 2284                             172241.797000 8226298.565000
 56                               171669.137000 8225698.353000
 2126                             171842.017000 8225545.494000
 748                              170523.786000 8226119.774000
 3157                             172538.280000 8224569.698000
 3177                             172726.064000 8224453.346000
 2299                             171206.631000 8226609.559000
 1363                             171647.208000 8224657.874000
 3374                             171360.420000 8226418.001000
 274                              170327.440000 8226540.980000
 820                              170239.501000 8226189.749000
 1356                             172282.168000 8224913.110000
 751                              171381.745000 8225790.818000
 389                              171288.490000 8226300.573000
 3056                             171082.935000 8225973.435000
 3031                             170211.689000 8226561.803000
 819                              170255.514000 8226179.343000
 1404                             172451.236000 8224373.585000
 413                              170495.336000 8225840.814000
 434                              170051.942000 8226124.500000
 3032                             170224.672000 8226582.176000
 85                               171509.031000 8226818.959000
 1831                             171074.817000 8225776.274000
 1641                             172634.478000 8224912.084000
 1825                             170482.638000 8225815.268000
 1840                             170137.796000 8225498.592000
 728                              172230.531000 8224599.956000
 42                               169592.936000 8225929.644000
 3064                             171156.254000 8225958.460000
 63                               170997.827000 8225174.384000
 822                              170198.888000 8226215.096000
 157                              172168.220000 8226594.664000
 2165                             170573.524000 8225969.755000
 843                              170429.984000 8225512.948000
 2124                             171775.637000 8225436.234000
 660                              171822.988000 8226654.103000
 2265                             171158.317000 8224867.094000
 3051                             170625.527000 8226218.182000
 1576                             170493.935000 8225841.798000
 764                              171550.082000 8225494.791000
 806                              171084.634000 8225312.427000
 3098                             172019.070000 8225436.055000
 1246                             170701.977000 8225355.794000
 3453                             171776.970000 8226580.104000
 2181                             171814.037000 8225152.652000
 2128                             171950.947000 8225477.985000
 261                              170951.482000 8225575.134000
 18                               170105.257000 8226441.011000
 2863                             172455.892000 8224115.660000
 2892                             172332.815000 8224242.866000
 241                              171853.397000 8226036.725000
 735                              171505.087000 8225425.086000
 1337                             171662.097000 8225339.674000
 762                              171370.691000 8225427.323000
 328                              172039.318000 8224312.551000
 3162                             172474.420000 8224360.595000
 409                              170842.928000 8225401.631000
 3086                             172466.564000 8225038.451000
 2285                             171887.678000 8225365.824000
 1809                             170543.781000 8225339.823000
 2253                             172325.593000 8225000.737000
 3301                             172002.321000 8226560.214000
 3077                             171587.211000 8225609.140000
 578                              171692.606000 8226529.457000
 652                              172209.694000 8226253.447000
 3065                             171143.110000 8225937.186000
 254                              171755.402000 8226103.238000
 1529                             171001.167000 8225657.194000
 1373                             172060.571000 8224507.361000
 285                              172421.172000 8225145.377000
 609                              171390.471000 8225251.504000
 1178                             171649.018000 8226665.250000
 787                              170789.482000 8225556.306000
 643                              172192.566000 8226386.576000
 338                              172255.336000 8224879.269000
 3231                             172294.176000 8224365.244000
 812                              170394.005000 8226093.680000
 2098                             171841.895000 8225298.544000
 2555                             172114.644000 8225420.127000
 2866                             172530.141000 8224068.899000
 724                              171597.122000 8224805.967000
 2865                             172506.777000 8224084.013000
 2324                             171589.364000 8226568.817000
 3247                             172537.703000 8224756.007000
 36                               170657.586000 8226328.015000
 3166                             172631.785000 8224510.709000
 1744                             171432.827000 8226303.435000
 1828                             170554.955000 8225934.558000
 731                              171618.139000 8225601.963000
 3560                             170300.839000 8225528.033000
 1691                             171387.633000 8225464.837000
 2180                             171811.230000 8225154.464000
 2009                             171701.457000 8225400.204000
 2694                             169694.745000 8225775.866000
 298                              171387.381000 8225475.357000
 3454                             171758.203000 8226547.258000
 2338                             172052.515000 8226348.434000
 19                               170123.276000 8226468.464000
 422                              171134.403000 8225873.014000
 1998                             171333.181000 8226373.178000
 1747                             171473.454000 8226601.371000
 479                              170339.478000 8225819.770000
 1821                             170380.001000 8225879.257000
 978                              170974.766000 8225606.579000
 952                              169981.989000 8226122.170000
 2125                             171812.437000 8225495.574000
 803                              170777.987000 8225297.194000
 842                              170413.325000 8225523.048000
 2274                             171814.508000 8225246.954000
 1211                             170257.756000 8226457.968000
 2139                             171432.631000 8225320.489000
 398                              171645.687000 8226289.082000
 1400                             172517.949000 8224332.719000
 83                               171413.366000 8226835.958000
 2168                             170919.674000 8225756.167000
 2092                             171920.291000 8225427.909000
 1485                             171149.672000 8225085.455000
 1189                             169907.908000 8226269.804000
 2222                             172428.798000 8224702.394000
 644                              172225.687000 8226440.145000
 1353                             172331.168000 8224997.544000
 1218                             170285.274000 8225614.944000
 1410                             172578.545000 8224116.586000
 404                              171733.017000 8225366.664000
 2468                             171031.618000 8225700.631000
 264                              170930.371000 8225536.243000
 1592                             172260.888000 8224642.564000
 3403                             171410.240000 8226830.836000
 3264                             171384.195000 8226456.086000
 3208                             172654.970000 8224139.656000
 655                              171363.021000 8225432.543000
 760                              171464.122000 8225369.910000
 2159                             170840.279000 8225064.234000
 3169                             172520.792000 8224331.870000
 1380                             172401.008000 8224656.414000
 88                               171382.447000 8226223.515000
 2376                             169949.235000 8226377.829000
 1604                             169801.487000 8226170.870000
 151                              172247.740000 8226544.534000
 488                              171334.506000 8225382.727000
 3047                             170651.791000 8226275.860000
 810                              170431.502000 8226070.083000
 1872                             172603.480000 8224278.869000
 807                              171358.973000 8225203.046000
 2730                             169877.817000 8226070.912000
 1808                             170525.566000 8225351.056000
 3187                             172866.023000 8224366.868000
 1824                             170446.933000 8225768.510000
 1802                             170424.202000 8225414.208000
 2223                             172403.558000 8224660.633000
 758                              171587.194000 8225553.011000
 1346                             171623.061000 8225611.057000
 3063                             171181.381000 8226004.800000
 3248                             172473.178000 8224654.377000
 1913                             172015.177000 8226849.166000
 2312                             169783.376000 8225918.114000
 1530                             171004.027000 8225655.418000
 1395                             172557.459000 8224307.519000
 1340                             171656.997000 8225329.114000
 1798                             170349.141000 8225461.010000
 86                               171285.876000 8226745.255000
 668                              171709.477000 8224983.219000
 852                              170605.570000 8225403.517000
 2221                             172652.360000 8224248.825000
 3179                             172778.799000 8224422.293000
 590                              171291.193000 8225314.316000
 606                              170489.356000 8225827.934000
 2023                             170509.564000 8225269.105000
 1823                             170484.347000 8226051.278000
 793                              171806.177000 8225486.414000
 2371                             169918.026000 8226481.374000
 1350                             171510.422000 8225435.687000
 1791                             170648.462000 8225318.910000
 2425                             170035.305000 8226089.352000
 826                              170447.532000 8226000.992000
 3176                             172615.159000 8224273.813000
 1514                             171259.941000 8225264.349000
 2375                             169978.204000 8226360.613000
 827                              170119.716000 8226202.135000
 1413                             172613.760000 8224083.227000
 800                              171046.339000 8225396.975000
 3059                             171120.586000 8225913.291000
 481                              170321.806000 8225787.864000
 3219                             172372.290000 8224309.679000
 323                              172045.758000 8224533.454000
 792                              171914.556000 8225418.190000
 3175                             172620.068000 8224271.015000
 1336                             171737.157000 8225377.124000
 2893                             172343.887000 8224260.958000
 2219                             172387.731000 8224412.571000
 3204                             172697.789000 8224008.539000
 808                              171265.430000 8225260.591000
 270                              170350.558000 8225607.688000
 2383                             169926.274000 8226321.554000
 2384                             169946.995000 8226308.869000
 1643                             172284.919000 8224248.182000
 21                               169865.918000 8226392.783000
 1341                             171772.637000 8225506.354000
 1342                             171741.947000 8225456.014000
 1994                             172299.218000 8224161.324000
 3486                             170274.462000 8225486.165000
 756                              171581.872000 8225541.131000
 1822                             170350.086000 8225828.355000
 3559                             170315.936000 8225552.886000
 3254                             172457.397000 8224629.521000
 2501                             172783.717000 8225011.478000
 3484                             170242.970000 8225434.236000
 1750                             171665.043000 8226683.933000
 1104                             171703.905000 8226764.987000
 327                              172035.288000 8224315.864000
 860                              170378.194000 8225649.541000
 405                              171702.067000 8225315.784000
 784                              171740.800000 8225033.334000
 1644                             172324.248000 8224313.137000
 2895                             172531.707000 8224197.236000
 332                              171784.428000 8225100.602000
 1816                             170140.706000 8225496.724000
 402                              171694.967000 8225306.834000
 2862                             172433.764000 8224128.963000
 1335                             171769.057000 8225426.344000
 1072                             172032.377000 8226322.035000
 3140                             172497.991000 8224602.843000
 589                              171298.127000 8225309.675000
 2147                             170730.897000 8225222.804000
 1778                             172076.631000 8226397.089000
 931                              171850.098000 8225306.524000
 1799                             170366.974000 8225448.837000
 2042                             169865.992000 8226130.673000
 850                              170570.819000 8225424.707000
 3487                             170263.928000 8225469.352000
 1234                             170073.626000 8226386.254000
 1344                             171596.657000 8225575.414000
 59                               171165.997000 8225070.434000
 947                              169875.243000 8226188.665000
 3387                             171808.682000 8226465.910000
 2475                             170999.381000 8225430.157000
 2878                             172461.102000 8224177.586000
 2875                             172541.072000 8224075.384000
 2998                             169848.964000 8226365.631000
 1135                             172050.590000 8226765.975000
 1463                             171095.657000 8224998.214000
 3057                             171066.384000 8225945.992000
 2041                             169847.141000 8226142.029000
 3036                             170262.382000 8226512.267000
 53                               171881.698000 8225356.084000
 3084                             172430.678000 8225109.223000
 2715                             171357.501000 8225890.961000
 1348                             171542.681000 8225484.246000
 858                              172135.759000 8224450.698000
 2288                             171947.797000 8225821.115000
 2138                             171340.300000 8225378.421000
 2339                             172247.955000 8226348.812000
 2467                             170477.019000 8225818.499000
 2385                             169967.686000 8226296.182000
 2864                             172473.057000 8224105.317000
 2516                             171099.795000 8225591.877000
 2726                             169950.713000 8226186.555000
 2100                             171929.265000 8225339.640000
 1360                             171804.637000 8224924.241000
 3211                             172558.013000 8223995.876000
 823                              170178.895000 8226227.764000
 2883                             172494.132000 8224168.877000
 1905                             170246.569000 8225431.966000
 948                              169896.385000 8226175.409000
 105                              171123.827000 8226398.725000
 3037                             170243.418000 8226481.747000
 1176                             172386.418000 8224632.884000
 1591                             172355.708000 8224582.954000
 1188                             169928.091000 8226255.928000
 419                              170687.640000 8226153.408000
 3048                             170673.807000 8226313.084000
 1419                             172459.605000 8224216.162000
 1417                             172413.786000 8224141.421000
 3101                             171963.263000 8225354.156000
 1357                             172287.723000 8224921.569000
 1347                             171422.764000 8225295.637000
 1909                             170328.486000 8225380.876000
 600                              170688.901000 8225386.170000
 714                              171966.538000 8225398.924000
 2022                             170491.777000 8225280.500000
 765                              171481.730000 8225626.033000
 2379                             169893.498000 8226413.036000
 1035                             170204.976000 8226377.384000
 3488                             170257.402000 8225458.326000
 1390                             172383.236000 8224854.216000
 2157                             170786.649000 8225542.099000
 1807                             170501.664000 8225366.066000
 3298                             171991.635000 8226486.573000
 2684                             171182.774000 8226574.056000
 437                              171709.127000 8226395.075000
 1352                             171911.076000 8225092.374000
 3456                             171785.947000 8226595.899000
 2557                             171756.591000 8226850.689000
 3220                             172377.649000 8224319.218000
 1354                             172424.428000 8225142.584000
 853                              170622.272000 8225393.784000
 2021                             170469.857000 8225293.645000
 1212                             170240.991000 8226430.774000
 3055                             171109.967000 8226017.925000
 3109                             172091.057000 8225413.710000
 932                              171891.805000 8225280.072000
 1421                             172433.193000 8224173.124000
 1385                             172486.828000 8225025.094000
 2169                             171176.004000 8225598.869000
 3060                             171094.290000 8225929.413000
 1414                             172548.760000 8224057.995000
 604                              170245.096000 8225665.183000
 3160                             172432.962000 8224386.005000
 1811                             170577.930000 8225318.423000
 1810                             170559.211000 8225330.308000
 2900                             172260.564000 8224209.274000
 2882                             172465.206000 8224186.431000
 2894                             172482.457000 8224227.649000
 1906                             170279.615000 8225411.556000
 951                              169959.480000 8226136.346000
 2897                             172570.773000 8224173.202000
 3035                             170291.030000 8226558.199000
 2024                             170531.501000 8225255.972000
 3043                             170707.746000 8226235.766000
 2040                             169824.658000 8226156.040000
 1740                             171684.546000 8226715.239000
 3173                             172567.406000 8224302.902000
 2728                             169926.055000 8226146.767000
 121                              171624.037000 8226260.609000
 3071                             171523.013000 8225637.066000
 1412                             172552.651000 8224120.542000
 269                              170380.076000 8225655.872000
 69                               172380.281000 8224110.842000
 2879                             172504.187000 8224150.095000
 3506                             170619.593000 8225274.102000
 1062                             170150.334000 8226283.966000
 2260                             171612.224000 8224788.872000
 3201                             172614.461000 8224051.899000
 1752                             171697.769000 8226736.637000
 1140                             171698.915000 8224743.061000
 99                               172106.057000 8225996.025000
 1157                             172042.878000 8225301.244000
 3042                             170690.266000 8226205.314000
 2856                             172359.699000 8224181.327000
 2857                             172370.017000 8224198.148000
 1405                             172471.703000 8224361.054000
 2163                             170129.151000 8226248.160000
 2382                             169846.016000 8226243.118000
 755                              171577.457000 8225544.034000
 1368                             171691.418000 8224730.434000
 3193                             172919.871000 8224335.599000
 2096                             171862.572000 8225284.962000
 1911                             170385.919000 8225345.361000
 1416                             172420.215000 8224151.615000
 25                               170548.836000 8226154.114000
 251                              171952.971000 8226197.836000
 3135                             172400.435000 8224227.615000
 3154                             172383.557000 8224108.813000
 2282                             171972.247000 8226228.594000
 1429                             172026.931000 8226314.540000
 475                              170439.593000 8225758.529000
 394                              172170.402000 8224734.701000
 3405                             170043.855000 8226339.252000
 715                              171944.941000 8225364.580000
 1585                             170042.518000 8226250.003000
 1690                             169995.875000 8226034.311000
 2458                             169951.829000 8226077.251000
 1187                             169948.425000 8226244.655000
 2871                             172459.737000 8224125.287000
 28                               170549.226000 8226154.734000
 3133                             172378.951000 8224192.378000
 2902                             172295.480000 8224183.324000
 2043                             169889.516000 8226116.074000
 2127                             171955.648000 8225475.264000
 PM1.DMC.GAM.003                  171175.410000 8225940.278000
 2166                             170462.496000 8226015.686000
 3503                             170589.181000 8225223.706000
 1099                             171140.527000 8226255.755000
 75                               171328.287000 8226139.865000
 1832                             171119.947000 8225849.864000
 3413                             171530.306000 8226853.571000
 3012                             172294.232000 8226614.259000
 3001                             172238.665000 8226370.268000
 250                              171941.777000 8226175.475000
 1061                             170163.630000 8226305.160000
 953                              170002.114000 8226109.562000
 1661                             172210.721000 8226163.565000
 259                              170782.417000 8225304.674000
 946                              169861.294000 8226196.932000
 3189                             172643.042000 8224098.686000
 1910                             170374.406000 8225352.640000
 1374                             172561.658000 8225133.255000
 2880                             172520.063000 8224140.911000
 3412                             171727.018000 8226783.669000
 2377                             169928.386000 8226391.599000
 1427                             172052.480000 8226588.560000
 1564                             169902.989000 8226335.883000
 1613                             170900.275000 8225487.792000
 1583                             170076.394000 8226228.905000
 386                              171181.607000 8226494.095000
 143                              171591.557000 8226953.245000
 2171                             171242.644000 8225008.400000
 623                              171503.448000 8224652.654000
 840                              170375.750000 8225546.429000
 1800                             170384.214000 8225437.844000
 2105                             171998.018000 8225448.994000
 3105                             172028.987000 8225319.713000
 3460                             171912.569000 8226642.915000
 1764                             171875.354000 8226680.907000
 1465                             171054.937000 8224932.054000
 3280                             171565.264000 8226604.659000
 1995                             172333.578000 8224139.996000
 2568                             171904.580000 8226850.718000
 585                              171403.187000 8226486.785000
 1615                             169589.023000 8225931.928000
 594                              171289.456000 8225641.769000
 3246                             172141.238000 8224460.820000
 1423                             172563.719000 8224060.972000
 3092                             172543.797000 8225151.479000
 3093                             172543.685000 8225155.975000
 2122                             172080.598000 8225360.414000
 1801                             170401.927000 8225427.313000
 2551                             171804.777000 8226724.848000
 1674                             171343.596000 8225999.691000
 1608                             172463.959000 8225204.838000
 2887                             172322.470000 8224206.087000
 1136                             171152.387000 8226445.425000
 442                              171700.636000 8226380.816000
 2725                             169966.278000 8226211.818000
 2724                             169985.793000 8226243.215000
 2673                             171660.283000 8226549.823000
 443                              171715.763000 8226371.808000
 2764                             172017.472000 8225486.728000
 2502                             172402.353000 8224250.557000
 2026                             170567.099000 8225234.367000
 3107                             172046.836000 8225346.558000
 1418                             172448.279000 8224197.100000
 1806                             170494.959000 8225370.049000
 2886                             172540.225000 8224140.356000
 1399                             172480.097000 8224356.053000
 1411                             172621.319000 8224089.994000
 2292                             171811.607000 8225774.295000
 1415                             172567.039000 8224046.197000
 2457                             169969.610000 8226065.458000
 1424                             172352.506000 8224150.317000
 1425                             172352.159000 8224254.053000
 1426                             172365.010000 8224275.009000
 1869                             172617.156000 8224144.277000
 1864                             172511.813000 8225183.455000
 3053                             171125.215000 8226039.520000
 1857                             172718.136000 8225050.942000
 1586                             170024.406000 8226261.150000
 2890                             172322.921000 8224226.212000
 2891                             172309.666000 8224205.354000
 2854                             172350.043000 8224165.882000
 2184                             171111.537000 8226208.833000
 2170                             171234.074000 8225562.091000
 1792                             170660.066000 8225337.435000
 1797                             170327.695000 8225473.985000
 2104                             171943.638000 8225362.494000
 1805                             170478.866000 8225379.834000
 3136                             172411.215000 8224244.889000
 2102                             171854.507000 8225220.763000
 954                              170028.355000 8226093.647000
 3221                             172341.699000 8224341.749000
 2435                             172353.992000 8224277.194000
 2881                             172536.296000 8224130.529000
 1038                             170735.066000 8226283.825000
 2381                             169851.507000 8226251.678000
 1153                             171740.851000 8226808.576000
 3225                             172379.233000 8224377.714000
 859                              172121.208000 8224461.104000
 3200                             172617.957000 8224057.756000
 3120                             172639.468000 8224112.472000
 637                              169838.411000 8225780.544000
 2456                             169992.555000 8226052.205000
 2874                             172512.047000 8224093.321000
 3153                             172466.101000 8224242.081000
 3097                             172040.905000 8225469.365000
 2885                             172524.711000 8224149.217000
 3044                             170735.146000 8226281.865000
 3562                             170023.591000 8226305.871000
 3279                             171587.122000 8226595.147000
 2721                             169893.753000 8226094.184000
 1588                             172279.722000 8225029.005000
 1017                             171359.383000 8225894.246000
 102                              171092.190000 8226352.577000
 1673                             171332.698000 8226006.404000
 1407                             172424.869000 8224389.790000
 1393                             172121.758000 8224472.059000
 2111                             172036.547000 8225963.365000
 2186                             171110.215000 8226207.247000
 2305                             170230.126000 8225640.503000
 438                              171706.501000 8226396.716000
 2460                             169915.210000 8226100.143000
 1760                             171756.592000 8226489.643000
 3168                             172526.089000 8224328.387000
 1127                             171328.609000 8226365.278000
 1130                             170347.202000 8225576.546000
 2177                             171821.135000 8225166.685000
 3159                             172427.447000 8224389.421000
 3148                             172650.331000 8224129.330000
 2729                             169910.677000 8226122.365000
 139                              171777.017000 8225729.315000
 2259                             172277.994000 8224174.287000
 1186                             169961.808000 8226236.328000
 3137                             172423.965000 8224263.780000
 3122                             170620.200000 8226222.349000
 2858                             172380.652000 8224215.263000
 138                              171767.041000 8225734.838000
 51                               171834.211000 8225218.611000
 3102                             172019.891000 8225314.136000
 1063                             170139.627000 8226265.193000
 2992                             169750.158000 8226204.394000
 1606                             169770.224000 8226190.587000
 1605                             169792.331000 8226176.639000
 1907                             170289.680000 8225405.255000
 1908                             170297.982000 8225399.973000
 1584                             170060.000000 8226239.148000
 1582                             170098.328000 8226215.563000
 2876                             172595.587000 8224041.316000
 1562                             170273.323000 8226478.432000
 2020                             170446.857000 8225308.609000
 2025                             170548.680000 8225246.188000
 3561                             170292.443000 8225514.517000
 1387                             172429.368000 8224934.104000
 1371                             171613.388000 8224791.254000
 2723                             170000.519000 8226269.737000
 3172                             172572.602000 8224299.609000
 1102                             171418.024000 8225857.195000
 2262                             172061.625000 8224509.771000
 2378                             169912.357000 8226401.492000
 142                              171594.104000 8226951.682000
 297                              171392.187000 8225472.364000
 2762                             172004.052000 8225458.821000
 2470                             170237.886000 8225652.230000
 76                               171105.128000 8226147.407000
 2459                             169937.069000 8226086.637000
 2515                             172298.925000 8224367.210000
 2434                             172365.363000 8224295.754000
 3306                             172036.707000 8226678.635000
 440                              171647.957000 8226295.205000
 2418                             169873.298000 8226353.998000
 3299                             171964.094000 8226462.085000
 2277                             171712.852000 8226590.706000
 713                              169729.343000 8225847.664000
 441                              171689.957000 8226363.285000
 1355                             171937.715000 8225130.350000
 846                              170487.011000 8225476.635000
 2374                             169993.723000 8226350.423000
 977                              170971.607000 8225608.644000
 2335                             171715.737000 8226453.375000
 3198                             172735.728000 8224042.212000
 864                              169819.106000 8226199.658000
 816                              170319.086000 8226140.127000
 1813                             170613.272000 8225296.713000
 68                               172359.249000 8224123.377000
 2861                             172416.561000 8224139.840000
 2868                             172437.305000 8224139.557000
 1420                             172443.059000 8224188.770000
 2479                             171758.016000 8226663.296000
 155                              172098.532000 8226637.739000
 153                              172260.679000 8226536.313000
 2872                             172477.563000 8224114.130000
 433                              170065.059000 8226145.343000
 2432                             169899.678000 8226330.252000
 3082                             172482.311000 8225191.327000
 3083                             172465.541000 8225165.369000
 2182                             171819.813000 8225166.194000
 3132                             172362.544000 8224166.075000
 3134                             172390.058000 8224211.154000
 2735                             171510.308000 8226821.038000
 2187                             171118.126000 8226204.736000
 616                              172653.168000 8225093.385000
 1132                             170668.002000 8225377.493000
 3224                             172377.173000 8224374.284000
 2258                             172250.240000 8224192.116000
 1092                             171085.252000 8226159.823000
 1049                             172077.213000 8226626.645000
 2278                             171698.234000 8226567.437000
 2281                             171679.949000 8226538.101000
 863                              169802.038000 8226171.964000
 2873                             172495.311000 8224103.285000
 2317                             169880.776000 8225863.144000
 2503                             172391.474000 8224232.663000
 3537                             172004.151000 8226281.057000
 77                               171269.807000 8226044.535000
 1731                             169882.296000 8225865.804000
 1745                             171360.015000 8226417.358000
 2888                             172341.191000 8224236.513000
 2019                             170438.261000 8225313.984000
 1756                             171818.918000 8226495.141000
 45                               169905.989000 8225892.817000
 3054                             171117.525000 8226029.791000
 2898                             172590.626000 8224160.751000
 1883                             171532.744000 8226242.424000
 3404                             170078.839000 8226163.829000
 112                              171751.853000 8226824.029000
 57                               171650.667000 8225665.534000
 3222                             172352.873000 8224361.038000
 113                              171742.841000 8226809.260000
 2549                             171784.853000 8226737.335000
 2386                             169990.531000 8226281.911000
 50                               171843.407000 8225212.711000
 741                              171993.387000 8226254.191000
 3455                             171798.749000 8226615.117000
 430                              170014.824000 8226063.042000
 3236                             172641.867000 8224508.625000
 3206                             172693.712000 8224003.079000
 824                              170158.849000 8226240.574000
 33                               170307.819000 8226543.571000
 2739                             172718.676000 8225050.625000
 2567                             170093.543000 8226192.144000
 2373                             170016.104000 8226336.367000
 3411                             171737.325000 8226800.505000
 27                               170571.776000 8226190.874000
 24                               170217.678000 8226390.429000
 2672                             171673.501000 8226541.693000
 67                               172139.255000 8224457.157000
 659                              171832.983000 8226670.174000
 3472                             171818.675000 8226814.740000
 3245                             172144.555000 8224458.748000
 2433                             169883.986000 8226305.654000
 101                              172101.777000 8225989.255000
 3480                             172719.148000 8225052.625000
 97                               172131.067000 8226035.685000
 411                              171015.787000 8225913.924000
 3289                             172145.898000 8225930.705000
 3284                             172097.876000 8225980.800000
 84                               171434.561000 8226863.947000
 3267                             173004.603000 8224877.510000
 395                              171825.429000 8225225.563000
 134                              171698.030000 8226012.264000
 71                               172342.756000 8224134.241000
 2523                             171782.347000 8225728.295000
 3471                             171797.893000 8226827.720000
 586                              171965.444000 8226624.968000
 3470                             171786.012000 8226835.036000
 268                              171103.957000 8226057.245000
 603                              170245.886000 8225664.724000
 3469                             171776.225000 8226841.142000
 945                              169840.115000 8226210.050000
 3504                             170599.318000 8225240.114000
 998                              171155.175000 8225432.091000
 2714                             171387.483000 8225874.688000
 949                              169912.119000 8226166.019000
 3041                             170680.066000 8226193.352000
 2972                             171661.523000 8226132.377000
 1754                             171904.775000 8226630.961000
 2869                             172424.204000 8224148.258000
 3017                             171870.841000 8226459.684000
 3029                             170156.225000 8226474.247000
 3112                             172545.007000 8225162.153000
 2859                             172413.095000 8224267.720000
 1645                             172035.568000 8224516.204000
 1639                             172590.468000 8224837.914000
 1890                             172212.645000 8226162.262000
 2174                             171247.422000 8225013.324000
 2884                             172510.437000 8224158.531000
 1                                171954.017000 8227023.066000
 2185                             171110.751000 8226207.759000
 1365                             171605.588000 8224589.914000
 2003                             171772.797000 8226478.375000
 2045                             169738.866000 8225841.924000
 1372                             171594.808000 8224802.114000
 1510                             171336.911000 8225715.005000
 1376                             171622.892000 8225617.944000
 1377                             171620.941000 8225618.859000
 3085                             172409.387000 8225075.589000
 1386                             172475.368000 8225008.294000
 2870                             172459.739000 8224125.286000
 2867                             172589.841000 8224031.721000
 1422                             172580.355000 8224050.456000
 2889                             172375.347000 8224291.433000
 1748                             171463.993000 8226586.153000
 2855                             172339.271000 8224149.207000
 2254                             171994.628000 8224442.494000
 2303                             170704.030000 8225358.972000
 2295                             172042.768000 8225301.074000
 3182                             172820.555000 8224395.306000
 1826                             170519.228000 8225888.186000
 3180                             172666.594000 8224241.063000
 1036                             170191.896000 8226353.140000
 1044                             170233.514000 8226416.986000
 1077                             172103.709000 8225992.388000
 1856                             172680.058000 8224987.634000
 3143                             172331.868000 8224324.660000
 1114                             172002.491000 8226501.035000
 1789                             170628.797000 8225287.442000
 1093                             171350.185000 8225995.755000
 1126                             172135.517000 8226892.786000
 1134                             171971.957000 8226991.266000
 2909                             172647.340000 8224124.688000
 3145                             172473.297000 8224237.597000
 1162                             172165.377000 8226892.116000
 2904                             172330.248000 8224321.398000
 1769                             171757.227000 8226490.481000
 1143                             171608.231000 8226103.232000
 3076                             171576.783000 8225591.948000
 2901                             172278.025000 8224237.410000
 1786                             170970.717000 8225841.514000
 2899                             172607.873000 8224150.039000
 2                                172088.297000 8227243.296000
 5                                172041.669000 8227095.285000
 8                                172152.757000 8227138.156000
 20                               169882.035000 8226416.488000
 22                               169850.968000 8226368.817000
 23                               170226.069000 8226404.331000
 26                               170526.186000 8226118.004000
 29                               170617.806000 8226264.774000
 31                               170759.346000 8226271.985000
 32                               170227.186000 8226403.562000
 34                               170271.328000 8226479.799000
 35                               170659.726000 8226331.145000
 38                               170718.886000 8226205.134000
 40                               171485.227000 8225623.664000
 41                               171531.247000 8225696.414000
 44                               169928.476000 8225928.704000
 46                               169974.135000 8226003.708000
 47                               169889.129000 8225865.720000
 48                               169887.036000 8225862.304000
 49                               169903.599000 8225894.208000
 52                               171883.278000 8225358.654000
 54                               171924.328000 8225425.124000
 55                               171918.458000 8225415.704000
 58                               171147.667000 8225082.304000
 61                               171289.857000 8225083.014000
 62                               171362.267000 8225200.814000
 64                               171694.217000 8224735.405000
 65                               171695.778000 8224738.274000
 66                               172141.238000 8224460.820000
 70                               172336.460000 8224138.388000
 73                               172704.223000 8224216.678000
 74                               171358.167000 8226186.755000
 78                               171292.166000 8226755.595000
 79                               171285.966000 8226745.405000
 87                               171285.046000 8226745.755000
 89                               171389.377000 8226234.305000
 90                               171395.967000 8226244.775000
 91                               171397.477000 8226243.455000
 92                               171432.567000 8226535.375000
 111                              171765.316000 8226845.785000
 114                              171143.616000 8226683.115000
 115                              171163.366000 8226705.885000
 116                              171433.630000 8225882.975000
 117                              171434.004000 8225883.404000
 118                              171439.859000 8225893.411000
 119                              171533.485000 8225881.609000
 120                              171512.723000 8225894.199000
 122                              171636.493000 8226252.867000
 125                              172160.157000 8226081.095000
 126                              171713.255000 8226040.094000
 127                              171704.874000 8226045.170000
 128                              171693.637000 8226054.642000
 129                              171677.688000 8226064.564000
 130                              171660.823000 8226072.865000
 131                              171711.908000 8226759.568000
 132                              171711.271000 8226760.005000
 133                              171697.523000 8226012.540000
 135                              171683.277000 8225985.395000
 136                              171691.986000 8226004.136000
 137                              171653.597000 8225937.935000
 141                              171758.851000 8225739.372000
 144                              172168.920000 8227127.300000
 145                              171714.383000 8226039.272000
 146                              171717.629000 8226044.538000
 147                              171728.447000 8226062.177000
 148                              171738.950000 8226078.839000
 149                              171777.220000 8226324.941000
 150                              171728.537000 8226363.925000
 152                              172248.390000 8226545.511000
 154                              172090.984000 8226642.054000
 242                              171872.317000 8226066.035000
 243                              171832.952000 8226051.776000
 244                              171849.862000 8226039.406000
 247                              171299.377000 8226091.855000
 248                              171373.786000 8225974.378000
 249                              171372.787000 8225972.629000
 252                              171901.647000 8226114.055000
 253                              171932.177000 8226159.515000
 255                              171832.817000 8226051.875000
 256                              171271.491000 8226047.124000
 257                              171272.287000 8226048.348000
 262                              170949.271000 8225576.411000
 265                              170897.737000 8225489.744000
 266                              170870.547000 8225445.804000
 267                              170967.137000 8226142.765000
 271                              170420.816000 8225724.644000
 272                              170626.706000 8226054.654000
 273                              170580.516000 8225981.464000
 319                              171839.098000 8224971.704000
 324                              172041.002000 8224525.697000
 329                              171635.918000 8224869.214000
 331                              171780.388000 8225103.254000
 333                              172185.298000 8224759.244000
 337                              172258.358000 8224876.854000
 340                              171784.108000 8224882.044000
 342                              171738.608000 8224807.334000
 344                              171706.628000 8224985.204000
 346                              170233.916000 8225646.178000
 347                              170236.302000 8225645.045000
 351                              172462.227000 8227210.329000
 352                              172463.499000 8227238.570000
 353                              172464.667000 8227259.894000
 354                              172465.340000 8227279.617000
 355                              172467.018000 8227315.395000
 356                              172468.647000 8227351.830000
 357                              172470.877000 8227391.393000
 358                              172470.706000 8227399.426000
 359                              172470.234000 8227412.156000
 360                              172469.136000 8227429.988000
 361                              172469.706000 8227454.140000
 362                              172471.240000 8227464.634000
 365                              172052.376000 8226765.092000
 366                              172072.450000 8226797.410000
 367                              172095.314000 8226833.498000
 368                              172105.041000 8226849.314000
 369                              172114.371000 8226862.921000
 370                              172114.214000 8226872.569000
 371                              172113.789000 8226882.186000
 376                              169850.422000 8226367.958000
 384                              171315.857000 8226344.605000
 390                              169883.747000 8226419.005000
 397                              171603.415000 8226198.423000
 399                              171272.368000 8226046.603000
 400                              171281.072000 8226041.434000
 401                              171385.870000 8226236.440000
 406                              170822.202000 8225602.534000
 407                              170792.697000 8225554.124000
 408                              170823.467000 8225370.394000
 410                              171063.287000 8225990.584000
 412                              170487.646000 8225829.114000
 414                              170522.126000 8225886.194000
 415                              170479.906000 8225817.014000
 416                              170865.447000 8225671.984000
 417                              170895.707000 8225721.074000
 418                              170927.567000 8225538.204000
 420                              170685.327000 8226154.522000
 421                              170673.146000 8226129.304000
 423                              171132.385000 8225874.395000
 429                              170033.116000 8226090.844000
 431                              170004.022000 8226045.474000
 432                              170075.733000 8226165.517000
 435                              170038.571000 8226100.321000
 436                              172150.049000 8227134.179000
 439                              171645.273000 8226290.728000
 444                              171213.350000 8226634.408000
 447                              171351.353000 8226354.965000
 448                              171352.239000 8226356.727000
 473                              172419.257000 8227504.171000
 474                              172472.095000 8227470.482000
 476                              170449.856000 8225766.744000
 478                              171028.777000 8225702.544000
 480                              170346.786000 8225830.894000
 487                              171337.507000 8225380.774000
 572                              171595.957000 8226110.765000
 573                              171593.198000 8226112.467000
 576                              171607.210000 8226196.083000
 577                              171708.245000 8226519.725000
 579                              171679.799000 8226537.821000
 584                              171374.457000 8226440.345000
 587                              171964.148000 8226625.847000
 588                              171294.517000 8225312.064000
 593                              171284.390000 8225645.185000
 595                              170779.713000 8225306.400000
 596                              171318.627000 8225830.324000
 598                              170680.137000 8225369.786000
 599                              170680.389000 8225370.380000
 601                              170719.117000 8225435.154000
 602                              170680.780000 8225371.340000
 607                              170450.486000 8225999.074000
 608                              170453.331000 8225997.118000
 610                              171590.378000 8224794.314000
 615                              172574.784000 8225141.855000
 636                              169885.002000 8225859.273000
 645                              171234.737000 8225218.574000
 657                              171848.699000 8226694.701000
 658                              171841.986000 8226684.723000
 661                              171110.831000 8225356.090000
 681                              172377.918000 8225070.434000
 688                              171151.472000 8225563.501000
 712                              169733.346000 8225845.294000
 720                              171209.886000 8225526.014000
 721                              171212.397000 8225524.794000
 725                              172255.318000 8224646.224000
 726                              172259.234000 8224643.653000
 727                              172226.658000 8224602.714000
 730                              171615.107000 8225604.674000
 732                              171474.777000 8225380.204000
 734                              171501.007000 8225427.624000
 737                              172190.127000 8226129.925000
 739                              172161.267000 8226083.195000
 740                              171989.215000 8226256.827000
 742                              171960.911000 8226210.269000
 746                              171624.407000 8225890.005000
 750                              171377.318000 8225793.818000
 752                              170478.529000 8226042.032000
 753                              170476.949000 8226043.201000
 757                              171583.987000 8225555.144000
 759                              171467.337000 8225367.834000
 761                              171366.597000 8225429.854000
 763                              171546.327000 8225497.544000
 767                              170032.428000 8226091.275000
 772                              170008.537000 8226042.580000
 773                              170034.134000 8226090.164000
 777                              169541.740000 8225873.806000
 780                              170020.846000 8225570.678000
 781                              171436.607000 8225317.834000
 783                              170780.967000 8225302.241000
 809                              170464.514000 8226050.181000
 817                              170298.133000 8226153.658000
 825                              170135.558000 8226254.678000
 837                              170331.241000 8225574.087000
 838                              170333.299000 8225572.753000
 839                              170349.162000 8225562.852000
 847                              170504.308000 8225467.008000
 854                              170637.748000 8225383.970000
 855                              170659.483000 8225370.075000
 856                              170673.900000 8225361.564000
 865                              169829.416000 8226216.498000
 871                              172089.346000 8226642.990000
 872                              172090.653000 8226645.231000
 929                              172129.068000 8224665.664000
 944                              169830.110000 8226215.985000
 950                              169930.763000 8226154.222000
 959                              171643.561000 8226648.860000
 960                              171642.784000 8226647.566000
 961                              171632.799000 8226631.771000
 962                              171621.095000 8226613.282000
 963                              171612.053000 8226597.912000
 964                              171605.026000 8226586.963000
 985                              170233.070000 8225644.873000
 988                              172032.290000 8226723.836000
 989                              172020.379000 8226731.209000
 990                              172011.494000 8226736.827000
 991                              172005.490000 8226740.361000
 1019                             171206.247000 8225989.975000
 1023                             171439.177000 8225546.864000
 1025                             171533.667000 8225881.892000
 1026                             171534.029000 8225882.212000
 1033                             170313.564000 8226550.804000
 1034                             170310.439000 8226546.125000
 1037                             170736.013000 8226283.363000
 1039                             170678.526000 8226318.615000
 1040                             170676.853000 8226319.741000
 1041                             170736.104000 8226283.318000
 1045                             170232.499000 8226417.615000
 1046                             170676.281000 8226320.126000
 1047                             170662.710000 8226329.260000
 1048                             172064.384000 8226604.642000
 1050                             172017.297000 8226331.885000
 1052                             171990.577000 8226487.277000
 1053                             171991.503000 8226486.650000
 1059                             170180.170000 8226333.489000
 1060                             170178.135000 8226329.796000
 1064                             170137.448000 8226261.641000
 1065                             170135.627000 8226258.562000
 1066                             170133.802000 8226255.470000
 1073                             172028.993000 8226324.115000
 1074                             171271.069000 8226046.475000
 1075                             171393.347000 8225249.494000
 1080                             169748.454000 8226204.559000
 1081                             169747.539000 8226203.640000
 1082                             170703.733000 8225376.654000
 1087                             172190.699000 8227111.556000
 1089                             171913.468000 8225090.664000
 1094                             171349.669000 8225994.836000
 1095                             171348.938000 8225993.530000
 1097                             172162.932000 8226079.297000
 1098                             171511.601000 8225894.869000
 1101                             171419.147000 8225858.907000
 1111                             171976.763000 8226464.304000
 1112                             171979.567000 8226462.547000
 1113                             172000.304000 8226502.420000
 1115                             172034.498000 8226559.038000
 1116                             172037.140000 8226557.426000
 1122                             171738.298000 8225035.064000
 1123                             171808.038000 8224922.244000
 1124                             171881.828000 8225039.704000
 1125                             172043.820000 8226946.873000
 1128                             172117.338000 8225424.525000
 1129                             172467.878000 8225210.815000
 1131                             170667.989000 8225377.501000
 1141                             171603.180000 8226106.331000
 1142                             171599.374000 8226108.673000
 1152                             171741.834000 8226808.023000
 1155                             171722.970000 8226775.680000
 1156                             171723.656000 8226775.317000
 1158                             172039.306000 8225303.551000
 1163                             172167.880000 8226892.058000
 1164                             172169.336000 8226892.025000
 1165                             170996.345000 8225175.296000
 1166                             170994.456000 8225176.456000
 1167                             171590.849000 8226113.895000
 1168                             171089.260000 8226354.416000
 1169                             171761.406000 8226848.040000
 1170                             171330.577000 8226368.735000
 1171                             171344.497000 8226392.655000
 1173                             171778.536000 8226324.480000
 1174                             171462.907000 8226584.332000
 1175                             171462.319000 8226584.717000
 1181                             172557.218000 8225135.425000
 1182                             172566.344000 8225147.081000
 1184                             169983.960000 8226222.192000
 1185                             169976.706000 8226226.864000
 1190                             169875.114000 8226290.152000
 1198                             172236.938000 8225998.685000
 1199                             172252.228000 8226025.505000
 1200                             172147.202000 8226054.275000
 1202                             170929.797000 8225203.414000
 1203                             170884.307000 8225127.894000
 1207                             171772.091000 8226856.744000
 1208                             171773.512000 8226855.834000
 1213                             170377.156000 8225881.164000
 1216                             170420.426000 8225949.434000
 1217                             170253.309000 8225634.460000
 1219                             170310.387000 8225599.499000
 1220                             170326.762000 8225589.534000
 1221                             170335.676000 8225584.946000
 1222                             170587.976000 8225221.761000
 1223                             170583.158000 8225214.871000
 1224                             170582.264000 8225213.612000
 1225                             170552.106000 8225936.264000
 1226                             172096.496000 8226654.956000
 1227                             172095.227000 8226655.562000
 1231                             170975.747000 8225277.834000
 1232                             171021.187000 8225350.844000
 1233                             170081.227000 8226400.641000
 1236                             171972.602000 8226457.140000
 1237                             171967.394000 8226448.770000
 1238                             171603.608000 8226584.996000
 1239                             171600.669000 8226586.895000
 1240                             172213.195000 8226167.763000
 1241                             172215.197000 8226171.015000
 1243                             172285.988000 8224695.044000
 1318                             171204.048000 8225992.015000
 1319                             171185.477000 8226009.245000
 1320                             171184.403000 8226009.889000
 1321                             170011.425000 8225554.272000
 1322                             170001.665000 8225538.802000
 1323                             169993.432000 8225525.815000
 1324                             169987.808000 8225515.663000
 1325                             169982.192000 8225507.374000
 1326                             169980.200000 8225504.617000
 1327                             169975.002000 8225496.589000
 1328                             170017.665000 8225565.598000
 1329                             170015.736000 8225562.016000
 1330                             171225.967000 8225682.304000
 1331                             171182.527000 8225606.834000
 1343                             172154.058000 8224707.944000
 1351                             171538.497000 8225487.134000
 1359                             171939.148000 8225132.694000
 1362                             172039.008000 8224522.184000
 1367                             171596.228000 8224574.864000
 1370                             171699.848000 8224735.352000
 1375                             172569.548000 8225145.185000
 1378                             171167.547000 8225072.772000
 1379                             172401.230000 8224656.782000
 1383                             172570.132000 8225146.093000
 1384                             172524.728000 8225083.284000
 1388                             172386.038000 8224858.774000
 1389                             172358.108000 8224813.344000
 1391                             172327.988000 8224764.794000
 1392                             172137.827000 8224454.519000
 1396                             172519.296000 8224331.826000
 1397                             172525.637000 8224327.656000
 1398                             172479.098000 8224356.607000
 1408                             172426.909000 8224388.545000
 1409                             172432.446000 8224385.166000
 1428                             172014.194000 8226296.504000
 1469                             171501.561000 8226154.601000
 1470                             171498.087000 8226156.235000
 1471                             171502.443000 8226167.949000
 1472                             171506.229000 8226162.061000
 1474                             171491.607000 8226160.055000
 1475                             171731.251000 8226506.325000
 1476                             171730.951000 8226505.691000
 1482                             171619.950000 8225613.032000
 1483                             171142.167000 8225072.894000
 1509                             171330.665000 8225719.196000
 1513                             171262.847000 8225262.194000
 1517                             171188.107000 8225146.194000
 1550                             169851.360000 8226367.195000
 1565                             169901.334000 8226333.068000
 1580                             170105.281000 8226211.234000
 1581                             170099.993000 8226214.551000
 1587                             170004.687000 8226273.159000
 1589                             171592.622000 8224798.273000
 1590                             172356.108000 8224582.694000
 1593                             171632.230000 8226567.123000
 1594                             171625.713000 8226571.329000
 1595                             171614.103000 8226578.451000
 1607                             169749.450000 8226204.035000
 1634                             171682.088000 8224944.514000
 1637                             172543.758000 8224765.544000
 1659                             170336.474000 8225584.312000
 1660                             171538.167000 8226865.805000
 1662                             171357.546000 8225986.774000
 1663                             171371.479000 8225977.479000
 1664                             171374.531000 8225975.683000
 1667                             171346.319000 8225950.954000
 1668                             171364.141000 8225940.203000
 1669                             171381.715000 8225929.278000
 1670                             171398.479000 8225918.958000
 1671                             171416.526000 8225907.750000
 1672                             171320.578000 8226013.826000
 1675                             171348.236000 8225992.563000
 1676                             171340.795000 8225980.190000
 1677                             171334.325000 8225969.931000
 1678                             171330.891000 8225963.528000
 1689                             169999.053000 8226037.343000
 1728                             169742.926000 8226196.234000
 1730                             169884.670000 8225864.035000
 1732                             170183.150000 8226331.698000
 1737                             171960.391000 8226437.789000
 1738                             171929.036000 8226387.176000
 1741                             171682.030000 8226711.228000
 1742                             171652.108000 8226663.090000
 1743                             171651.097000 8226663.582000
 1749                             171673.566000 8226697.514000
 1751                             171704.442000 8226747.152000
 1753                             171693.783000 8226729.842000
 1757                             171919.148000 8226653.702000
 1758                             171917.483000 8226650.668000
 1759                             171744.469000 8226497.174000
 1761                             171850.037000 8226696.588000
 1762                             171897.374000 8226667.536000
 1765                             171862.182000 8226689.312000
 1766                             172266.577000 8226337.455000
 1767                             172263.893000 8226339.025000
 1768                             171757.045000 8226490.168000
 1770                             171895.863000 8226665.379000
 1772                             171950.885000 8226633.974000
 1773                             171939.680000 8226641.101000
 1774                             171926.177000 8226649.422000
 1775                             171835.446000 8226440.559000
 1776                             171821.996000 8226449.162000
 1777                             171807.841000 8226458.196000
 1779                             171927.037000 8226383.895000
 1780                             171981.464000 8226471.726000
 1781                             172026.960000 8226545.724000
 1783                             171128.066000 8226043.681000
 1784                             171128.487000 8226043.445000
 1785                             171127.668000 8226043.905000
 1787                             170923.997000 8225766.434000
 1788                             170686.015000 8225366.586000
 1790                             170635.049000 8225296.501000
 1793                             170675.085000 8225360.989000
 1794                             170286.776000 8225498.492000
 1795                             170296.097000 8225492.782000
 1796                             170309.914000 8225483.751000
 1803                             170440.595000 8225402.834000
 1804                             170458.287000 8225392.306000
 1812                             170594.177000 8225308.567000
 1814                             170624.561000 8225289.972000
 1815                             170252.629000 8225633.545000
 1817                             170139.746000 8225495.204000
 1818                             170234.814000 8225647.654000
 1071                             171165.097000 8225924.024000
 1837                             171236.580000 8225568.711000
 1845                             172269.726000 8226530.869000
 1846                             172279.057000 8226526.325000
 1858                             172571.888000 8225148.775000
 1865                             172512.983000 8225185.480000
 1870                             172645.700000 8224125.770000
 1904                             171216.229000 8225522.668000
 1912                             170401.663000 8225335.937000
 1914                             171984.467000 8226804.725000
 1993                             171692.758000 8224732.844000
 1996                             171500.798000 8224648.294000
 2000                             171872.118000 8224404.604000
 2004                             171771.383000 8226475.709000
 2005                             171799.875000 8226457.656000
 2006                             171795.204000 8226460.528000
 2007                             171789.815000 8226463.840000
 2011                             171233.986000 8226659.155000
 2012                             171230.235000 8226661.397000
 2014                             171203.936000 8226611.165000
 2015                             171231.784000 8226656.113000
 2016                             171262.906000 8226707.005000
 2017                             171632.676000 8226567.685000
 2018                             171633.078000 8226568.193000
 2027                             170587.228000 8225222.770000
 2034                             170245.593000 8225430.579000
 2035                             170242.634000 8225426.224000
 2036                             170232.028000 8225409.108000
 2037                             170230.458000 8225407.091000
 2038                             170225.837000 8225406.317000
 2039                             170273.436000 8225712.364000
 2044                             169902.072000 8226108.635000
 2046                             169697.048000 8225774.386000
 2047                             169582.176000 8225936.114000
 2048                             169585.836000 8225933.914000
 2049                             168993.545000 8225924.253000
 2050                             168844.923000 8225935.846000
 2051                             169108.695000 8225915.158000
 2052                             169254.270000 8225893.099000
 2053                             169388.645000 8225850.777000
 2054                             169501.155000 8225794.541000
 2055                             171782.013000 8226329.973000
 2056                             171794.832000 8226351.360000
 2057                             171807.384000 8226370.818000
 2058                             171821.437000 8226393.942000
 2059                             171832.438000 8226411.462000
 2060                             171842.312000 8226427.211000
 2061                             171846.858000 8226434.440000
 2062                             171859.106000 8226454.476000
 2063                             171873.259000 8226477.205000
 2064                             171884.788000 8226495.341000
 2065                             171894.742000 8226511.935000
 2066                             171900.334000 8226520.537000
 2067                             171910.294000 8226536.606000
 2068                             171916.030000 8226545.385000
 2069                             171930.835000 8226569.868000
 2070                             171940.311000 8226584.873000
 2071                             171945.710000 8226592.946000
 2072                             171962.369000 8226620.124000
 2097                             171844.929000 8225296.549000
 2099                             171885.617000 8225270.233000
 2101                             171904.428000 8225355.278000
 2103                             171847.709000 8225209.953000
 2106                             171886.426000 8225356.742000
 2112                             171842.817000 8226018.625000
 2119                             171888.876000 8225365.068000
 2120                             172034.428000 8225287.704000
 2129                             171812.258000 8225243.254000
 2130                             172043.426000 8225471.458000
 2131                             172104.754000 8225432.515000
 2132                             171671.997000 8225703.415000
 2133                             172017.838000 8225487.678000
 2135                             171620.907000 8225614.684000
 2141                             170990.087000 8225179.624000
 2143                             170765.267000 8225510.564000
 2148                             171048.837000 8225395.364000
 2149                             171154.877000 8225561.294000
 2150                             171081.967000 8225314.514000
 2151                             171108.327000 8225357.794000
 2152                             171037.177000 8225238.974000
 2153                             170990.727000 8225166.534000
 2154                             171475.150000 8225381.038000
 2155                             170842.432000 8225063.002000
 2156                             170869.313000 8225445.678000
 2160                             170842.259000 8225062.710000
 2161                             170839.762000 8225058.499000
 2162                             170105.570000 8226210.979000
 2164                             170130.656000 8226250.534000
 2167                             170472.869000 8226033.099000
 2175                             171246.899000 8225012.190000
 2178                             171820.715000 8225165.789000
 2179                             171812.633000 8225153.558000
 2183                             171214.109000 8225523.961000
 2213                             171491.598000 8226630.549000
 2214                             171832.957000 8226051.785000
 2215                             171833.527000 8226052.705000
 2216                             171502.359000 8226645.238000
 2217                             172108.074000 8225994.656000
 2256                             172286.827000 8224168.751000
 2257                             172297.817000 8224162.218000
 2263                             171433.409000 8225882.701000
 2264                             171425.377000 8225869.359000
 2266                             171156.057000 8224863.464000
 2267                             171053.777000 8224930.254000
 2268                             172048.088000 8224532.094000
 2269                             172031.408000 8224310.614000
 2270                             170903.027000 8225027.334000
 2271                             170899.447000 8225021.844000
 2272                             170944.187000 8225093.084000
 2273                             171829.725000 8225236.395000
 2275                             171731.192000 8226620.019000
 2276                             171720.203000 8226602.651000
 2280                             171684.510000 8226545.502000
 2283                             171981.504000 8226243.650000
 2290                             171938.971000 8226177.058000
 2296                             171736.497000 8226441.105000
 2297                             171770.958000 8226480.545000
 2300                             170417.604000 8225726.715000
 2301                             171685.525000 8226714.582000
 2302                             171681.150000 8226711.826000
 2306                             171641.475000 8226650.186000
 2309                             169697.099000 8225664.223000
 2310                             168727.100000 8225954.155000
 2311                             168617.206000 8225972.193000
 2321                             171750.682000 8226650.987000
 2322                             171739.199000 8226632.636000
 2323                             171594.457000 8226576.531000
 2325                             171735.931000 8226616.642000
 2334                             171757.387000 8226428.715000
 2340                             172049.797000 8226350.725000
 2341                             172049.527000 8226350.285000
 2369                             169927.716000 8226497.014000
 2372                             170034.138000 8226325.924000
 2380                             169872.399000 8226285.808000
 2387                             170003.049000 8226274.371000
 2423                             171705.733000 8226026.232000
 2424                             171707.169000 8226025.549000
 2438                             171145.950000 8225079.199000
 2451                             170332.862000 8225580.154000
 2452                             170329.837000 8225575.002000
 2453                             170107.373000 8226209.997000
 2455                             170002.678000 8226046.758000
 2461                             169906.632000 8226105.688000
 2462                             170069.581000 8226169.648000
 2465                             172037.170000 8224518.921000
 2471                             170035.771000 8226326.089000
 2472                             170035.333000 8226325.201000
 2500                             172946.323000 8224911.773000
 2520                             172488.317000 8225198.086000
 2521                             170679.168000 8225368.498000
 2524                             170284.008000 8225500.187000
 2525                             170135.089000 8226263.251000
 2526                             170003.236000 8226274.137000
 2533                             172260.896000 8226537.068000
 2539                             171630.602000 8226088.792000
 2540                             171623.388000 8226093.682000
 2541                             171609.162000 8226102.306000
 2544                             171552.659000 8226612.790000
 2545                             172067.536000 8226602.643000
 2546                             171731.851000 8226770.275000
 2547                             171750.719000 8226758.640000
 2550                             171793.869000 8226731.827000
 2552                             171819.357000 8226715.801000
 2553                             171828.973000 8226710.044000
 2554                             171844.191000 8226700.303000
 2569                             172170.817000 8226892.006000
 2570                             172170.827000 8226892.866000
 2576                             172403.024000 8227514.108000
 2577                             172409.191000 8227510.245000
 2626                             172545.009000 8225162.162000
 2628                             172106.225000 8226672.252000
 2631                             171991.424000 8226749.475000
 2632                             171978.274000 8226757.416000
 2633                             171964.498000 8226766.232000
 2634                             171947.152000 8226777.434000
 2635                             171931.516000 8226786.671000
 2636                             171917.099000 8226795.866000
 2637                             171905.017000 8226803.378000
 2638                             171889.818000 8226812.688000
 2639                             171874.315000 8226822.442000
 2640                             171860.178000 8226831.461000
 2641                             171845.450000 8226840.650000
 2642                             171826.819000 8226851.931000
 2643                             171809.742000 8226861.024000
 2644                             171793.823000 8226872.251000
 2645                             171784.922000 8226877.942000
 2646                             172567.180000 8225147.942000
 2647                             171766.373000 8226847.545000
 2648                             172109.318000 8226675.840000
 2649                             172100.894000 8226680.848000
 2650                             172084.743000 8226691.007000
 2651                             172061.698000 8226705.260000
 2652                             172049.181000 8226713.087000
 2657                             172567.570000 8225147.630000
 2660                             171777.937000 8226866.186000
 2666                             170588.260000 8225222.175000
 2669                             171301.030000 8226026.006000
 2670                             171319.190000 8226014.789000
 2671                             171451.087000 8225906.325000
 2674                             171643.862000 8226559.938000
 PM.VRP.GAM.004                   170012.684000 8225556.350000
 2678                             171956.087000 8227019.411000
 2679                             171957.774000 8227020.486000
 2680                             171759.393000 8225740.212000
 2682                             171181.413000 8226574.909000
 2683                             171182.007000 8226574.537000
 2685                             171175.441000 8226565.111000
 2686                             171174.947000 8226564.780000
 2687                             171174.951000 8226559.258000
 2688                             171162.522000 8226578.456000
 2689                             171175.582000 8226563.998000
 2690                             171175.138000 8226563.449000
 2691                             169694.480000 8225775.304000
 2692                             169693.967000 8225774.336000
 2699                             171468.896000 8225827.956000
 2700                             171453.509000 8225837.459000
 2701                             171432.624000 8225850.554000
 2703                             171571.293000 8225763.585000
 2704                             171572.505000 8225762.579000
 2705                             171493.079000 8225813.135000
 2706                             171568.482000 8225764.402000
 2707                             171469.768000 8225827.410000
 2708                             171471.138000 8225826.604000
 2709                             171414.610000 8225861.452000
 2710                             171400.585000 8225868.006000
 2711                             171389.222000 8225874.187000
 PM.VRP.GAM.003                   171388.816000 8225874.408000
 2716                             171652.456000 8225715.035000
 2717                             171592.801000 8225750.510000
 2718                             169694.823000 8225775.815000
 2719                             169792.392000 8225714.679000
 2720                             169791.537000 8225715.234000
 2722                             169899.567000 8226090.707000
 2727                             169937.419000 8226165.308000
 2737                             169894.306000 8226095.176000
 2738                             172757.181000 8225027.887000
 2740                             172740.180000 8225037.971000
 2741                             172754.335000 8225029.643000
 2742                             172754.468000 8225029.907000
 2743                             172754.645000 8225030.143000
 2744                             172754.860000 8225030.346000
 2745                             172755.107000 8225030.508000
 2746                             172755.379000 8225030.625000
 2747                             172755.666000 8225030.693000
 2748                             172755.961000 8225030.710000
 2749                             172756.255000 8225030.676000
 2750                             172756.538000 8225030.591000
 2751                             172756.802000 8225030.458000
 2752                             172757.040000 8225030.282000
 2753                             172757.242000 8225030.067000
 2754                             172757.405000 8225029.820000
 2755                             172757.522000 8225029.548000
 2756                             172757.590000 8225029.261000
 2757                             172757.608000 8225028.966000
 2758                             172757.574000 8225028.672000
 2759                             172757.489000 8225028.389000
 2760                             172757.357000 8225028.124000
 2763                             172017.708000 8225487.320000
 PM1.DMC.GAM.004                  172021.473000 8225484.309000
 2766                             172005.450000 8225458.666000
 2767                             172020.488000 8225486.025000
 2768                             171902.847000 8226851.715000
 2769                             171312.910000 8226018.514000
 2770                             171318.506000 8226015.262000
 2771                             171375.099000 8225975.349000
 2772                             171375.969000 8225974.877000
 2773                             171376.346000 8225974.637000
 2774                             171319.743000 8226015.690000
 2853                             172339.270000 8224149.205000
 2860                             172471.569000 8224234.892000
 2877                             172446.642000 8224186.670000
 2903                             172330.725000 8224322.359000
 2905                             172367.538000 8224299.660000
 2906                             172377.035000 8224293.572000
 2907                             172415.022000 8224270.134000
 2908                             172624.534000 8224088.112000
 2910                             172433.955000 8224384.245000
 2911                             172474.543000 8224359.133000
 2912                             172526.736000 8224326.933000
 2913                             172564.750000 8224303.029000
 2914                             172571.964000 8224298.586000
 2915                             172619.129000 8224269.503000
 2916                             172620.313000 8224268.795000
 2917                             172658.598000 8224244.990000
 2918                             172666.151000 8224240.347000
 2919                             172667.380000 8224239.499000
 2920                             172611.559000 8224274.034000
 2922                             171697.185000 8226012.765000
 2924                             171470.566000 8225828.663000
 2925                             171483.041000 8225819.146000
 2929                             172415.008000 8227506.753000
 2930                             172033.709000 8226722.933000
 2931                             172033.630000 8226722.983000
 PM.VRP.GAM.006                   171569.412000 8225763.824000
 2939                             168603.975000 8225973.834000
 2940                             168602.548000 8225967.477000
 2941                             168600.731000 8225946.301000
 PM.VRP.GAM.005                   168600.525000 8225924.883000
 2943                             168584.064000 8225912.608000
 2944                             168588.834000 8225912.777000
 2945                             168599.713000 8225913.305000
 2946                             168597.082000 8225845.683000
 2947                             168591.018000 8225789.578000
 2948                             170011.562000 8225554.540000
 2949                             168600.554000 8225923.595000
 2950                             168600.486000 8225916.055000
 2952                             168600.484000 8225915.659000
 2953                             168600.250000 8225913.093000
 2954                             169963.621000 8225503.673000
 2955                             169942.325000 8225517.452000
 2956                             169926.810000 8225525.998000
 2957                             169904.176000 8225539.300000
 2958                             169804.616000 8225595.705000
 2959                             169793.355000 8225603.507000
 2960                             169777.589000 8225611.923000
 2961                             169747.418000 8225630.880000
 2962                             169738.668000 8225637.767000
 2963                             169716.575000 8225651.981000
 2964                             168603.744000 8225973.900000
 2965                             168600.126000 8225866.323000
 2966                             171637.827000 8226092.779000
 2967                             171639.752000 8226091.697000
 2968                             171638.389000 8226089.160000
 2969                             171636.470000 8226090.106000
 2970                             171642.782000 8226100.767000
 2971                             171652.254000 8226117.503000
 2973                             171673.304000 8226152.995000
 2974                             171682.173000 8226148.107000
 2975                             171707.568000 8226132.623000
 2976                             171729.905000 8226118.895000
 2977                             171743.536000 8226110.637000
 2981                             171817.761000 8226900.701000
 2982                             171796.637000 8226932.516000
 2984                             171792.422000 8226929.717000
 2985                             171787.792000 8226926.643000
 2986                             169829.049000 8226252.883000
 2987                             169810.546000 8226264.063000
 2988                             169794.995000 8226273.682000
 2989                             169840.787000 8226234.839000
 2990                             169748.917000 8226205.574000
 2991                             169749.200000 8226205.333000
 2993                             169850.225000 8226367.645000
 2994                             169849.977000 8226367.248000
 2995                             169849.770000 8226366.918000
 2996                             169849.478000 8226366.452000
 2997                             169849.231000 8226366.057000
 2999                             169849.605000 8226368.574000
 3000                             169847.401000 8226369.709000
 3002                             172252.359000 8226391.864000
 3003                             172277.957000 8226430.091000
 3004                             172279.291000 8226432.204000
 3005                             172281.489000 8226430.816000
 3006                             172280.156000 8226428.703000
 3007                             172254.328000 8226358.873000
 3008                             172253.898000 8226554.119000
 3009                             172271.995000 8226543.142000
 3010                             172292.892000 8226574.497000
 3011                             172293.072000 8226597.406000
 3013                             171833.860000 8226437.989000
 3014                             171829.974000 8226432.190000
 3015                             171826.497000 8226430.013000
 3016                             171851.870000 8226429.839000
 3018                             171887.899000 8226450.807000
 3019                             171890.259000 8226449.308000
 3020                             171889.474000 8226448.029000
 3021                             171887.115000 8226449.529000
 3022                             170221.646000 8225405.152000
 3023                             170252.364000 8225633.098000
 3024                             171926.796000 8226383.499000
 3025                             171916.899000 8226386.020000
 3026                             171880.023000 8226408.533000
 3027                             171850.413000 8226426.530000
 3028                             171849.952000 8226426.822000
 3033                             170227.165000 8226590.063000
 3034                             170228.157000 8226596.810000
 3040                             170676.140000 8226187.703000
 3045                             170621.153000 8226224.099000
 3049                             170675.117000 8226317.183000
 3050                             170621.347000 8226223.837000
 3058                             171126.523000 8225910.996000
 3061                             170228.407000 8226597.149000
 3062                             170291.270000 8226558.616000
 3066                             171126.664000 8225911.280000
 3067                             171127.772000 8225910.605000
 3068                             171592.172000 8225749.453000
 3072                             171515.543000 8225625.802000
 3073                             171517.906000 8225624.314000
 3074                             171517.537000 8225623.652000
 3075                             171517.109000 8225623.014000
 3081                             172486.934000 8225195.865000
 3087                             172466.034000 8225037.752000
 3088                             172464.858000 8225035.596000
 3089                             172470.354000 8225035.904000
 3094                             172544.495000 8225159.760000
 3095                             172043.029000 8225471.151000
 3096                             172042.771000 8225470.934000
 3100                             171974.707000 8225372.758000
 3103                             172019.645000 8225313.714000
 3104                             172023.726000 8225311.995000
 3106                             172038.491000 8225333.623000
 3110                             172104.460000 8225432.111000
 3111                             172043.408000 8225471.470000
 3113                             170620.810000 8226223.141000
 3114                             170156.130000 8226473.950000
 3115                             172043.366000 8225471.434000
 3116                             172104.767000 8225432.507000
 3117                             172104.725000 8225432.475000
 3118                             172104.754000 8225432.515000
 3119                             172626.511000 8224090.925000
 3121                             171128.626000 8225910.085000
 3123                             170155.610000 8226473.096000
 3124                             172019.141000 8225312.850000
 3125                             170201.728000 8226379.368000
 3126                             170231.839000 8226595.045000
 3127                             170291.271000 8226558.616000
 3128                             170296.711000 8226558.122000
 3129                             170035.082000 8226324.007000
 3130                             170034.630000 8226324.260000
 3131                             172471.295000 8224234.464000
 3138                             172738.095000 8224453.183000
 3139                             172644.513000 8224512.933000
 3141                             172404.800000 8224659.873000
 3142                             172382.245000 8224415.969000
 3144                             172368.175000 8224302.354000
 3146                             172473.650000 8224237.377000
 3147                             172649.111000 8224130.076000
 3149                             172590.407000 8224031.362000
 3150                             172566.791000 8223992.090000
 3151                             172619.492000 8224079.727000
 3152                             172596.179000 8224040.960000
 3155                             172382.113000 8224106.481000
 3156                             172562.831000 8223994.543000
 3161                             172432.636000 8224385.476000
 3191                             172913.984000 8224339.085000
 3195                             172736.499000 8224040.955000
 3196                             172736.841000 8224041.724000
 3197                             172736.570000 8224041.829000
 3199                             172825.299000 8224392.310000
 3202                             172694.173000 8224003.844000
 3203                             172694.720000 8224003.514000
 3205                             172693.952000 8224003.478000
 3207                             172654.048000 8224138.149000
 3209                             172562.092000 8223993.350000
 3210                             172561.445000 8223993.751000
 3212                             172427.284000 8224266.269000
 3213                             172416.839000 8224272.411000
 3214                             172426.105000 8224266.950000
 3215                             172378.803000 8224295.812000
 3216                             172416.421000 8224272.657000
 3217                             172426.064000 8224266.974000
 3218                             172368.818000 8224301.958000
 3223                             172364.980000 8224353.979000
 3226                             172384.761000 8224374.309000
 3227                             172384.827000 8224374.222000
 3228                             172382.698000 8224370.881000
 3229                             172298.417000 8224362.830000
 3230                             172296.810000 8224363.745000
 3233                             172299.501000 8224362.212000
 3234                             172324.384000 8224329.258000
 3235                             172642.447000 8224509.569000
 3237                             172745.702000 8224464.726000
 3238                             172750.698000 8224472.448000
 3239                             172751.143000 8224473.136000
 3241                             172573.476000 8224297.523000
 3242                             172823.132000 8224399.479000
 3243                             172922.528000 8224338.081000
 3244                             172924.765000 8224341.859000
 3250                             172294.212000 8224359.489000
 3251                             172426.713000 8224265.424000
 3252                             172427.165000 8224266.343000
 3253                             172426.368000 8224264.913000
 3263                             171397.874000 8226478.197000
 3265                             172962.760000 8224904.532000
 3266                             172990.758000 8224887.654000
 3268                             173019.108000 8224857.764000
 3269                             173024.733000 8224849.440000
 3270                             173026.353000 8224845.031000
 3271                             173030.005000 8224838.379000
 3272                             173033.265000 8224828.677000
 3273                             173033.833000 8224825.869000
 3274                             173034.427000 8224822.928000
 3275                             173032.861000 8224822.602000
 3276                             173030.896000 8224825.258000
 3277                             173034.792000 8224821.120000
 3278                             173035.079000 8224819.648000
 3281                             170408.975000 8225332.183000
 3282                             170427.694000 8225320.591000
 3283                             171486.360000 8226622.082000
 3285                             172121.816000 8225965.578000
 3286                             172159.145000 8225942.853000
 3287                             172159.346000 8225942.299000
 3288                             172159.174000 8225941.826000
 3291                             172023.451000 8226718.330000
 3292                             172026.050000 8226722.465000
 3293                             172028.366000 8226726.224000
 3294                             172033.762000 8226735.122000
 3295                             172003.071000 8226742.098000
 3296                             172094.864000 8226655.736000
 3297                             172261.159000 8226537.551000
 3300                             172009.241000 8226556.193000
 3302                             172089.821000 8226645.770000
 3303                             172069.796000 8226658.079000
 3304                             172055.212000 8226667.149000
 3305                             172041.009000 8226676.087000
 3338                             172017.341000 8226708.384000
 3339                             172022.128000 8226716.176000
 3371                             171264.573000 8226013.649000
 3372                             171360.577000 8226417.004000
 3373                             171369.470000 8226411.418000
 3376                             171104.818000 8226147.600000
 3377                             171104.447000 8226147.007000
 3378                             171104.182000 8226146.583000
 3385                             171808.096000 8226458.599000
 3386                             171811.836000 8226464.162000
 3388                             171803.136000 8226469.642000
 3389                             171800.623000 8226457.234000
 3390                             171805.467000 8226454.353000
 3398                             171761.785000 8225725.344000
 3399                             171766.696000 8225734.214000
 3402                             170119.707000 8226202.141000
 3406                             170076.749000 8226164.995000
 3407                             171458.582000 8226576.881000
 3408                             171455.338000 8226571.662000
 3414                             170232.278000 8226417.723000
 3415                             170273.315000 8226478.438000
 3416                             169713.934000 8225652.468000
 3417                             169711.625000 8225652.880000
 3418                             169710.093000 8225653.354000
 3419                             169704.961000 8225659.018000
 3450                             171695.700000 8226708.115000
 3451                             171693.704000 8226704.669000
 3452                             171736.379000 8226616.264000
 3457                             171773.629000 8226855.479000
 3458                             171777.492000 8226865.455000
 3459                             171895.462000 8226664.791000
 3461                             171969.204000 8226630.679000
 3462                             171981.201000 8226650.328000
 3463                             171992.801000 8226668.848000
 3464                             172004.254000 8226687.022000
 3465                             172014.182000 8226703.557000
 3466                             171743.658000 8226808.751000
 3467                             171744.005000 8226808.514000
 3468                             171767.407000 8226846.792000
 3475                             171807.793000 8226477.153000
 3476                             172384.912000 8224856.942000
 PM.VRP.GAM.018                   172384.755000 8224856.686000
 3478                             172383.393000 8224854.472000
 3481                             172038.926000 8226743.668000
 3482                             172043.132000 8226750.004000
 3483                             172049.407000 8226760.313000
 3485                             170244.849000 8225433.051000
 3489                             172152.606000 8226883.439000
 3490                             172166.125000 8226883.576000
 3491                             172173.538000 8227111.749000
 3492                             172220.702000 8227110.754000
 3493                             172257.632000 8227109.260000
 3494                             172308.309000 8227109.547000
 3497                             171470.964000 8225829.462000
 3498                             171475.333000 8225836.209000
 3499                             171486.018000 8225853.651000
 3500                             171493.878000 8225866.507000
 3501                             171508.721000 8225891.052000
 3502                             170588.201000 8225222.076000
 3507                             172166.594000 8226892.708000
 3508                             172168.210000 8226958.281000
 3509                             172169.434000 8226977.363000
 3510                             172169.700000 8226994.711000
 3511                             172170.489000 8227019.084000
 3512                             172171.279000 8227047.980000
 3513                             172171.952000 8227067.096000
 3514                             172172.911000 8227098.277000
 3515                             172264.118000 8227205.568000
 3516                             172265.803000 8227207.857000
 3517                             172273.436000 8227218.902000
 3518                             172276.140000 8227222.665000
 3519                             172286.513000 8227226.089000
 3520                             172296.338000 8227230.412000
 3521                             172301.454000 8227228.268000
 3522                             172311.203000 8227222.738000
 3523                             172320.113000 8227217.051000
 3524                             172331.166000 8227214.122000
 3525                             172343.708000 8227213.611000
 3526                             172367.395000 8227212.890000
 3527                             172388.225000 8227212.207000
 3528                             172411.924000 8227211.738000
 3529                             172432.799000 8227211.180000
 3530                             172452.870000 8227210.715000
 3538                             171520.560000 8225909.876000
 3539                             171534.174000 8225931.605000
 3540                             171545.692000 8225950.052000
 3541                             171553.637000 8225965.467000
 3542                             171572.021000 8225995.093000
 3543                             171583.758000 8226013.839000
 3544                             171593.288000 8226029.395000
 3545                             171605.057000 8226048.139000
 3546                             171611.210000 8226058.135000
 3547                             171636.522000 8226098.158000
 3548                             171649.907000 8226119.812000
 3549                             171663.868000 8226142.438000
 3550                             171673.963000 8226158.851000
 3551                             171680.636000 8226169.901000
 3552                             171696.855000 8226193.073000
 3553                             171709.492000 8226213.275000
 3554                             171723.785000 8226236.230000
 3555                             171737.920000 8226259.373000
 3556                             171750.051000 8226278.750000
 3557                             171761.960000 8226297.750000
 3558                             171772.867000 8226315.523000
 3563                             170009.053000 8226283.280000
 3564                             172308.259000 8227123.870000
 3565                             172309.053000 8227152.244000
 3566                             172309.171000 8227170.170000
 3567                             172307.489000 8227177.488000
 3568                             172303.836000 8227180.267000
 3569                             172291.397000 8227188.426000
 3570                             172421.238000 8227546.905000
 3571                             172408.227000 8227521.924000
 3576                             170676.846000 8226319.729000
 3589                             172423.059000 8227552.109000

[VERTICES]

[TAGS]

[LABELS]
;X-Coord             Y-Coord             Label & Anchor Node
168600.703        	8225924.752       	"VRP.GAM.005"	PM.VRP.GAM.005
170013.516        	8225555.492       	"VRP.GAM.004"	PM.VRP.GAM.004
171388.656        	8225875.110       	"VRP.GAM.003"	PM.VRP.GAM.003
171569.412        	8225763.824       	"VRP.GAM.006"	PM.VRP.GAM.006
172384.953        	8224856.381       	"VRP.GAM.018"	PM.VRP.GAM.018
172395.859        	8227503.076       	"AAT.GAM.070"	473
172028.366        	8226726.224       	" "	3293
172030.120        	8225484.309       	"PM1.DMC.GAM.004"	PM1.DMC.GAM.004
171173.750        	8225924.024       	"PM1.DMC.GAM.003"	PM1.DMC.GAM.003
170026.172        	8226041.986       	"Inscrição ETE"	

[BACKDROP]
  DIMENSIONS  	168326.265        	8223752.720       	173997.848        	8229018.852       
 UNITS          	None
 FILE           	
 OFFSET         	0.00            	0.00            

[END]
