[TITLE]


[JUNCTIONS]
;ID              	Elev        	Demand      	Pattern         
 0               	1026.2000   	0.093873    	VZ1.SAT.NBN.014 	;
 1               	1026.2000   	0.077392    	VZ1.SAT.NBN.014 	;
 2               	1026.2000   	0.038697    	VZ1.SAT.NBN.014 	;
 3               	1035.9200   	0.000000    	VZ1.SAT.NBN.014 	;
 4               	1036.3400   	0.000000    	VZ1.SAT.NBN.014 	;
 5               	1036.3400   	0.201396    	VZ1.SAT.NBN.014 	;
 6               	1033.0400   	0.000000    	VZ1.SAT.NBN.014 	;
 7               	1033.0400   	0.000000    	VZ1.SAT.NBN.014 	;
 8               	1028.6700   	0.000000    	VZ1.SAT.NBN.014 	;
 9               	1028.6700   	0.000000    	VZ1.SAT.NBN.014 	;
 10              	1029.0800   	0.234142    	VZ1.SAT.NBN.014 	;
 11              	1033.0400   	0.232904    	VZ1.SAT.NBN.014 	;
 12              	1040.6500   	0.040861    	VZ1.SAT.NBN.014 	;
 13              	1040.1100   	0.000000    	VZ1.SAT.NBN.014 	;
 14              	1043.8400   	0.000000    	VZ1.SAT.NBN.014 	;
 15              	1043.7200   	0.004517    	VZ1.SAT.NBN.014 	;
 16              	1029.9000   	0.004875    	VZ1.SAT.NBN.014 	;
 17              	1030.3300   	0.018882    	VZ1.SAT.NBN.014 	;
 18              	1030.3300   	0.038697    	VZ1.SAT.NBN.014 	;
 19              	1035.0700   	0.000000    	VZ1.SAT.NBN.014 	;
 20              	1035.0700   	0.028750    	VZ1.SAT.NBN.014 	;
 21              	1045.0000   	0.000000    	VZ1.SAT.NBN.014 	;
 22              	1045.0000   	0.001548    	VZ1.SAT.NBN.014 	;
 23              	1037.6800   	0.000000    	VZ1.SAT.NBN.014 	;
 24              	1037.6800   	0.061387    	VZ1.SAT.NBN.014 	;
 25              	1044.1200   	0.000000    	VZ1.SAT.NBN.014 	;
 26              	1044.1200   	0.000000    	VZ1.SAT.NBN.014 	;
 27              	1044.2900   	0.049449    	VZ1.SAT.NBN.014 	;
 28              	1029.1800   	0.000000    	VZ1.SAT.NBN.015 	;
 29              	1029.3200   	0.000000    	VZ1.SAT.NBN.015 	;
 30              	1029.5100   	0.000000    	VZ1.SAT.NBN.015 	;
 31              	1029.7700   	0.000000    	VZ1.SAT.NBN.015 	;
 32              	1030.0000   	0.000000    	VZ1.SAT.NBN.015 	;
 33              	1030.0000   	0.000000    	VZ1.SAT.NBN.015 	;
 34              	1030.4400   	0.000000    	VZ1.SAT.NBN.015 	;
 35              	1027.1900   	0.000000    	VZ1.SAT.NBN.014 	;
 36              	1027.3700   	0.000000    	VZ1.SAT.NBN.014 	;
 37              	1026.7600   	0.061716    	VZ1.SAT.NBN.014 	;
 38              	1026.3000   	0.000000    	VZ1.SAT.NBN.014 	;
 39              	1034.3000   	0.000000    	VZ1.SAT.NBN.014 	;
 40              	1034.4700   	0.000000    	VZ1.SAT.NBN.014 	;
 41              	1034.4700   	0.000000    	VZ1.SAT.NBN.014 	;
 42              	1034.9600   	0.000000    	VZ1.SAT.NBN.014 	;
 43              	1035.0000   	0.000000    	VZ1.SAT.NBN.014 	;
 44              	1035.2000   	0.000000    	VZ1.SAT.NBN.014 	;
 45              	1036.3200   	0.000000    	VZ1.SAT.NBN.014 	;
 46              	1036.7200   	0.000000    	VZ1.SAT.NBN.014 	;
 47              	1034.4700   	0.000000    	VZ1.SAT.NBN.014 	;
 48              	1034.4700   	0.000000    	VZ1.SAT.NBN.014 	;
 49              	1037.9300   	0.000000    	VZ1.SAT.NBN.014 	;
 50              	1040.0000   	0.000000    	VZ1.SAT.NBN.014 	;
 51              	1041.9900   	0.000000    	VZ1.SAT.NBN.014 	;
 52              	1041.9900   	0.000000    	VZ1.SAT.NBN.014 	;
 53              	1042.6700   	0.000000    	VZ1.SAT.NBN.014 	;
 54              	1043.2800   	0.000000    	VZ1.SAT.NBN.014 	;
 55              	1043.9800   	0.000000    	VZ1.SAT.NBN.014 	;
 56              	1044.5900   	0.000000    	VZ1.SAT.NBN.014 	;
 57              	1045.0000   	0.000000    	VZ1.SAT.NBN.014 	;
 58              	1045.0000   	0.000000    	VZ1.SAT.NBN.014 	;
 59              	1045.0000   	0.044381    	VZ1.SAT.NBN.014 	;
 60              	1045.0000   	0.000000    	VZ1.SAT.NBN.014 	;
 61              	1045.0000   	0.083190    	VZ1.SAT.NBN.014 	;
 62              	1045.0000   	0.051269    	VZ1.SAT.NBN.014 	;
 63              	1035.2000   	0.000000    	VZ1.SAT.NBN.014 	;
 64              	1035.6600   	0.000000    	VZ1.SAT.NBN.014 	;
 65              	1035.6600   	0.000000    	VZ1.SAT.NBN.014 	;
 66              	1022.2300   	0.068374    	VZ1.SAT.NBN.014 	;
 67              	1021.3200   	0.000000    	VZ1.SAT.NBN.014 	;
 68              	1021.3200   	0.000000    	VZ1.SAT.NBN.014 	;
 69              	1037.3300   	0.000000    	VZ1.SAT.NBN.014 	;
 70              	1037.3300   	0.000000    	VZ1.SAT.NBN.014 	;
 71              	1028.8400   	0.103202    	VZ1.SAT.NBN.014 	;
 72              	1028.4800   	0.020159    	VZ1.SAT.NBN.014 	;
 73              	1025.5400   	0.005262    	VZ1.SAT.NBN.014 	;
 74              	1025.5400   	0.045581    	VZ1.SAT.NBN.014 	;
 75              	1018.9700   	0.027240    	VZ1.SAT.NBN.014 	;
 76              	1018.9700   	0.024106    	VZ1.SAT.NBN.014 	;
 77              	1027.3100   	0.000000    	VZ1.SAT.NBN.014 	;
 78              	1027.9400   	0.000000    	VZ1.SAT.NBN.014 	;
 79              	1042.5000   	0.091830    	VZ1.SAT.NBN.014 	;
 80              	1039.5200   	0.186240    	VZ1.SAT.NBN.014 	;
 81              	1036.5600   	0.039506    	VZ1.SAT.NBN.014 	;
 82              	1036.5600   	0.000000    	VZ1.SAT.NBN.014 	;
 83              	1021.5100   	0.000000    	VZ1.SAT.NBN.014 	;
 84              	1021.5100   	0.000000    	VZ1.SAT.NBN.014 	;
 85              	1025.5800   	0.000000    	VZ1.SAT.NBN.014 	;
 86              	1025.5800   	0.017993    	VZ1.SAT.NBN.014 	;
 87              	1023.0800   	0.148834    	VZ1.SAT.NBN.014 	;
 88              	1022.7700   	0.000000    	VZ1.SAT.NBN.014 	;
 89              	1026.1000   	0.000000    	VZ1.SAT.NBN.014 	;
 90              	1026.1000   	0.000000    	VZ1.SAT.NBN.014 	;
 91              	1035.8500   	0.000000    	VZ1.SAT.NBN.014 	;
 92              	1035.8100   	0.038697    	VZ1.SAT.NBN.014 	;
 93              	1040.2100   	0.000253    	VZ1.SAT.NBN.014 	;
 94              	1040.8900   	0.038697    	VZ1.SAT.NBN.014 	;
 95              	1038.6200   	0.000000    	VZ1.SAT.NBN.014 	;
 96              	1038.6200   	0.010796    	VZ1.SAT.NBN.014 	;
 97              	1039.0600   	0.000000    	VZ1.SAT.NBN.014 	;
 98              	1039.0600   	0.185805    	VZ1.SAT.NBN.014 	;
 99              	1040.2100   	0.000000    	VZ1.SAT.NBN.014 	;
 100             	1017.7900   	0.000542    	VZ1.SAT.NBN.014 	;
 101             	1019.1100   	0.020933    	VZ1.SAT.NBN.014 	;
 102             	1020.7900   	0.038697    	VZ1.SAT.NBN.014 	;
 103             	1035.0000   	0.265913    	VZ1.SAT.NBN.015 	;
 104             	1034.6400   	0.000000    	VZ1.SAT.NBN.015 	;
 PM.VRP.NBN.002  	1030.8500   	0.064305    	VZ1.SAT.NBN.015 	;
 106             	1038.4000   	0.600000    	VZ1.SAT.NBN.015 	;
 107             	1023.8600   	0.059577    	VZ1.SAT.NBN.015 	;
 108             	1023.7100   	0.000000    	VZ1.SAT.NBN.015 	;
 109             	1023.5600   	0.032153    	VZ1.SAT.NBN.015 	;
 110             	1023.4000   	0.000000    	VZ1.SAT.NBN.015 	;
 111             	1022.9600   	0.035494    	VZ1.SAT.NBN.015 	;
 112             	1047.6300   	0.000000    	VZ1.SAT.NBN.015 	;
 113             	1047.6300   	0.000000    	VZ1.SAT.NBN.015 	;
 114             	1047.6300   	0.000000    	VZ1.SAT.NBN.015 	;
 115             	1047.5100   	0.116532    	VZ1.SAT.NBN.015 	;
 116             	1048.4000   	0.037659    	VZ1.SAT.NBN.015 	;
 117             	1045.1300   	0.000000    	VZ1.SAT.NBN.015 	;
 118             	1045.7400   	0.000000    	VZ1.SAT.NBN.015 	;
 119             	1020.0000   	0.110955    	VZ1.SAT.NBN.015 	;
 120             	1025.0000   	0.185420    	VZ1.SAT.NBN.015 	;
 121             	1020.4400   	0.426493    	VZ1.SAT.NBN.015 	;
 122             	1029.9600   	0.145757    	VZ1.SAT.NBN.015 	;
 123             	1029.6400   	0.000000    	VZ1.SAT.NBN.015 	;
 124             	1037.7600   	0.011574    	VZ1.SAT.NBN.015 	;
 125             	1038.4500   	0.009806    	VZ1.SAT.NBN.015 	;
 126             	1036.0800   	0.029642    	VZ1.SAT.NBN.015 	;
 127             	1034.8100   	0.075011    	VZ1.SAT.NBN.015 	;
 128             	1033.9500   	0.012153    	VZ1.SAT.NBN.015 	;
 129             	1034.4300   	0.133243    	VZ1.SAT.NBN.015 	;
 130             	1033.2800   	0.223825    	VZ1.SAT.NBN.015 	;
 131             	1044.4700   	0.000000    	VZ1.SAT.NBN.015 	;
 132             	1040.4000   	0.066358    	VZ1.SAT.NBN.015 	;
 133             	1040.2200   	0.072467    	VZ1.SAT.NBN.015 	;
 134             	1030.9400   	0.000000    	VZ1.SAT.NBN.015 	;
 135             	1030.9400   	0.000000    	VZ1.SAT.NBN.015 	;
 136             	1026.8200   	0.067833    	VZ1.SAT.NBN.015 	;
 137             	1027.2900   	0.022719    	VZ1.SAT.NBN.015 	;
 138             	1047.2700   	0.053866    	VZ1.SAT.NBN.015 	;
 139             	1047.1900   	0.000000    	VZ1.SAT.NBN.015 	;
 140             	1036.8800   	0.210722    	VZ1.SAT.NBN.015 	;
 141             	1038.8500   	0.322192    	VZ1.SAT.NBN.015 	;
 142             	1035.4100   	0.083692    	VZ1.SAT.NBN.015 	;
 143             	1037.9400   	0.047842    	VZ1.SAT.NBN.015 	;
 144             	1035.1900   	0.013632    	VZ1.SAT.NBN.015 	;
 145             	1036.6900   	0.182784    	VZ1.SAT.NBN.015 	;
 146             	1033.2500   	0.153752    	VZ1.SAT.NBN.015 	;
 147             	1034.4800   	0.156163    	VZ1.SAT.NBN.015 	;
 148             	1031.0800   	0.583145    	VZ1.SAT.NBN.015 	;
 149             	1029.8800   	0.024273    	VZ1.SAT.NBN.015 	;
 150             	1023.8800   	0.017683    	VZ1.SAT.NBN.015 	;
 151             	1025.1000   	0.000000    	VZ1.SAT.NBN.015 	;
 152             	1046.2300   	0.000000    	VZ1.SAT.NBN.015 	;
 153             	1046.5300   	0.000000    	VZ1.SAT.NBN.015 	;
 154             	1028.3900   	0.081827    	VZ1.SAT.NBN.015 	;
 155             	1028.5900   	0.000000    	VZ1.SAT.NBN.015 	;
 156             	1046.6600   	0.000000    	VZ1.SAT.NBN.015 	;
 157             	1050.0000   	0.027276    	VZ1.SAT.NBN.015 	;
 158             	1050.0000   	0.000000    	VZ1.SAT.NBN.015 	;
 159             	1050.0000   	0.000000    	VZ1.SAT.NBN.015 	;
 160             	1050.0000   	0.000000    	VZ1.SAT.NBN.015 	;
 161             	1050.0000   	0.047810    	VZ1.SAT.NBN.015 	;
 162             	1050.0000   	0.000000    	VZ1.SAT.NBN.015 	;
 163             	1050.0000   	0.029319    	VZ1.SAT.NBN.015 	;
 164             	1050.0000   	0.000000    	VZ1.SAT.NBN.015 	;
 165             	1050.0000   	0.000000    	VZ1.SAT.NBN.015 	;
 166             	1050.0000   	0.000000    	VZ1.SAT.NBN.015 	;
 167             	1050.0000   	0.000000    	VZ1.SAT.NBN.015 	;
 168             	1050.0000   	0.000000    	VZ1.SAT.NBN.015 	;
 169             	1050.0000   	0.000000    	VZ1.SAT.NBN.015 	;
 170             	1050.0000   	0.000000    	VZ1.SAT.NBN.015 	;
 171             	1050.0000   	0.000000    	VZ1.SAT.NBN.015 	;
 172             	1050.0000   	0.000000    	VZ1.SAT.NBN.015 	;
 173             	1050.0000   	0.000000    	VZ1.SAT.NBN.015 	;
 174             	1050.0000   	0.000000    	VZ1.SAT.NBN.015 	;
 175             	1050.0000   	0.000000    	VZ1.SAT.NBN.015 	;
 176             	1041.9500   	0.094998    	VZ1.SAT.NBN.015 	;
 177             	1041.9500   	0.179526    	VZ1.SAT.NBN.015 	;
 178             	1042.7000   	0.020510    	VZ1.SAT.NBN.015 	;
 179             	1042.4500   	0.039438    	VZ1.SAT.NBN.015 	;
 180             	1042.5600   	0.064152    	VZ1.SAT.NBN.015 	;
 181             	1043.1600   	0.016064    	VZ1.SAT.NBN.015 	;
 182             	1042.4500   	0.000000    	VZ1.SAT.NBN.015 	;
 183             	1050.0000   	0.000000    	VZ1.SAT.NBN.015 	;
 184             	1050.0000   	0.000000    	VZ1.SAT.NBN.015 	;
 185             	1050.0000   	0.000000    	VZ1.SAT.NBN.015 	;
 186             	1050.0000   	0.000000    	VZ1.SAT.NBN.015 	;
 187             	1050.0000   	0.000000    	VZ1.SAT.NBN.015 	;
 188             	1050.0000   	0.000000    	VZ1.SAT.NBN.015 	;
 189             	1050.0000   	0.000000    	VZ1.SAT.NBN.015 	;
 190             	1050.0000   	0.008618    	VZ1.SAT.NBN.015 	;
 191             	1050.0000   	0.000000    	VZ1.SAT.NBN.015 	;
 192             	1050.0000   	0.000000    	VZ1.SAT.NBN.015 	;
 193             	1050.0000   	0.000218    	VZ1.SAT.NBN.015 	;
 194             	1050.0000   	0.071677    	VZ1.SAT.NBN.015 	;
 195             	1050.0000   	0.166405    	VZ1.SAT.NBN.015 	;
 196             	1050.0000   	0.000900    	VZ1.SAT.NBN.015 	;
 197             	1050.0000   	0.027276    	VZ1.SAT.NBN.015 	;
 198             	1050.0000   	0.008509    	VZ1.SAT.NBN.015 	;
 199             	1050.0000   	0.054551    	VZ1.SAT.NBN.015 	;
 200             	1049.9600   	0.000000    	VZ1.SAT.NBN.015 	;
 201             	1050.0000   	0.000000    	VZ1.SAT.NBN.015 	;
 202             	1050.0000   	0.032701    	VZ1.SAT.NBN.015 	;
 203             	1050.0000   	0.050567    	VZ1.SAT.NBN.015 	;
 204             	1050.0000   	0.000000    	VZ1.SAT.NBN.015 	;
 205             	1050.0000   	0.007827    	VZ1.SAT.NBN.015 	;
 206             	1050.0000   	0.010664    	VZ1.SAT.NBN.015 	;
 207             	1050.0000   	0.056267    	VZ1.SAT.NBN.015 	;
 208             	1050.0000   	0.000982    	VZ1.SAT.NBN.015 	;
 209             	1050.0000   	0.007037    	VZ1.SAT.NBN.015 	;
 210             	1050.0000   	0.000791    	VZ1.SAT.NBN.015 	;
 211             	1050.0000   	0.000000    	VZ1.SAT.NBN.015 	;
 212             	1050.0000   	0.036761    	VZ1.SAT.NBN.015 	;
 213             	1050.0000   	0.044631    	VZ1.SAT.NBN.015 	;
 214             	1050.0000   	0.000000    	VZ1.SAT.NBN.015 	;
 215             	1050.0000   	0.025597    	VZ1.SAT.NBN.015 	;
 216             	1050.0000   	0.027276    	VZ1.SAT.NBN.015 	;
 217             	1050.0000   	0.000000    	VZ1.SAT.NBN.015 	;
 218             	1050.0000   	0.003109    	VZ1.SAT.NBN.015 	;
 219             	1050.0000   	0.005891    	VZ1.SAT.NBN.015 	;
 220             	1050.0000   	0.003464    	VZ1.SAT.NBN.015 	;
 221             	1050.0000   	0.004309    	VZ1.SAT.NBN.015 	;
 222             	1050.0000   	0.000927    	VZ1.SAT.NBN.015 	;
 223             	1050.0000   	0.027276    	VZ1.SAT.NBN.015 	;
 224             	1050.0000   	0.000000    	VZ1.SAT.NBN.015 	;
 225             	1050.0000   	0.000000    	VZ1.SAT.NBN.015 	;
 226             	1050.0000   	0.000000    	VZ1.SAT.NBN.015 	;
 227             	1050.0000   	0.000000    	VZ1.SAT.NBN.015 	;
 228             	1050.0000   	0.001282    	VZ1.SAT.NBN.015 	;
 229             	1050.0000   	0.000000    	VZ1.SAT.NBN.015 	;
 230             	1050.0000   	0.000000    	VZ1.SAT.NBN.015 	;
 231             	1050.0000   	0.000000    	VZ1.SAT.NBN.015 	;
 232             	1050.0000   	0.000000    	VZ1.SAT.NBN.015 	;
 233             	1050.0000   	0.005154    	VZ1.SAT.NBN.015 	;
 234             	1050.0000   	0.000000    	VZ1.SAT.NBN.015 	;
 235             	1050.0000   	0.006054    	VZ1.SAT.NBN.015 	;
 236             	1050.0000   	0.000000    	VZ1.SAT.NBN.015 	;
 237             	1025.0000   	0.000000    	VZ1.SAT.NBN.015 	;
 238             	1025.1400   	0.000000    	VZ1.SAT.NBN.015 	;
 239             	1035.3700   	0.000000    	VZ1.SAT.NBN.015 	;
 240             	1035.3700   	0.000000    	VZ1.SAT.NBN.015 	;
 241             	1033.4700   	0.000000    	VZ1.SAT.NBN.015 	;
 242             	1035.3700   	0.000000    	VZ1.SAT.NBN.015 	;
 243             	1034.9200   	0.000000    	VZ1.SAT.NBN.015 	;
 244             	1035.2300   	0.000000    	VZ1.SAT.NBN.015 	;
 245             	1036.7500   	0.000000    	VZ1.SAT.NBN.014 	;
 246             	1036.7500   	0.000000    	VZ1.SAT.NBN.014 	;
 247             	1034.1600   	0.000000    	VZ1.SAT.NBN.014 	;
 248             	1040.3000   	0.000000    	VZ1.SAT.NBN.014 	;
 249             	1039.6100   	0.000000    	VZ1.SAT.NBN.014 	;
 250             	1040.0000   	0.000000    	VZ1.SAT.NBN.014 	;
 251             	1039.1300   	0.000000    	VZ1.SAT.NBN.014 	;
 252             	1015.7100   	0.020082    	VZ1.SAT.NBN.014 	;
 253             	1017.6500   	0.107880    	VZ1.SAT.NBN.014 	;
 254             	1023.1800   	0.000000    	VZ1.SAT.NBN.014 	;
 255             	1023.1800   	0.008628    	VZ1.SAT.NBN.014 	;
 256             	1023.3200   	0.020508    	VZ1.SAT.NBN.014 	;
 257             	1023.8300   	0.055063    	VZ1.SAT.NBN.014 	;
 258             	1026.7400   	0.485728    	VZ1.SAT.NBN.014 	;
 259             	1026.5100   	0.000000    	VZ1.SAT.NBN.014 	;
 260             	1026.1000   	0.089653    	VZ1.SAT.NBN.014 	;
 261             	1026.0800   	0.126610    	VZ1.SAT.NBN.014 	;
 262             	1024.9200   	0.052313    	VZ1.SAT.NBN.014 	;
 263             	1026.7300   	0.000000    	VZ1.SAT.NBN.014 	;
 264             	1014.2700   	0.095653    	VZ1.SAT.NBN.014 	;
 265             	1011.1600   	0.041673    	VZ1.SAT.NBN.014 	;
 266             	1021.4300   	0.107338    	VZ1.SAT.NBN.014 	;
 267             	1025.4000   	0.000000    	VZ1.SAT.NBN.014 	;
 268             	1025.4000   	0.000000    	VZ1.SAT.NBN.014 	;
 269             	1021.1200   	0.007143    	VZ1.SAT.NBN.014 	;
 270             	1021.3200   	0.000000    	VZ1.SAT.NBN.014 	;
 271             	1022.2000   	0.058856    	VZ1.SAT.NBN.014 	;
 272             	1020.6100   	0.192215    	VZ1.SAT.NBN.014 	;
 273             	1021.3700   	0.000000    	VZ1.SAT.NBN.014 	;
 274             	1022.7100   	0.247824    	VZ1.SAT.NBN.014 	;
 275             	1022.6900   	0.028168    	VZ1.SAT.NBN.014 	;
 276             	1022.4200   	0.071599    	VZ1.SAT.NBN.014 	;
 277             	1022.2200   	0.072163    	VZ1.SAT.NBN.014 	;
 278             	1037.6800   	0.309570    	VZ1.SAT.NBN.014 	;
 279             	1040.2100   	0.000000    	VZ1.SAT.NBN.014 	;
 280             	1040.2100   	0.000000    	VZ1.SAT.NBN.014 	;
 281             	1045.0000   	0.017296    	VZ1.SAT.NBN.014 	;
 282             	1045.0000   	0.022907    	VZ1.SAT.NBN.014 	;
 283             	1045.0000   	0.075881    	VZ1.SAT.NBN.014 	;
 284             	1045.0000   	0.013999    	VZ1.SAT.NBN.014 	;
 285             	1045.0000   	0.034050    	VZ1.SAT.NBN.014 	;
 286             	1045.0000   	0.006627    	VZ1.SAT.NBN.014 	;
 287             	1045.0000   	0.023177    	VZ1.SAT.NBN.014 	;
 288             	1045.0000   	0.033741    	VZ1.SAT.NBN.014 	;
 289             	1044.9700   	0.019617    	VZ1.SAT.NBN.014 	;
 290             	1043.6600   	0.087566    	VZ1.SAT.NBN.014 	;
 291             	1041.6300   	0.060864    	VZ1.SAT.NBN.014 	;
 292             	1045.2400   	0.084104    	VZ1.SAT.NBN.014 	;
 293             	1043.1100   	0.087331    	VZ1.SAT.NBN.014 	;
 294             	1044.8900   	0.000000    	VZ1.SAT.NBN.014 	;
 295             	1045.0000   	0.013891    	VZ1.SAT.NBN.014 	;
 296             	1045.0000   	0.008165    	VZ1.SAT.NBN.014 	;
 297             	1045.0000   	0.011531    	VZ1.SAT.NBN.014 	;
 298             	1045.0600   	0.019579    	VZ1.SAT.NBN.014 	;
 299             	1045.3500   	0.101648    	VZ1.SAT.NBN.014 	;
 300             	1046.3900   	0.257972    	VZ1.SAT.NBN.014 	;
 301             	1037.4900   	0.004682    	VZ1.SAT.NBN.014 	;
 302             	1037.9200   	0.046333    	VZ1.SAT.NBN.014 	;
 303             	1025.0000   	0.218134    	VZ1.SAT.NBN.014 	;
 304             	1023.8800   	0.066594    	VZ1.SAT.NBN.014 	;
 305             	1025.9800   	0.008512    	VZ1.SAT.NBN.014 	;
 306             	1029.1200   	0.027394    	VZ1.SAT.NBN.014 	;
 307             	1028.8400   	0.038655    	VZ1.SAT.NBN.014 	;
 308             	1035.9800   	0.000000    	VZ1.SAT.NBN.014 	;
 309             	1035.8700   	0.053072    	VZ1.SAT.NBN.014 	;
 310             	1049.3900   	0.000000    	VZ1.SAT.NBN.015 	;
 311             	1049.6200   	0.153796    	VZ1.SAT.NBN.015 	;
 312             	1050.0000   	0.000000    	VZ1.SAT.NBN.015 	;
 313             	1040.0000   	0.000000    	VZ1.SAT.NBN.015 	;
 314             	1040.0000   	0.027276    	VZ1.SAT.NBN.015 	;
 315             	1036.5900   	0.000000    	VZ1.SAT.NBN.014 	;
 316             	1036.5900   	0.063460    	VZ1.SAT.NBN.014 	;
 317             	1035.3000   	0.000000    	VZ1.SAT.NBN.014 	;
 318             	1035.0000   	0.000000    	VZ1.SAT.NBN.014 	;
 319             	1025.0000   	0.000000    	VZ1.SAT.NBN.015 	;
 320             	1027.9300   	0.032153    	VZ1.SAT.NBN.015 	;
 321             	1037.4900   	0.166462    	VZ1.SAT.NBN.014 	;
 322             	1039.0400   	0.053725    	VZ1.SAT.NBN.014 	;
 323             	1042.8100   	0.032153    	VZ1.SAT.NBN.014 	;
 324             	1042.8100   	0.000000    	VZ1.SAT.NBN.014 	;
 325             	1043.5300   	0.000000    	VZ1.SAT.NBN.014 	;
 326             	1034.8200   	0.081956    	VZ1.SAT.NBN.014 	;
 327             	1034.7400   	0.000000    	VZ1.SAT.NBN.014 	;
 328             	1036.7200   	0.000000    	VZ1.SAT.NBN.014 	;
 329             	1036.7200   	0.006694    	VZ1.SAT.NBN.014 	;
 330             	1036.3400   	0.013774    	VZ1.SAT.NBN.014 	;
 331             	1036.1800   	0.002206    	VZ1.SAT.NBN.014 	;
 332             	1036.9500   	0.021900    	VZ1.SAT.NBN.014 	;
 333             	1034.4400   	0.000000    	VZ1.SAT.NBN.014 	;
 334             	1035.1100   	0.000000    	VZ1.SAT.NBN.014 	;
 335             	1035.0000   	0.000000    	VZ1.SAT.NBN.014 	;
 336             	1035.0000   	0.000000    	VZ1.SAT.NBN.014 	;
 337             	1035.1100   	0.000000    	VZ1.SAT.NBN.014 	;
 338             	1035.1100   	0.000000    	VZ1.SAT.NBN.014 	;
 339             	1035.1100   	0.001045    	VZ1.SAT.NBN.014 	;
 340             	1034.3500   	0.000000    	VZ1.SAT.NBN.014 	;
 341             	1034.5000   	0.020391    	VZ1.SAT.NBN.014 	;
 342             	1036.6700   	0.000000    	VZ1.SAT.NBN.014 	;
 343             	1036.6700   	0.000000    	VZ1.SAT.NBN.014 	;
 344             	1033.7900   	0.000000    	VZ1.SAT.NBN.014 	;
 345             	1033.4500   	0.000000    	VZ1.SAT.NBN.014 	;
 346             	1032.5800   	0.000000    	VZ1.SAT.NBN.014 	;
 347             	1032.5800   	0.000000    	VZ1.SAT.NBN.014 	;
 348             	1034.4700   	0.000000    	VZ1.SAT.NBN.014 	;
 349             	1027.4300   	0.077619    	VZ1.SAT.NBN.014 	;
 350             	1025.7800   	0.021862    	VZ1.SAT.NBN.014 	;
 351             	1025.7800   	0.000000    	VZ1.SAT.NBN.014 	;
 352             	1041.3100   	0.026041    	VZ1.SAT.NBN.014 	;
 353             	1041.0100   	0.157107    	VZ1.SAT.NBN.014 	;
 354             	1041.0400   	0.000000    	VZ1.SAT.NBN.014 	;
 355             	1040.7200   	0.038697    	VZ1.SAT.NBN.014 	;
 356             	1042.4900   	0.000000    	VZ1.SAT.NBN.014 	;
 357             	1042.2400   	0.147118    	VZ1.SAT.NBN.014 	;
 358             	1042.5000   	0.000000    	VZ1.SAT.NBN.014 	;
 359             	1042.5000   	0.000000    	VZ1.SAT.NBN.014 	;
 360             	1045.0000   	0.011214    	VZ1.SAT.NBN.014 	;
 361             	1045.0000   	0.000000    	VZ1.SAT.NBN.014 	;
 362             	1030.5800   	0.000000    	VZ1.SAT.NBN.015 	;
 363             	1030.6500   	0.000000    	VZ1.SAT.NBN.015 	;
 364             	1042.0700   	0.000000    	VZ1.SAT.NBN.015 	;
 365             	1042.5300   	0.032265    	VZ1.SAT.NBN.015 	;
 366             	1038.2400   	0.007177    	VZ1.SAT.NBN.015 	;
 367             	1046.2100   	0.028611    	VZ1.SAT.NBN.015 	;
 369             	1040.5100   	0.054551    	VZ1.SAT.NBN.015 	;
 370             	1040.4000   	0.029348    	VZ1.SAT.NBN.015 	;
 371             	1015.0000   	0.000000    	VZ1.SAT.NBN.015 	;
 372             	1015.8800   	0.000000    	VZ1.SAT.NBN.015 	;
 373             	1015.0000   	0.000000    	VZ1.SAT.NBN.015 	;
 374             	1015.0000   	0.000000    	VZ1.SAT.NBN.015 	;
 375             	1015.0000   	0.000000    	VZ1.SAT.NBN.015 	;
 376             	1041.2900   	0.000000    	VZ1.SAT.NBN.015 	;
 377             	1041.1300   	0.000000    	VZ1.SAT.NBN.015 	;
 378             	1031.3800   	0.000000    	VZ1.SAT.NBN.015 	;
 379             	1031.3800   	0.000000    	VZ1.SAT.NBN.015 	;
 380             	1031.0900   	0.000000    	VZ1.SAT.NBN.015 	;
 381             	1045.9200   	0.066059    	VZ1.SAT.NBN.015 	;
 383             	1043.2500   	0.000000    	VZ1.SAT.NBN.015 	;
 384             	1050.0000   	0.002400    	VZ1.SAT.NBN.015 	;
 385             	1050.0000   	0.000000    	VZ1.SAT.NBN.015 	;
 386             	1036.9500   	0.388551    	VZ1.SAT.NBN.015 	;
 387             	1035.6900   	0.054551    	VZ1.SAT.NBN.015 	;
 388             	1050.0000   	0.000000    	VZ1.SAT.NBN.015 	;
 389             	1050.0000   	0.000000    	VZ1.SAT.NBN.015 	;
 390             	1050.0000   	0.000000    	VZ1.SAT.NBN.015 	;
 391             	1031.9600   	0.000000    	VZ1.SAT.NBN.014 	;
 392             	1031.5500   	0.000000    	VZ1.SAT.NBN.014 	;
 393             	1029.3500   	0.000000    	VZ1.SAT.NBN.014 	;
 394             	1049.4000   	0.000000    	VZ1.SAT.NBN.015 	;
 395             	1050.0000   	0.000000    	VZ1.SAT.NBN.015 	;
 396             	1025.4000   	0.000000    	VZ1.SAT.NBN.014 	;
 397             	1033.6900   	0.115080    	VZ1.SAT.NBN.014 	;
 398             	1028.3500   	0.038697    	VZ1.SAT.NBN.014 	;
 399             	1029.1900   	0.000000    	VZ1.SAT.NBN.014 	;
 400             	1045.8700   	0.000000    	VZ1.SAT.NBN.014 	;
 401             	1045.8700   	0.081916    	VZ1.SAT.NBN.014 	;
 402             	1045.0000   	0.000000    	VZ1.SAT.NBN.014 	;
 403             	1045.0000   	0.008977    	VZ1.SAT.NBN.014 	;
 404             	1041.2700   	0.029871    	VZ1.SAT.NBN.014 	;
 405             	1039.6800   	0.122161    	VZ1.SAT.NBN.014 	;
 406             	1045.0000   	0.033934    	VZ1.SAT.NBN.014 	;
 407             	1044.8900   	0.142630    	VZ1.SAT.NBN.014 	;
 408             	1042.3900   	0.407963    	VZ1.SAT.NBN.014 	;
 409             	1040.5800   	0.102761    	VZ1.SAT.NBN.014 	;
 410             	1045.0000   	0.000000    	VZ1.SAT.NBN.014 	;
 411             	1045.0000   	0.000000    	VZ1.SAT.NBN.014 	;
 412             	1045.0000   	0.024299    	VZ1.SAT.NBN.014 	;
 413             	1044.0600   	0.000000    	VZ1.SAT.NBN.014 	;
 414             	1044.0600   	0.106916    	VZ1.SAT.NBN.014 	;
 415             	1041.3400   	0.135477    	VZ1.SAT.NBN.014 	;
 416             	1039.2200   	0.112510    	VZ1.SAT.NBN.014 	;
 417             	1045.0000   	0.000000    	VZ1.SAT.NBN.014 	;
 418             	1045.0000   	0.000000    	VZ1.SAT.NBN.014 	;
 419             	1045.0000   	0.007352    	VZ1.SAT.NBN.014 	;
 420             	1045.0000   	0.000000    	VZ1.SAT.NBN.014 	;
 421             	1045.0000   	0.008939    	VZ1.SAT.NBN.014 	;
 422             	1043.5200   	0.072670    	VZ1.SAT.NBN.014 	;
 423             	1042.9000   	0.017334    	VZ1.SAT.NBN.014 	;
 424             	1042.5900   	0.015903    	VZ1.SAT.NBN.014 	;
 425             	1041.9700   	0.056415    	VZ1.SAT.NBN.014 	;
 426             	1041.3100   	0.020508    	VZ1.SAT.NBN.014 	;
 427             	1046.2100   	0.062567    	VZ1.SAT.NBN.014 	;
 428             	1045.0000   	0.247770    	VZ1.SAT.NBN.014 	;
 429             	1045.0000   	0.176371    	VZ1.SAT.NBN.014 	;
 430             	1046.8800   	0.127691    	VZ1.SAT.NBN.014 	;
 431             	1047.5500   	0.018728    	VZ1.SAT.NBN.014 	;
 432             	1047.9500   	0.210529    	VZ1.SAT.NBN.014 	;
 433             	1041.4100   	0.000000    	VZ1.SAT.NBN.014 	;
 434             	1041.4100   	0.010950    	VZ1.SAT.NBN.014 	;
 435             	1042.3000   	0.080679    	VZ1.SAT.NBN.014 	;
 436             	1039.2900   	0.086286    	VZ1.SAT.NBN.014 	;
 437             	1039.2800   	0.272327    	VZ1.SAT.NBN.014 	;
 438             	1042.0500   	0.000000    	VZ1.SAT.NBN.014 	;
 439             	1041.9900   	0.000000    	VZ1.SAT.NBN.014 	;
 440             	1045.8700   	0.038697    	VZ1.SAT.NBN.014 	;
 441             	1045.0000   	0.000000    	VZ1.SAT.NBN.014 	;
 442             	1045.0500   	0.000000    	VZ1.SAT.NBN.014 	;
 443             	1043.8400   	0.010137    	VZ1.SAT.NBN.014 	;
 444             	1029.3100   	0.100293    	VZ1.SAT.NBN.014 	;
 445             	1032.0600   	0.219326    	VZ1.SAT.NBN.014 	;
 446             	1042.4400   	0.000000    	VZ1.SAT.NBN.014 	;
 447             	1042.4400   	0.000000    	VZ1.SAT.NBN.014 	;
 448             	1042.6300   	0.038697    	VZ1.SAT.NBN.014 	;
 449             	1034.6600   	0.058930    	VZ1.SAT.NBN.014 	;
 450             	1034.6600   	0.036721    	VZ1.SAT.NBN.014 	;
 451             	1034.6600   	0.101451    	VZ1.SAT.NBN.014 	;
 452             	1044.9100   	0.000000    	VZ1.SAT.NBN.014 	;
 453             	1045.0000   	0.109160    	VZ1.SAT.NBN.014 	;
 454             	1045.3500   	0.000000    	VZ1.SAT.NBN.014 	;
 455             	1045.3500   	0.002360    	VZ1.SAT.NBN.014 	;
 456             	1044.4200   	0.000000    	VZ1.SAT.NBN.014 	;
 457             	1048.3300   	0.093293    	VZ1.SAT.NBN.014 	;
 458             	1048.7800   	0.216094    	VZ1.SAT.NBN.014 	;
 459             	1049.1300   	0.025499    	VZ1.SAT.NBN.014 	;
 460             	1049.3000   	0.137058    	VZ1.SAT.NBN.014 	;
 461             	1041.4100   	0.011642    	VZ1.SAT.NBN.014 	;
 462             	1039.7800   	0.139382    	VZ1.SAT.NBN.014 	;
 463             	1035.0900   	0.042447    	VZ1.SAT.NBN.014 	;
 464             	1035.0900   	0.028517    	VZ1.SAT.NBN.014 	;
 465             	1041.4100   	0.000000    	VZ1.SAT.NBN.014 	;
 466             	1041.9700   	0.015594    	VZ1.SAT.NBN.014 	;
 467             	1036.1000   	0.000000    	VZ1.SAT.NBN.014 	;
 468             	1023.5200   	0.095692    	VZ1.SAT.NBN.014 	;
 469             	1021.5500   	0.050497    	VZ1.SAT.NBN.014 	;
 470             	1027.1900   	0.029755    	VZ1.SAT.NBN.014 	;
 471             	1027.1900   	0.004217    	VZ1.SAT.NBN.014 	;
 472             	1044.9100   	0.046561    	VZ1.SAT.NBN.014 	;
 473             	1044.8900   	0.000000    	VZ1.SAT.NBN.014 	;
 474             	1037.5200   	0.015903    	VZ1.SAT.NBN.014 	;
 475             	1037.1500   	0.083967    	VZ1.SAT.NBN.014 	;
 476             	1032.7500   	0.000000    	VZ1.SAT.NBN.014 	;
 477             	1032.7500   	0.024377    	VZ1.SAT.NBN.014 	;
 478             	1049.1900   	0.000000    	VZ1.SAT.NBN.015 	;
 479             	1049.1900   	0.000000    	VZ1.SAT.NBN.015 	;
 480             	1040.7100   	0.011700    	VZ1.SAT.NBN.015 	;
 481             	1040.7100   	0.000000    	VZ1.SAT.NBN.015 	;
 482             	1023.9800   	0.000000    	VZ1.SAT.NBN.015 	;
 483             	1023.9800   	0.000000    	VZ1.SAT.NBN.015 	;
 484             	1033.7800   	0.017908    	VZ1.SAT.NBN.015 	;
 485             	1034.0500   	0.011220    	VZ1.SAT.NBN.015 	;
 486             	1046.5600   	0.000000    	VZ1.SAT.NBN.015 	;
 487             	1035.3300   	0.000000    	VZ1.SAT.NBN.015 	;
 488             	1035.5800   	0.000000    	VZ1.SAT.NBN.015 	;
 489             	1041.4900   	0.000000    	VZ1.SAT.NBN.015 	;
 490             	1041.6600   	0.000000    	VZ1.SAT.NBN.015 	;
 491             	1041.6600   	0.000000    	VZ1.SAT.NBN.015 	;
 492             	1041.7700   	0.000000    	VZ1.SAT.NBN.015 	;
 493             	1041.8800   	0.000000    	VZ1.SAT.NBN.015 	;
 494             	1049.1500   	0.000000    	VZ1.SAT.NBN.015 	;
 495             	1048.9100   	0.000000    	VZ1.SAT.NBN.015 	;
 496             	1035.2600   	0.000000    	VZ1.SAT.NBN.015 	;
 497             	1034.4000   	0.000000    	VZ1.SAT.NBN.015 	;
 498             	1039.1600   	0.000000    	VZ1.SAT.NBN.015 	;
 499             	1036.5600   	0.099880    	VZ1.SAT.NBN.015 	;
 500             	1046.1700   	0.000000    	VZ1.SAT.NBN.015 	;
 501             	1046.7900   	0.049095    	VZ1.SAT.NBN.015 	;
 502             	1047.9000   	0.016345    	VZ1.SAT.NBN.015 	;
 503             	1034.1300   	0.004982    	VZ1.SAT.NBN.015 	;
 504             	1034.1300   	0.000000    	VZ1.SAT.NBN.015 	;
 505             	1033.7900   	0.032647    	VZ1.SAT.NBN.015 	;
 506             	1033.9900   	0.044731    	VZ1.SAT.NBN.015 	;
 507             	1033.3800   	0.091119    	VZ1.SAT.NBN.015 	;
 508             	1048.3700   	0.000000    	VZ1.SAT.NBN.015 	;
 509             	1048.9100   	0.000000    	VZ1.SAT.NBN.015 	;
 510             	1036.2900   	0.081827    	VZ1.SAT.NBN.015 	;
 511             	1041.4100   	0.027276    	VZ1.SAT.NBN.015 	;
 512             	1042.6400   	0.027276    	VZ1.SAT.NBN.015 	;
 513             	1038.9500   	0.137022    	VZ1.SAT.NBN.015 	;
 514             	1036.5800   	0.000000    	VZ1.SAT.NBN.015 	;
 515             	1036.4200   	0.000000    	VZ1.SAT.NBN.015 	;
 516             	1036.9700   	0.000000    	VZ1.SAT.NBN.015 	;
 517             	1037.2100   	0.071075    	VZ1.SAT.NBN.015 	;
 518             	1020.7300   	0.038075    	VZ1.SAT.NBN.014 	;
 519             	1020.2600   	0.005959    	VZ1.SAT.NBN.014 	;
 520             	1033.8500   	0.000000    	VZ1.SAT.NBN.015 	;
 521             	1034.0900   	0.000000    	VZ1.SAT.NBN.015 	;
 522             	1032.8500   	0.000000    	VZ1.SAT.NBN.015 	;
 523             	1035.8000   	0.116764    	VZ1.SAT.NBN.015 	;
 524             	1031.2400   	0.000000    	VZ1.SAT.NBN.015 	;
 525             	1034.4700   	0.010555    	VZ1.SAT.NBN.015 	;
 526             	1034.7800   	0.073393    	VZ1.SAT.NBN.015 	;
 527             	1031.4900   	0.000000    	VZ1.SAT.NBN.015 	;
 528             	1030.6200   	0.021476    	VZ1.SAT.NBN.015 	;
 529             	1030.0000   	0.000000    	VZ1.SAT.NBN.015 	;
 530             	1030.0000   	0.000000    	VZ1.SAT.NBN.015 	;
 531             	1024.0100   	0.045155    	VZ1.SAT.NBN.014 	;
 532             	1050.0000   	0.000000    	VZ1.SAT.NBN.014 	;
 533             	1050.0000   	0.019644    	VZ1.SAT.NBN.014 	;
 534             	1045.0000   	0.023784    	VZ1.SAT.NBN.014 	;
 535             	1045.0000   	0.014471    	VZ1.SAT.NBN.014 	;
 536             	1045.0000   	0.053245    	VZ1.SAT.NBN.014 	;
 537             	1045.0000   	0.043221    	VZ1.SAT.NBN.014 	;
 538             	1045.0000   	0.055177    	VZ1.SAT.NBN.014 	;
 539             	1045.2500   	0.068607    	VZ1.SAT.NBN.014 	;
 540             	1050.0000   	0.000000    	VZ1.SAT.NBN.014 	;
 541             	1050.0000   	0.011831    	VZ1.SAT.NBN.014 	;
 542             	1039.5300   	0.041324    	VZ1.SAT.NBN.014 	;
 543             	1031.9100   	0.019805    	VZ1.SAT.NBN.015 	;
 544             	1030.5200   	0.212332    	VZ1.SAT.NBN.015 	;
 545             	1030.5200   	0.017425    	VZ1.SAT.NBN.015 	;
 546             	1029.9800   	0.000000    	VZ1.SAT.NBN.015 	;
 547             	1029.6800   	0.006269    	VZ1.SAT.NBN.015 	;
 548             	1030.1300   	0.105908    	VZ1.SAT.NBN.015 	;
 549             	1033.2200   	0.270040    	VZ1.SAT.NBN.015 	;
 550             	1039.1600   	0.000000    	VZ1.SAT.NBN.015 	;
 551             	1037.1100   	0.022377    	VZ1.SAT.NBN.015 	;
 552             	1031.3000   	0.013053    	VZ1.SAT.NBN.015 	;
 553             	1031.4700   	0.034883    	VZ1.SAT.NBN.015 	;
 554             	1031.3800   	0.058162    	VZ1.SAT.NBN.015 	;
 555             	1030.2700   	0.058644    	VZ1.SAT.NBN.015 	;
 556             	1030.4000   	0.000579    	VZ1.SAT.NBN.015 	;
 557             	1030.9700   	0.064110    	VZ1.SAT.NBN.015 	;
 558             	1035.3300   	0.003119    	VZ1.SAT.NBN.015 	;
 559             	1035.6700   	0.023598    	VZ1.SAT.NBN.015 	;
 560             	1035.6900   	0.062854    	VZ1.SAT.NBN.015 	;
 561             	1030.4200   	0.314496    	VZ1.SAT.NBN.015 	;
 562             	1031.9100   	0.000000    	VZ1.SAT.NBN.015 	;
 563             	1030.4200   	0.056715    	VZ1.SAT.NBN.015 	;
 564             	1022.0100   	0.049489    	VZ1.SAT.NBN.014 	;
 565             	1022.0000   	0.035830    	VZ1.SAT.NBN.014 	;
 566             	1025.8100   	0.085515    	VZ1.SAT.NBN.014 	;
 567             	1020.2400   	0.025925    	VZ1.SAT.NBN.014 	;
 568             	1032.3300   	0.183750    	VZ1.SAT.NBN.014 	;
 569             	1021.1300   	0.000000    	VZ1.SAT.NBN.014 	;
 570             	1025.9000   	0.067710    	VZ1.SAT.NBN.014 	;
 571             	1025.5900   	0.042485    	VZ1.SAT.NBN.014 	;
 572             	1027.1000   	0.166816    	VZ1.SAT.NBN.014 	;
 573             	1026.8700   	0.032579    	VZ1.SAT.NBN.014 	;
 574             	1041.4300   	0.000000    	VZ1.SAT.NBN.014 	;
 575             	1041.5000   	0.005262    	VZ1.SAT.NBN.014 	;
 576             	1039.5800   	0.042138    	VZ1.SAT.NBN.014 	;
 577             	1037.8700   	0.046316    	VZ1.SAT.NBN.014 	;
 578             	1021.4300   	0.024889    	VZ1.SAT.NBN.014 	;
 579             	1039.0100   	0.256430    	VZ1.SAT.NBN.014 	;
 580             	1041.9600   	0.176409    	VZ1.SAT.NBN.014 	;
 581             	1038.9600   	0.180859    	VZ1.SAT.NBN.014 	;
 582             	1041.4300   	0.000000    	VZ1.SAT.NBN.014 	;
 583             	1050.0000   	0.029321    	VZ1.SAT.NBN.015 	;
 584             	1035.9900   	0.008782    	VZ1.SAT.NBN.015 	;
 585             	1035.9900   	0.531174    	VZ1.SAT.NBN.015 	;
 586             	1041.2800   	0.032240    	VZ1.SAT.NBN.015 	;
 587             	1040.8500   	0.245691    	VZ1.SAT.NBN.015 	;
 588             	1041.7200   	0.202438    	VZ1.SAT.NBN.015 	;
 589             	1041.2700   	0.015001    	VZ1.SAT.NBN.015 	;
 590             	1037.1700   	0.135340    	VZ1.SAT.NBN.015 	;
 591             	1050.0000   	0.000000    	VZ1.SAT.NBN.015 	;
 592             	1027.2800   	0.000000    	VZ1.SAT.NBN.015 	;
 593             	1026.4800   	0.052722    	VZ1.SAT.NBN.015 	;
 594             	1025.0000   	0.027276    	VZ1.SAT.NBN.015 	;
 595             	1025.0000   	0.000000    	VZ1.SAT.NBN.015 	;
 596             	1029.5400   	0.038499    	VZ1.SAT.NBN.014 	;
 597             	1029.4100   	0.046165    	VZ1.SAT.NBN.014 	;
 598             	1036.0500   	0.072011    	VZ1.SAT.NBN.014 	;
 599             	1036.4700   	0.068181    	VZ1.SAT.NBN.014 	;
 600             	1036.1000   	0.016639    	VZ1.SAT.NBN.014 	;
 601             	1035.8200   	0.058508    	VZ1.SAT.NBN.014 	;
 602             	1036.3400   	0.026079    	VZ1.SAT.NBN.014 	;
 603             	1031.6900   	0.180275    	VZ1.SAT.NBN.014 	;
 604             	1029.8500   	0.446235    	VZ1.SAT.NBN.014 	;
 605             	1031.0000   	0.079521    	VZ1.SAT.NBN.014 	;
 606             	1031.8400   	0.083155    	VZ1.SAT.NBN.014 	;
 607             	1038.8800   	0.177544    	VZ1.SAT.NBN.014 	;
 608             	1038.8800   	0.009442    	VZ1.SAT.NBN.014 	;
 609             	1039.6000   	0.069651    	VZ1.SAT.NBN.014 	;
 610             	1040.3100   	0.089036    	VZ1.SAT.NBN.014 	;
 611             	1039.6000   	0.069767    	VZ1.SAT.NBN.014 	;
 612             	1039.6000   	0.000000    	VZ1.SAT.NBN.014 	;
 613             	1028.5200   	0.000000    	VZ1.SAT.NBN.014 	;
 614             	1028.8600   	0.000000    	VZ1.SAT.NBN.014 	;
 615             	1040.9600   	0.083562    	VZ1.SAT.NBN.014 	;
 616             	1041.5900   	0.032038    	VZ1.SAT.NBN.014 	;
 617             	1044.6800   	0.109351    	VZ1.SAT.NBN.014 	;
 618             	1046.6000   	0.062683    	VZ1.SAT.NBN.014 	;
 619             	1045.9200   	0.112755    	VZ1.SAT.NBN.014 	;
 620             	1047.4300   	0.006462    	VZ1.SAT.NBN.014 	;
 621             	1038.4800   	0.081801    	VZ1.SAT.NBN.014 	;
 622             	1038.7600   	0.019076    	VZ1.SAT.NBN.014 	;
 623             	1034.1700   	0.017413    	VZ1.SAT.NBN.014 	;
 624             	1033.7800   	0.000000    	VZ1.SAT.NBN.014 	;
 625             	1034.7400   	0.000000    	VZ1.SAT.NBN.014 	;
 626             	1025.4000   	0.000000    	VZ1.SAT.NBN.014 	;
 627             	1025.5800   	0.068874    	VZ1.SAT.NBN.014 	;
 628             	1026.3300   	0.038060    	VZ1.SAT.NBN.014 	;
 629             	1026.0500   	0.007313    	VZ1.SAT.NBN.014 	;
 630             	1026.1500   	0.024184    	VZ1.SAT.NBN.014 	;
 631             	1026.4200   	0.028673    	VZ1.SAT.NBN.014 	;
 632             	1026.2700   	0.023913    	VZ1.SAT.NBN.014 	;
 633             	1026.3900   	0.103317    	VZ1.SAT.NBN.014 	;
 634             	1026.5700   	0.041827    	VZ1.SAT.NBN.014 	;
 635             	1026.7800   	0.190068    	VZ1.SAT.NBN.014 	;
 636             	1025.9900   	0.212278    	VZ1.SAT.NBN.014 	;
 637             	1042.6500   	0.032153    	VZ1.SAT.NBN.015 	;
 638             	1051.1200   	0.000000    	VZ1.SAT.NBN.015 	;
 639             	1032.4400   	0.018229    	VZ1.SAT.NBN.015 	;
 640             	1031.9100   	0.020126    	VZ1.SAT.NBN.015 	;
 641             	1040.0000   	0.027276    	VZ1.SAT.NBN.015 	;
 642             	1040.0000   	0.140086    	VZ1.SAT.NBN.015 	;
 643             	1019.4500   	0.101885    	VZ1.SAT.NBN.014 	;
 644             	1031.2400   	0.043453    	VZ1.SAT.NBN.014 	;
 645             	1028.8800   	0.000000    	VZ1.SAT.NBN.014 	;
 646             	1031.2200   	0.038697    	VZ1.SAT.NBN.014 	;
 647             	1032.3700   	0.165968    	VZ1.SAT.NBN.015 	;
 648             	1032.5400   	0.038895    	VZ1.SAT.NBN.015 	;
 649             	1040.6500   	0.048228    	VZ1.SAT.NBN.015 	;
 650             	1041.0000   	0.000000    	VZ1.SAT.NBN.015 	;
 651             	1036.5600   	0.156302    	VZ1.SAT.NBN.015 	;
 652             	1045.0000   	0.012409    	VZ1.SAT.NBN.015 	;
 653             	1042.4500   	0.103755    	VZ1.SAT.NBN.015 	;
 654             	1046.0300   	0.009001    	VZ1.SAT.NBN.015 	;
 655             	1046.1600   	0.000000    	VZ1.SAT.NBN.015 	;
 656             	1016.0800   	0.146883    	VZ1.SAT.NBN.014 	;
 657             	1016.9100   	0.214331    	VZ1.SAT.NBN.014 	;
 658             	1045.0000   	0.061913    	VZ1.SAT.NBN.014 	;
 659             	1045.0000   	0.209807    	VZ1.SAT.NBN.014 	;
 660             	1045.0000   	0.045078    	VZ1.SAT.NBN.014 	;
 661             	1045.0000   	0.115197    	VZ1.SAT.NBN.014 	;
 662             	1026.1400   	0.054551    	VZ1.SAT.NBN.015 	;
 663             	1033.6400   	0.055333    	VZ1.SAT.NBN.015 	;
 664             	1031.8600   	0.014821    	VZ1.SAT.NBN.015 	;
 665             	1039.5800   	0.000000    	VZ1.SAT.NBN.015 	;
 666             	1040.0000   	0.053533    	VZ1.SAT.NBN.015 	;
 667             	1025.0000   	0.160763    	VZ1.SAT.NBN.015 	;
 668             	1025.0000   	0.000000    	VZ1.SAT.NBN.015 	;
 669             	1041.4800   	0.000000    	VZ1.SAT.NBN.015 	;
 670             	1041.7000   	0.032153    	VZ1.SAT.NBN.015 	;
 671             	1035.0000   	0.000000    	VZ1.SAT.NBN.015 	;
 672             	1035.4100   	0.011831    	VZ1.SAT.NBN.015 	;
 673             	1015.0400   	0.042411    	VZ1.SAT.NBN.014 	;
 674             	1026.6500   	0.162026    	VZ1.SAT.NBN.015 	;
 675             	1026.1700   	0.037712    	VZ1.SAT.NBN.015 	;
 676             	1021.6600   	0.000000    	VZ1.SAT.NBN.014 	;
 677             	1021.1600   	0.000000    	VZ1.SAT.NBN.014 	;
 678             	1018.8900   	0.047711    	VZ1.SAT.NBN.015 	;
 679             	1019.4700   	0.240472    	VZ1.SAT.NBN.015 	;
 680             	1022.9600   	0.017297    	VZ1.SAT.NBN.015 	;
 681             	1022.9600   	0.000000    	VZ1.SAT.NBN.015 	;
 682             	1040.0000   	0.057262    	VZ1.SAT.NBN.015 	;
 683             	1039.2100   	0.167124    	VZ1.SAT.NBN.015 	;
 684             	1041.2300   	0.011455    	VZ1.SAT.NBN.015 	;
 685             	1041.8300   	0.018055    	VZ1.SAT.NBN.015 	;
 686             	1030.5500   	0.018764    	VZ1.SAT.NBN.015 	;
 687             	1030.5500   	0.000000    	VZ1.SAT.NBN.015 	;
 688             	1048.8100   	0.073598    	VZ1.SAT.NBN.014 	;
 689             	1047.7600   	0.015338    	VZ1.SAT.NBN.014 	;
 690             	1043.3300   	0.015787    	VZ1.SAT.NBN.014 	;
 691             	1042.6100   	0.102499    	VZ1.SAT.NBN.014 	;
 692             	1038.7400   	0.143400    	VZ1.SAT.NBN.014 	;
 693             	1028.7700   	0.000000    	VZ1.SAT.NBN.015 	;
 694             	1028.7700   	0.000000    	VZ1.SAT.NBN.015 	;
 695             	1028.9100   	0.000000    	VZ1.SAT.NBN.015 	;
 696             	1038.2600   	0.000000    	VZ1.SAT.NBN.014 	;
 697             	1038.2600   	0.000000    	VZ1.SAT.NBN.014 	;
 698             	1037.9100   	0.039306    	VZ1.SAT.NBN.014 	;
 699             	1015.1800   	0.000000    	VZ1.SAT.NBN.015 	;
 700             	1014.7200   	0.067968    	VZ1.SAT.NBN.015 	;
 701             	1023.0000   	0.000000    	VZ1.SAT.NBN.015 	;
 702             	1022.9800   	0.000000    	VZ1.SAT.NBN.015 	;
 703             	1022.9800   	0.000000    	VZ1.SAT.NBN.015 	;
 704             	1023.2700   	0.000000    	VZ1.SAT.NBN.015 	;
 705             	1034.3500   	0.017291    	VZ1.SAT.NBN.015 	;
 706             	1034.7100   	0.000000    	VZ1.SAT.NBN.015 	;
 707             	1034.4600   	0.000000    	VZ1.SAT.NBN.015 	;
 708             	1040.0300   	0.054249    	VZ1.SAT.NBN.015 	;
 709             	1040.0300   	0.000000    	VZ1.SAT.NBN.015 	;
 710             	1040.0000   	0.958436    	VZ1.SAT.NBN.015 	;
 711             	1028.0800   	0.014435    	VZ1.SAT.NBN.015 	;
 712             	1030.7800   	0.000000    	VZ1.SAT.NBN.015 	;
 713             	1030.1100   	0.012185    	VZ1.SAT.NBN.015 	;
 714             	1045.0000   	0.077392    	VZ1.SAT.NBN.014 	;
 715             	1045.0000   	0.038697    	VZ1.SAT.NBN.014 	;
 716             	1045.0000   	0.027085    	VZ1.SAT.NBN.014 	;
 717             	1045.0000   	0.051426    	VZ1.SAT.NBN.014 	;
 718             	1045.0000   	0.000000    	VZ1.SAT.NBN.014 	;
 719             	1045.0000   	0.004528    	VZ1.SAT.NBN.014 	;
 720             	1045.0000   	0.000000    	VZ1.SAT.NBN.014 	;
 721             	1042.0900   	0.058001    	VZ1.SAT.NBN.014 	;
 722             	1041.5900   	0.000000    	VZ1.SAT.NBN.014 	;
 723             	1042.4500   	0.000000    	VZ1.SAT.NBN.014 	;
 724             	1049.0600   	0.000000    	VZ1.SAT.NBN.014 	;
 725             	1049.0600   	0.037378    	VZ1.SAT.NBN.014 	;
 726             	1047.5500   	0.000000    	VZ1.SAT.NBN.014 	;
 727             	1047.5500   	0.170392    	VZ1.SAT.NBN.014 	;
 728             	1045.3900   	0.091203    	VZ1.SAT.NBN.014 	;
 729             	1047.6100   	0.039196    	VZ1.SAT.NBN.014 	;
 730             	1042.4500   	0.014665    	VZ1.SAT.NBN.014 	;
 731             	1035.1100   	0.000000    	VZ1.SAT.NBN.014 	;
 732             	1034.3700   	0.070112    	VZ1.SAT.NBN.014 	;
 733             	1046.2600   	0.162012    	VZ1.SAT.NBN.014 	;
 734             	1045.2000   	0.049218    	VZ1.SAT.NBN.014 	;
 735             	1045.0000   	0.000000    	VZ1.SAT.NBN.014 	;
 736             	1026.9600   	0.000000    	VZ1.SAT.NBN.014 	;
 737             	1027.6200   	0.000000    	VZ1.SAT.NBN.014 	;
 738             	1030.6200   	0.001161    	VZ1.SAT.NBN.014 	;
 739             	1032.2000   	0.005533    	VZ1.SAT.NBN.014 	;
 740             	1035.7100   	0.000000    	VZ1.SAT.NBN.014 	;
 741             	1036.0600   	0.000000    	VZ1.SAT.NBN.014 	;
 742             	1036.0600   	0.026516    	VZ1.SAT.NBN.014 	;
 743             	1029.5200   	0.000000    	VZ1.SAT.NBN.014 	;
 744             	1028.8800   	0.026891    	VZ1.SAT.NBN.014 	;
 745             	1028.3100   	0.012962    	VZ1.SAT.NBN.014 	;
 746             	1026.7300   	0.015129    	VZ1.SAT.NBN.014 	;
 747             	1045.0000   	0.013117    	VZ1.SAT.NBN.014 	;
 748             	1045.0000   	0.002012    	VZ1.SAT.NBN.014 	;
 749             	1050.0000   	0.000109    	VZ1.SAT.NBN.015 	;
 750             	1050.0000   	0.000000    	VZ1.SAT.NBN.015 	;
 751             	1050.0000   	0.000218    	VZ1.SAT.NBN.015 	;
 752             	1046.7900   	0.000000    	VZ1.SAT.NBN.015 	;
 753             	1047.9000   	0.000000    	VZ1.SAT.NBN.015 	;
 754             	1049.9600   	0.000000    	VZ1.SAT.NBN.015 	;
 755             	1049.8400   	0.000000    	VZ1.SAT.NBN.015 	;
 756             	1038.1900   	0.013388    	VZ1.SAT.NBN.014 	;
 757             	1037.6900   	0.144149    	VZ1.SAT.NBN.014 	;
 758             	1047.6300   	0.000000    	VZ1.SAT.NBN.015 	;
 759             	1047.6100   	0.000000    	VZ1.SAT.NBN.015 	;
 760             	1047.6100   	0.028399    	VZ1.SAT.NBN.015 	;
 761             	1034.9500   	0.018872    	VZ1.SAT.NBN.015 	;
 762             	1035.0000   	0.047595    	VZ1.SAT.NBN.015 	;
 763             	1040.8700   	0.000000    	VZ1.SAT.NBN.015 	;
 764             	1034.3800   	0.047199    	VZ1.SAT.NBN.015 	;
 765             	1034.9700   	0.047132    	VZ1.SAT.NBN.015 	;
 766             	1023.2700   	0.005273    	VZ1.SAT.NBN.015 	;
 767             	1023.2700   	0.000000    	VZ1.SAT.NBN.015 	;
 768             	1048.3100   	0.000000    	VZ1.SAT.NBN.015 	;
 769             	1048.2600   	0.000000    	VZ1.SAT.NBN.015 	;
 770             	1048.0100   	0.000000    	VZ1.SAT.NBN.015 	;
 771             	1047.8500   	0.000000    	VZ1.SAT.NBN.015 	;
 772             	1035.3000   	0.000000    	VZ1.SAT.NBN.014 	;
 773             	1035.7900   	0.138258    	VZ1.SAT.NBN.014 	;
 774             	1034.4400   	0.000000    	VZ1.SAT.NBN.014 	;
 775             	1034.7200   	0.000000    	VZ1.SAT.NBN.014 	;
 776             	1034.7200   	0.042698    	VZ1.SAT.NBN.014 	;
 777             	1037.6100   	0.235425    	VZ1.SAT.NBN.014 	;
 778             	1034.3500   	0.103469    	VZ1.SAT.NBN.014 	;
 779             	1034.3500   	0.000000    	VZ1.SAT.NBN.014 	;
 780             	1031.7500   	0.000000    	VZ1.SAT.NBN.014 	;
 781             	1031.7500   	0.000000    	VZ1.SAT.NBN.014 	;
 782             	1023.3200   	0.000000    	VZ1.SAT.NBN.015 	;
 783             	1030.8900   	0.003542    	VZ1.SAT.NBN.015 	;
 784             	1032.3200   	0.036169    	VZ1.SAT.NBN.015 	;
 785             	1030.5900   	0.012656    	VZ1.SAT.NBN.015 	;
 786             	1038.4100   	0.041377    	VZ1.SAT.NBN.015 	;
 787             	1038.4100   	0.218987    	VZ1.SAT.NBN.015 	;
 788             	1015.9000   	0.191811    	VZ1.SAT.NBN.015 	;
 789             	1015.4600   	0.032153    	VZ1.SAT.NBN.015 	;
 790             	1021.1600   	0.000000    	VZ1.SAT.NBN.014 	;
 791             	1050.0000   	0.000000    	VZ1.SAT.NBN.015 	;
 792             	1050.0000   	0.000000    	VZ1.SAT.NBN.015 	;
 793             	1045.2000   	0.000000    	VZ1.SAT.NBN.014 	;
 794             	1035.0000   	0.000000    	VZ1.SAT.NBN.014 	;
 795             	1035.0000   	0.015865    	VZ1.SAT.NBN.014 	;
 796             	1042.0900   	0.021911    	VZ1.SAT.NBN.014 	;
 797             	1047.6100   	0.027008    	VZ1.SAT.NBN.014 	;
 798             	1035.3800   	0.000000    	VZ1.SAT.NBN.014 	;
 799             	1034.1600   	0.000000    	VZ1.SAT.NBN.014 	;
 800             	1027.4300   	0.073683    	VZ1.SAT.NBN.014 	;
 801             	1046.1400   	0.017142    	VZ1.SAT.NBN.014 	;
 802             	1046.1400   	0.000000    	VZ1.SAT.NBN.014 	;
 803             	1044.3900   	0.007894    	VZ1.SAT.NBN.014 	;
 804             	1044.3900   	0.000000    	VZ1.SAT.NBN.014 	;
 805             	1031.3800   	0.000000    	VZ1.SAT.NBN.015 	;
 806             	1031.3800   	0.027276    	VZ1.SAT.NBN.015 	;
 807             	1043.6000   	0.000000    	VZ1.SAT.NBN.014 	;
 808             	1021.9800   	0.000000    	VZ1.SAT.NBN.014 	;
 809             	1024.1600   	0.000000    	VZ1.SAT.NBN.014 	;
 810             	1040.3700   	0.101228    	VZ1.SAT.NBN.014 	;
 811             	1038.7600   	0.104556    	VZ1.SAT.NBN.014 	;
 812             	1045.0000   	0.074175    	VZ1.SAT.NBN.014 	;
 813             	1045.0000   	0.027124    	VZ1.SAT.NBN.014 	;
 814             	1045.0000   	0.074991    	VZ1.SAT.NBN.014 	;
 815             	1045.0000   	0.020276    	VZ1.SAT.NBN.014 	;
 816             	1045.0000   	0.211653    	VZ1.SAT.NBN.014 	;
 817             	1045.0000   	0.096082    	VZ1.SAT.NBN.014 	;
 818             	1045.0000   	0.000000    	VZ1.SAT.NBN.014 	;
 819             	1045.0000   	0.016483    	VZ1.SAT.NBN.014 	;
 820             	1045.0000   	0.000000    	VZ1.SAT.NBN.014 	;
 821             	1045.0000   	0.027627    	VZ1.SAT.NBN.014 	;
 822             	1044.2700   	0.065511    	VZ1.SAT.NBN.014 	;
 823             	1043.5600   	0.083684    	VZ1.SAT.NBN.014 	;
 824             	1042.1900   	0.146386    	VZ1.SAT.NBN.014 	;
 825             	1039.0400   	0.055486    	VZ1.SAT.NBN.014 	;
 826             	1039.5600   	0.203322    	VZ1.SAT.NBN.014 	;
 827             	1042.4500   	0.072169    	VZ1.SAT.NBN.014 	;
 828             	1048.3300   	0.000000    	VZ1.SAT.NBN.014 	;
 829             	1023.1800   	0.000000    	VZ1.SAT.NBN.014 	;
 830             	1023.5400   	0.085825    	VZ1.SAT.NBN.014 	;
 831             	1048.3300   	0.083539    	VZ1.SAT.NBN.014 	;
 832             	1046.2100   	0.000000    	VZ1.SAT.NBN.014 	;
 833             	1047.3600   	0.000000    	VZ1.SAT.NBN.014 	;
 834             	1047.3600   	0.112020    	VZ1.SAT.NBN.014 	;
 835             	1042.6700   	0.018340    	VZ1.SAT.NBN.014 	;
 836             	1035.0000   	0.000000    	VZ1.SAT.NBN.014 	;
 837             	1049.5800   	0.013392    	VZ1.SAT.NBN.015 	;
 838             	1049.8900   	0.013610    	VZ1.SAT.NBN.015 	;
 839             	1022.4200   	0.000000    	VZ1.SAT.NBN.014 	;
 840             	1032.1200   	0.091504    	VZ1.SAT.NBN.015 	;
 841             	1031.7900   	0.000000    	VZ1.SAT.NBN.015 	;
 842             	1034.3800   	0.000000    	VZ1.SAT.NBN.015 	;
 843             	1031.8600   	0.000000    	VZ1.SAT.NBN.015 	;
 844             	1034.3800   	0.000000    	VZ1.SAT.NBN.015 	;
 845             	1037.7600   	0.003183    	VZ1.SAT.NBN.014 	;
 846             	1045.5200   	0.106987    	VZ1.SAT.NBN.014 	;
 847             	1028.4400   	0.000000    	VZ1.SAT.NBN.014 	;
 848             	1028.4400   	0.086866    	VZ1.SAT.NBN.014 	;
 849             	1037        	0.000000    	VZ1.SAT.NBN.014 	;
 850             	1036.0200   	0.000000    	VZ1.SAT.NBN.014 	;
 851             	1041.7700   	0.018573    	VZ1.SAT.NBN.014 	;
 852             	1042.4200   	0.023177    	VZ1.SAT.NBN.014 	;
 853             	1042.6600   	0.023177    	VZ1.SAT.NBN.014 	;
 854             	1042.8900   	0.078481    	VZ1.SAT.NBN.014 	;
 855             	1043.9500   	0.090042    	VZ1.SAT.NBN.014 	;
 856             	1037.0400   	0.000000    	VZ1.SAT.NBN.014 	;
 857             	1029.8400   	0.005980    	VZ1.SAT.NBN.015 	;
 858             	1029.8400   	0.000000    	VZ1.SAT.NBN.015 	;
 859             	1029.6500   	0.000000    	VZ1.SAT.NBN.015 	;
 860             	1029.6500   	0.000000    	VZ1.SAT.NBN.015 	;
 861             	1028.6800   	0.021605    	VZ1.SAT.NBN.015 	;
 862             	1048.5000   	0.042144    	VZ1.SAT.NBN.015 	;
 863             	1043.3000   	0.023892    	VZ1.SAT.NBN.015 	;
 864             	1042.4500   	0.022228    	VZ1.SAT.NBN.015 	;
 865             	1042.6200   	0.025010    	VZ1.SAT.NBN.015 	;
 866             	1043.4600   	0.047185    	VZ1.SAT.NBN.015 	;
 867             	1043.5900   	0.027276    	VZ1.SAT.NBN.015 	;
 868             	1042.6900   	0.016474    	VZ1.SAT.NBN.015 	;
 869             	1043.9200   	0.000000    	VZ1.SAT.NBN.014 	;
 870             	1044.0100   	0.007330    	VZ1.SAT.NBN.014 	;
 871             	1018.4300   	0.000000    	VZ1.SAT.NBN.015 	;
 872             	1018.4300   	0.000000    	VZ1.SAT.NBN.015 	;
 873             	1040.1900   	0.000000    	VZ1.SAT.NBN.015 	;
 874             	1040.3300   	0.000000    	VZ1.SAT.NBN.015 	;
 875             	1038.1200   	0.150005    	VZ1.SAT.NBN.015 	;
 876             	1038.2800   	0.100837    	VZ1.SAT.NBN.015 	;
 877             	1044.8500   	0.000000    	VZ1.SAT.NBN.014 	;
 878             	1018.8300   	0.119115    	VZ1.SAT.NBN.014 	;
 879             	1018.6800   	0.028479    	VZ1.SAT.NBN.014 	;
 880             	1018.5700   	0.016483    	VZ1.SAT.NBN.014 	;
 881             	1019.8400   	0.035482    	VZ1.SAT.NBN.014 	;
 882             	1020.5100   	0.018070    	VZ1.SAT.NBN.014 	;
 883             	1020.1700   	0.113581    	VZ1.SAT.NBN.014 	;
 884             	1020.3500   	0.289781    	VZ1.SAT.NBN.014 	;
 885             	1020.1000   	0.060713    	VZ1.SAT.NBN.014 	;
 886             	1021.3200   	0.019308    	VZ1.SAT.NBN.014 	;
 887             	1028.1700   	0.000000    	VZ1.SAT.NBN.014 	;
 888             	1027.6200   	0.051113    	VZ1.SAT.NBN.014 	;
 889             	1020.8800   	0.000000    	VZ1.SAT.NBN.014 	;
 890             	1020.2400   	0.000000    	VZ1.SAT.NBN.014 	;
 891             	1026.1000   	0.026931    	VZ1.SAT.NBN.014 	;
 892             	1024.8600   	0.057730    	VZ1.SAT.NBN.014 	;
 893             	1021.5100   	0.028130    	VZ1.SAT.NBN.014 	;
 894             	1027.2000   	0.028130    	VZ1.SAT.NBN.014 	;
 895             	1024.8800   	0.062106    	VZ1.SAT.NBN.014 	;
 896             	1024.8800   	0.000000    	VZ1.SAT.NBN.014 	;
 897             	1028.8000   	0.023254    	VZ1.SAT.NBN.014 	;
 898             	1025.2400   	0.166232    	VZ1.SAT.NBN.014 	;
 899             	1026.9600   	0.307895    	VZ1.SAT.NBN.014 	;
 900             	1032.5200   	0.126337    	VZ1.SAT.NBN.014 	;
 901             	1033.3900   	0.021165    	VZ1.SAT.NBN.014 	;
 902             	1023.1800   	0.022365    	VZ1.SAT.NBN.014 	;
 903             	1020.5300   	0.082381    	VZ1.SAT.NBN.014 	;
 904             	1017.4300   	0.056186    	VZ1.SAT.NBN.014 	;
 905             	1022.6900   	0.187672    	VZ1.SAT.NBN.014 	;
 906             	1020.8800   	0.266853    	VZ1.SAT.NBN.014 	;
 907             	1024.8800   	0.022056    	VZ1.SAT.NBN.014 	;
 908             	1022.4500   	0.046161    	VZ1.SAT.NBN.014 	;
 909             	1022.9200   	0.068490    	VZ1.SAT.NBN.014 	;
 910             	1025.5800   	0.000000    	VZ1.SAT.NBN.014 	;
 911             	1023.2900   	0.211698    	VZ1.SAT.NBN.014 	;
 912             	1021.2400   	0.229643    	VZ1.SAT.NBN.014 	;
 913             	1022.8100   	0.143591    	VZ1.SAT.NBN.014 	;
 914             	1045.5800   	0.022016    	VZ1.SAT.NBN.014 	;
 915             	1045.7400   	0.000968    	VZ1.SAT.NBN.014 	;
 916             	1045.8500   	0.007545    	VZ1.SAT.NBN.014 	;
 917             	1046.1200   	0.111553    	VZ1.SAT.NBN.014 	;
 918             	1048.9400   	0.089459    	VZ1.SAT.NBN.014 	;
 919             	1045.0000   	0.000000    	VZ1.SAT.NBN.014 	;
 920             	1045.2500   	0.000000    	VZ1.SAT.NBN.014 	;
 921             	1045.6000   	0.081952    	VZ1.SAT.NBN.014 	;
 922             	1045.7700   	0.006539    	VZ1.SAT.NBN.014 	;
 923             	1045.9400   	0.000000    	VZ1.SAT.NBN.014 	;
 924             	1045.9400   	0.027279    	VZ1.SAT.NBN.014 	;
 925             	1046.1200   	0.002748    	VZ1.SAT.NBN.014 	;
 926             	1046.1200   	0.006539    	VZ1.SAT.NBN.014 	;
 927             	1046.2400   	0.000000    	VZ1.SAT.NBN.014 	;
 928             	1046.1300   	0.008048    	VZ1.SAT.NBN.014 	;
 929             	1046.1300   	0.000000    	VZ1.SAT.NBN.014 	;
 930             	1046.1400   	0.000000    	VZ1.SAT.NBN.014 	;
 931             	1046.1400   	0.004643    	VZ1.SAT.NBN.014 	;
 932             	1045.2400   	0.019694    	VZ1.SAT.NBN.014 	;
 933             	1035.8800   	0.123553    	VZ1.SAT.NBN.014 	;
 934             	1035.6800   	0.044723    	VZ1.SAT.NBN.014 	;
 935             	1037.0600   	0.025111    	VZ1.SAT.NBN.014 	;
 936             	1031.2200   	0.140535    	VZ1.SAT.NBN.014 	;
 937             	1032.9400   	0.015903    	VZ1.SAT.NBN.014 	;
 938             	1032.6600   	0.079518    	VZ1.SAT.NBN.014 	;
 939             	1022.2600   	0.053883    	VZ1.SAT.NBN.014 	;
 940             	1017.8400   	0.047632    	VZ1.SAT.NBN.014 	;
 941             	1023.2700   	0.074331    	VZ1.SAT.NBN.014 	;
 942             	1024.0200   	0.068761    	VZ1.SAT.NBN.014 	;
 943             	1021.0400   	0.138331    	VZ1.SAT.NBN.014 	;
 944             	1017.5000   	0.031728    	VZ1.SAT.NBN.014 	;
 945             	1021.7400   	0.037958    	VZ1.SAT.NBN.014 	;
 946             	1029.3300   	0.120459    	VZ1.SAT.NBN.014 	;
 947             	1026.4500   	0.027124    	VZ1.SAT.NBN.014 	;
 948             	1029.2000   	0.105443    	VZ1.SAT.NBN.014 	;
 949             	1022.8800   	0.124367    	VZ1.SAT.NBN.014 	;
 950             	1023.2500   	0.000000    	VZ1.SAT.NBN.014 	;
 951             	1021.5600   	0.050727    	VZ1.SAT.NBN.014 	;
 952             	1021.6900   	0.076458    	VZ1.SAT.NBN.014 	;
 953             	1025.8700   	0.189220    	VZ1.SAT.NBN.014 	;
 954             	1021.5500   	0.000000    	VZ1.SAT.NBN.014 	;
 955             	1025.8300   	0.138091    	VZ1.SAT.NBN.014 	;
 956             	1021.7200   	0.060248    	VZ1.SAT.NBN.014 	;
 957             	1025.5700   	0.151955    	VZ1.SAT.NBN.014 	;
 958             	1023.5600   	0.067133    	VZ1.SAT.NBN.014 	;
 959             	1025.9700   	0.043801    	VZ1.SAT.NBN.014 	;
 960             	1050.0000   	0.000000    	VZ1.SAT.NBN.015 	;
 961             	1021.5100   	0.000000    	VZ1.SAT.NBN.014 	;
 962             	1036.1300   	0.011670    	VZ1.SAT.NBN.015 	;
 963             	1036.1300   	0.000000    	VZ1.SAT.NBN.015 	;
 964             	1045.2800   	0.000000    	VZ1.SAT.NBN.015 	;
 965             	1045.2800   	0.022987    	VZ1.SAT.NBN.015 	;
 966             	1024.9700   	0.000000    	VZ1.SAT.NBN.014 	;
 967             	1036.3800   	0.180791    	VZ1.SAT.NBN.014 	;
 968             	1036.3800   	0.173763    	VZ1.SAT.NBN.014 	;
 969             	1036.0500   	0.060790    	VZ1.SAT.NBN.014 	;
 970             	1049.7100   	0.000000    	VZ1.SAT.NBN.014 	;
 971             	1049.7200   	0.000000    	VZ1.SAT.NBN.014 	;
 972             	1045.1300   	0.000000    	VZ1.SAT.NBN.015 	;
 973             	1044.8500   	0.000000    	VZ1.SAT.NBN.015 	;
 974             	1043.8700   	0.000000    	VZ1.SAT.NBN.015 	;
 975             	1033.6800   	0.086900    	VZ1.SAT.NBN.015 	;
 976             	1036.9200   	0.000000    	VZ1.SAT.NBN.015 	;
 977             	1034.3800   	0.022923    	VZ1.SAT.NBN.015 	;
 978             	1046.3000   	0.016418    	VZ1.SAT.NBN.015 	;
 979             	1045.4200   	0.014891    	VZ1.SAT.NBN.015 	;
 980             	1041.9700   	0.103482    	VZ1.SAT.NBN.015 	;
 981             	1045.7400   	0.014178    	VZ1.SAT.NBN.015 	;
 982             	1047.5600   	0.000000    	VZ1.SAT.NBN.015 	;
 983             	1029.8700   	0.017586    	VZ1.SAT.NBN.015 	;
 984             	1029.3400   	0.000000    	VZ1.SAT.NBN.015 	;
 985             	1020.7300   	0.022797    	VZ1.SAT.NBN.014 	;
 986             	1020.1200   	0.000000    	VZ1.SAT.NBN.014 	;
 987             	1020.1200   	0.000000    	VZ1.SAT.NBN.014 	;
 988             	1050.3700   	0.011445    	VZ1.SAT.NBN.015 	;
 989             	1050.6400   	0.000000    	VZ1.SAT.NBN.015 	;
 990             	1050.0000   	0.000000    	VZ1.SAT.NBN.015 	;
 991             	1040.3900   	0.000000    	VZ1.SAT.NBN.015 	;
 992             	1040.3900   	0.234382    	VZ1.SAT.NBN.015 	;
 993             	1036.6700   	0.000000    	VZ1.SAT.NBN.014 	;
 994             	1042.7000   	0.048173    	VZ1.SAT.NBN.014 	;
 995             	1042.7000   	0.000000    	VZ1.SAT.NBN.014 	;
 996             	1042.7000   	0.038697    	VZ1.SAT.NBN.014 	;
 997             	1041.6600   	0.000000    	VZ1.SAT.NBN.015 	;
 998             	1041.3400   	0.000000    	VZ1.SAT.NBN.015 	;
 999             	1041.3400   	0.000000    	VZ1.SAT.NBN.015 	;
 1000            	1041.1900   	0.000000    	VZ1.SAT.NBN.015 	;
 1001            	1041.1900   	0.002291    	VZ1.SAT.NBN.015 	;
 1002            	1033.6400   	0.000000    	VZ1.SAT.NBN.015 	;
 1003            	1049.3500   	0.014292    	VZ1.SAT.NBN.015 	;
 1004            	1049.1600   	0.000000    	VZ1.SAT.NBN.015 	;
 1005            	1032.5000   	0.136439    	VZ1.SAT.NBN.015 	;
 1006            	1034.9100   	0.095688    	VZ1.SAT.NBN.015 	;
 1007            	1031.7800   	0.066197    	VZ1.SAT.NBN.015 	;
 1008            	1030.0300   	0.159420    	VZ1.SAT.NBN.015 	;
 1009            	1027.9500   	0.000000    	VZ1.SAT.NBN.015 	;
 1010            	1026.8400   	0.005937    	VZ1.SAT.NBN.015 	;
 1011            	1025.7600   	0.013910    	VZ1.SAT.NBN.015 	;
 1012            	1050.0000   	0.141424    	VZ1.SAT.NBN.015 	;
 1013            	1050.0000   	0.034141    	VZ1.SAT.NBN.015 	;
 1014            	1040.1700   	0.067970    	VZ1.SAT.NBN.015 	;
 1015            	1044.9800   	0.036536    	VZ1.SAT.NBN.015 	;
 1016            	1045.2200   	0.089974    	VZ1.SAT.NBN.015 	;
 1017            	1047.3900   	0.022582    	VZ1.SAT.NBN.015 	;
 1018            	1047.0900   	0.059901    	VZ1.SAT.NBN.015 	;
 1019            	1035.1800   	0.021792    	VZ1.SAT.NBN.015 	;
 1020            	1040.8500   	0.031449    	VZ1.SAT.NBN.015 	;
 1021            	1044.8200   	0.003703    	VZ1.SAT.NBN.015 	;
 1022            	1045.2500   	0.077489    	VZ1.SAT.NBN.015 	;
 1023            	1045.6400   	0.148813    	VZ1.SAT.NBN.015 	;
 1024            	1047.1900   	0.092815    	VZ1.SAT.NBN.015 	;
 1025            	1048.2900   	0.027276    	VZ1.SAT.NBN.015 	;
 1026            	1049.4300   	0.007500    	VZ1.SAT.NBN.015 	;
 1027            	1050.0000   	0.085264    	VZ1.SAT.NBN.015 	;
 1028            	1048.6900   	0.039685    	VZ1.SAT.NBN.015 	;
 1029            	1050.0000   	0.035349    	VZ1.SAT.NBN.015 	;
 1030            	1047.3000   	0.054551    	VZ1.SAT.NBN.015 	;
 1031            	1028.0200   	0.000000    	VZ1.SAT.NBN.015 	;
 1032            	1028.6200   	0.016637    	VZ1.SAT.NBN.015 	;
 1033            	1031.3500   	0.027276    	VZ1.SAT.NBN.015 	;
 1034            	1038.4100   	0.000000    	VZ1.SAT.NBN.015 	;
 1035            	1037.4200   	0.000000    	VZ1.SAT.NBN.015 	;
 1036            	1036.7400   	0.000000    	VZ1.SAT.NBN.015 	;
 1037            	1033.1200   	0.047104    	VZ1.SAT.NBN.015 	;
 1038            	1034.6800   	0.054551    	VZ1.SAT.NBN.015 	;
 1039            	1049.6000   	0.033520    	VZ1.SAT.NBN.015 	;
 1040            	1041.3000   	0.000000    	VZ1.SAT.NBN.015 	;
 1041            	1041.0700   	0.000000    	VZ1.SAT.NBN.015 	;
 1042            	1040.9500   	0.000000    	VZ1.SAT.NBN.015 	;
 1043            	1036.6300   	0.086592    	VZ1.SAT.NBN.015 	;
 1044            	1036.6300   	0.000000    	VZ1.SAT.NBN.015 	;
 1045            	1037.5600   	0.000000    	VZ1.SAT.NBN.015 	;
 1046            	1036.6300   	0.000000    	VZ1.SAT.NBN.015 	;
 1047            	1047.0200   	0.030028    	VZ1.SAT.NBN.015 	;
 1048            	1050.0000   	0.000000    	VZ1.SAT.NBN.015 	;
 1049            	1050.0000   	0.000000    	VZ1.SAT.NBN.015 	;
 1050            	1050.0000   	0.002973    	VZ1.SAT.NBN.015 	;
 1051            	1050.0000   	0.015655    	VZ1.SAT.NBN.015 	;
 1052            	1050.0000   	0.111458    	VZ1.SAT.NBN.015 	;
 1053            	1050.0000   	0.000000    	VZ1.SAT.NBN.015 	;
 1054            	1050.0000   	0.000000    	VZ1.SAT.NBN.015 	;
 1055            	1050.0000   	0.001527    	VZ1.SAT.NBN.015 	;
 1056            	1049.2600   	0.000000    	VZ1.SAT.NBN.015 	;
 1057            	1049.2600   	0.073369    	VZ1.SAT.NBN.015 	;
 1058            	1050.0000   	0.000000    	VZ1.SAT.NBN.015 	;
 1059            	1049.3900   	0.000000    	VZ1.SAT.NBN.015 	;
 1060            	1049.5100   	0.000000    	VZ1.SAT.NBN.015 	;
 1061            	1049.8400   	0.000000    	VZ1.SAT.NBN.015 	;
 1062            	1049.8400   	0.000000    	VZ1.SAT.NBN.015 	;
 1063            	1049.9600   	0.000000    	VZ1.SAT.NBN.015 	;
 1064            	1050.0000   	0.000000    	VZ1.SAT.NBN.015 	;
 1065            	1050.0000   	0.000000    	VZ1.SAT.NBN.015 	;
 1066            	1050.0000   	0.000000    	VZ1.SAT.NBN.015 	;
 1067            	1050.0000   	0.000000    	VZ1.SAT.NBN.015 	;
 1068            	1050.0000   	0.000000    	VZ1.SAT.NBN.015 	;
 1069            	1050.0000   	0.000000    	VZ1.SAT.NBN.015 	;
 1070            	1048.3100   	0.000000    	VZ1.SAT.NBN.015 	;
 1071            	1048.3100   	0.027276    	VZ1.SAT.NBN.015 	;
 1072            	1048.6000   	0.000000    	VZ1.SAT.NBN.015 	;
 1073            	1048.6500   	0.000000    	VZ1.SAT.NBN.015 	;
 1074            	1048.9500   	0.000000    	VZ1.SAT.NBN.015 	;
 1075            	1049.0600   	0.000000    	VZ1.SAT.NBN.015 	;
 1076            	1050.0000   	0.000000    	VZ1.SAT.NBN.015 	;
 1077            	1040.4000   	0.000000    	VZ1.SAT.NBN.015 	;
 1078            	1040.0000   	0.027276    	VZ1.SAT.NBN.015 	;
 1079            	1045.9700   	0.080828    	VZ1.SAT.NBN.015 	;
 1080            	1050.0000   	0.041374    	VZ1.SAT.NBN.015 	;
 1081            	1050.0000   	0.000000    	VZ1.SAT.NBN.015 	;
 1082            	1050.0000   	0.000000    	VZ1.SAT.NBN.015 	;
 1083            	1050.0000   	0.000000    	VZ1.SAT.NBN.015 	;
 1084            	1050.0000   	0.012355    	VZ1.SAT.NBN.015 	;
 1085            	1050.0000   	0.084848    	VZ1.SAT.NBN.015 	;
 1086            	1050.0000   	0.004004    	VZ1.SAT.NBN.015 	;
 1087            	1050.0000   	0.004691    	VZ1.SAT.NBN.015 	;
 1088            	1050.0000   	0.071696    	VZ1.SAT.NBN.015 	;
 1089            	1050.0000   	0.041563    	VZ1.SAT.NBN.015 	;
 1090            	1050.0000   	0.007010    	VZ1.SAT.NBN.015 	;
 1091            	1050.0000   	0.048056    	VZ1.SAT.NBN.015 	;
 1092            	1050.0000   	0.031965    	VZ1.SAT.NBN.015 	;
 1093            	1050.0000   	0.005296    	VZ1.SAT.NBN.015 	;
 1094            	1050.0000   	0.026319    	VZ1.SAT.NBN.015 	;
 1095            	1050.0000   	0.010025    	VZ1.SAT.NBN.015 	;
 1096            	1050.0000   	0.051194    	VZ1.SAT.NBN.015 	;
 1097            	1050.0000   	0.057933    	VZ1.SAT.NBN.015 	;
 1098            	1050.0000   	0.081827    	VZ1.SAT.NBN.015 	;
 1099            	1025.0000   	0.000000    	VZ1.SAT.NBN.015 	;
 1100            	1025.0000   	0.000000    	VZ1.SAT.NBN.015 	;
 1101            	1027.2400   	0.032153    	VZ1.SAT.NBN.015 	;
 1102            	1025.0000   	0.000000    	VZ1.SAT.NBN.015 	;
 1103            	1029.3900   	0.464356    	VZ1.SAT.NBN.015 	;
 1104            	1029.6400   	0.000000    	VZ1.SAT.NBN.015 	;
 1105            	1028.4800   	0.168474    	VZ1.SAT.NBN.015 	;
 1106            	1030.6200   	0.040546    	VZ1.SAT.NBN.015 	;
 1107            	1032.8000   	0.112346    	VZ1.SAT.NBN.015 	;
 1108            	1035.5300   	0.054551    	VZ1.SAT.NBN.015 	;
 1109            	1036.8900   	0.000000    	VZ1.SAT.NBN.015 	;
 1110            	1037.1700   	0.021300    	VZ1.SAT.NBN.015 	;
 1111            	1036.1300   	0.081827    	VZ1.SAT.NBN.015 	;
 1112            	1035.0000   	0.109185    	VZ1.SAT.NBN.015 	;
 1113            	1029.8000   	0.000000    	VZ1.SAT.NBN.015 	;
 1114            	1029.7800   	0.000000    	VZ1.SAT.NBN.015 	;
 1115            	1029.7800   	0.027276    	VZ1.SAT.NBN.015 	;
 1116            	1029.8400   	0.005564    	VZ1.SAT.NBN.015 	;
 1117            	1030.0000   	0.001827    	VZ1.SAT.NBN.015 	;
 1118            	1029.9100   	0.027276    	VZ1.SAT.NBN.015 	;
 1119            	1030.0000   	0.000000    	VZ1.SAT.NBN.015 	;
 1120            	1030.0000   	0.000000    	VZ1.SAT.NBN.015 	;
 1121            	1030.0000   	0.000000    	VZ1.SAT.NBN.015 	;
 1122            	1030.5100   	0.000000    	VZ1.SAT.NBN.015 	;
 1123            	1031.1800   	0.120086    	VZ1.SAT.NBN.015 	;
 1124            	1031.4300   	0.115422    	VZ1.SAT.NBN.015 	;
 1125            	1031.2100   	0.000000    	VZ1.SAT.NBN.015 	;
 1126            	1031.6800   	0.000000    	VZ1.SAT.NBN.015 	;
 1127            	1031.3700   	0.049175    	VZ1.SAT.NBN.015 	;
 1128            	1031.3400   	0.123904    	VZ1.SAT.NBN.015 	;
 1129            	1031.2300   	0.004063    	VZ1.SAT.NBN.015 	;
 1130            	1031.1400   	0.000000    	VZ1.SAT.NBN.015 	;
 1131            	1031.4200   	0.000000    	VZ1.SAT.NBN.015 	;
 1132            	1031.1100   	0.000000    	VZ1.SAT.NBN.015 	;
 1133            	1031.1200   	0.000000    	VZ1.SAT.NBN.015 	;
 1134            	1031.5300   	0.057659    	VZ1.SAT.NBN.015 	;
 1135            	1035.5500   	0.148833    	VZ1.SAT.NBN.015 	;
 1136            	1035.9800   	0.000000    	VZ1.SAT.NBN.015 	;
 1137            	1033.7800   	0.147992    	VZ1.SAT.NBN.015 	;
 1138            	1030.3100   	0.132866    	VZ1.SAT.NBN.015 	;
 1139            	1038.1300   	0.205803    	VZ1.SAT.NBN.015 	;
 1140            	1032.8300   	0.283676    	VZ1.SAT.NBN.015 	;
 1141            	1036.1500   	0.166961    	VZ1.SAT.NBN.015 	;
 1142            	1031.8200   	0.057841    	VZ1.SAT.NBN.015 	;
 1143            	1034.4500   	0.111213    	VZ1.SAT.NBN.015 	;
 1144            	1032.3500   	0.139794    	VZ1.SAT.NBN.015 	;
 1145            	1036.6500   	0.034013    	VZ1.SAT.NBN.015 	;
 1146            	1037.2600   	0.000000    	VZ1.SAT.NBN.015 	;
 1147            	1034.0500   	0.000000    	VZ1.SAT.NBN.015 	;
 1148            	1039.1900   	0.000000    	VZ1.SAT.NBN.015 	;
 1149            	1031.9600   	0.044177    	VZ1.SAT.NBN.015 	;
 1150            	1052.3600   	0.051732    	VZ1.SAT.NBN.015 	;
 1151            	1051.3000   	0.062912    	VZ1.SAT.NBN.015 	;
 1152            	1051.3300   	0.022923    	VZ1.SAT.NBN.015 	;
 1153            	1051.9500   	0.020866    	VZ1.SAT.NBN.015 	;
 1154            	1051.9700   	0.032153    	VZ1.SAT.NBN.015 	;
 1155            	1031.7900   	0.000000    	VZ1.SAT.NBN.015 	;
 1156            	1025.0000   	0.032153    	VZ1.SAT.NBN.015 	;
 1157            	1025.0000   	0.032153    	VZ1.SAT.NBN.015 	;
 1158            	1051.0400   	0.023920    	VZ1.SAT.NBN.015 	;
 1159            	1051.8600   	0.002701    	VZ1.SAT.NBN.015 	;
 1160            	1047.7200   	0.031700    	VZ1.SAT.NBN.015 	;
 1161            	1048.0300   	0.024756    	VZ1.SAT.NBN.015 	;
 1162            	1048.0800   	0.000000    	VZ1.SAT.NBN.015 	;
 1163            	1047.2500   	0.084686    	VZ1.SAT.NBN.015 	;
 1164            	1047.2500   	0.175580    	VZ1.SAT.NBN.015 	;
 1165            	1046.5300   	0.183489    	VZ1.SAT.NBN.015 	;
 1166            	1030.8900   	0.022987    	VZ1.SAT.NBN.015 	;
 1167            	1027.9700   	0.000000    	VZ1.SAT.NBN.015 	;
 1168            	1034.8100   	0.000000    	VZ1.SAT.NBN.015 	;
 1169            	1034.3600   	0.016750    	VZ1.SAT.NBN.015 	;
 1170            	1044.9000   	0.000000    	VZ1.SAT.NBN.015 	;
 1171            	1044.9000   	0.000000    	VZ1.SAT.NBN.015 	;
 1172            	1049.4000   	0.018744    	VZ1.SAT.NBN.015 	;
 1173            	1024.9000   	0.000000    	VZ1.SAT.NBN.015 	;
 1174            	1023.9600   	0.000000    	VZ1.SAT.NBN.015 	;
 1175            	1031.8500   	0.006655    	VZ1.SAT.NBN.015 	;
 1176            	1041.7700   	0.003858    	VZ1.SAT.NBN.015 	;
 1177            	1043.8200   	0.000000    	VZ1.SAT.NBN.015 	;
 1178            	1043.8200   	0.025206    	VZ1.SAT.NBN.015 	;
 1179            	1044.6700   	0.096777    	VZ1.SAT.NBN.015 	;
 1180            	1043.6100   	0.094682    	VZ1.SAT.NBN.015 	;
 1181            	1050.8700   	0.009677    	VZ1.SAT.NBN.015 	;
 1182            	1050.0000   	0.060859    	VZ1.SAT.NBN.015 	;
 1183            	1049.6500   	0.000000    	VZ1.SAT.NBN.015 	;
 1184            	1042.1400   	0.020448    	VZ1.SAT.NBN.015 	;
 1185            	1035.6300   	0.009774    	VZ1.SAT.NBN.015 	;
 1186            	1042.9900   	0.005401    	VZ1.SAT.NBN.015 	;
 1187            	1044.2200   	0.000000    	VZ1.SAT.NBN.015 	;
 1188            	1048.5500   	0.017618    	VZ1.SAT.NBN.015 	;
 1189            	1049.2500   	0.060606    	VZ1.SAT.NBN.015 	;
 1190            	1051.9300   	0.005240    	VZ1.SAT.NBN.015 	;
 1191            	1051.9800   	0.024691    	VZ1.SAT.NBN.015 	;
 1192            	1051.3600   	0.009227    	VZ1.SAT.NBN.015 	;
 1193            	1050.2000   	0.000000    	VZ1.SAT.NBN.015 	;
 1194            	1050.0800   	0.050862    	VZ1.SAT.NBN.015 	;
 1195            	1049.8200   	0.027103    	VZ1.SAT.NBN.015 	;
 1196            	1036.6400   	0.032153    	VZ1.SAT.NBN.015 	;
 1197            	1036.4200   	0.007137    	VZ1.SAT.NBN.015 	;
 1198            	1036.4900   	0.057198    	VZ1.SAT.NBN.015 	;
 1199            	1035.1200   	0.000000    	VZ1.SAT.NBN.015 	;
 1200            	1034.5600   	0.156140    	VZ1.SAT.NBN.015 	;
 1201            	1034.1600   	0.000000    	VZ1.SAT.NBN.015 	;
 1202            	1041.7700   	0.013825    	VZ1.SAT.NBN.015 	;
 1203            	1050.2000   	0.007716    	VZ1.SAT.NBN.015 	;
 1204            	1038.2200   	0.006237    	VZ1.SAT.NBN.015 	;
 1205            	1043.7200   	0.099119    	VZ1.SAT.NBN.015 	;
 1206            	1043.7200   	0.005401    	VZ1.SAT.NBN.015 	;
 1207            	1043.4500   	0.093742    	VZ1.SAT.NBN.015 	;
 1208            	1042.0600   	0.048871    	VZ1.SAT.NBN.015 	;
 1209            	1035.2500   	0.020319    	VZ1.SAT.NBN.015 	;
 1210            	1041.0400   	0.098105    	VZ1.SAT.NBN.015 	;
 1211            	1041.2900   	0.000000    	VZ1.SAT.NBN.015 	;
 1212            	1032.2500   	0.072021    	VZ1.SAT.NBN.015 	;
 1213            	1031.5800   	0.059982    	VZ1.SAT.NBN.015 	;
 1214            	1034.3300   	0.043306    	VZ1.SAT.NBN.015 	;
 1215            	1030.8100   	0.007298    	VZ1.SAT.NBN.015 	;
 1216            	1032.2100   	0.010995    	VZ1.SAT.NBN.015 	;
 1217            	1031.3300   	0.009847    	VZ1.SAT.NBN.015 	;
 1218            	1029.1300   	0.022280    	VZ1.SAT.NBN.015 	;
 1219            	1028.7800   	0.041573    	VZ1.SAT.NBN.015 	;
 1220            	1029.4900   	0.056040    	VZ1.SAT.NBN.015 	;
 1221            	1031.9600   	0.012121    	VZ1.SAT.NBN.015 	;
 1222            	1035.1200   	0.000000    	VZ1.SAT.NBN.015 	;
 1223            	1033.8600   	0.013278    	VZ1.SAT.NBN.015 	;
 1224            	1033.8300   	0.035657    	VZ1.SAT.NBN.015 	;
 1225            	1031.6100   	0.052855    	VZ1.SAT.NBN.015 	;
 1226            	1029.8800   	0.052887    	VZ1.SAT.NBN.015 	;
 1227            	1035.0000   	0.112466    	VZ1.SAT.NBN.015 	;
 1228            	1035.0000   	0.008648    	VZ1.SAT.NBN.015 	;
 1229            	1035.0000   	0.002443    	VZ1.SAT.NBN.015 	;
 1230            	1032.9000   	0.023566    	VZ1.SAT.NBN.015 	;
 1231            	1035.7400   	0.018936    	VZ1.SAT.NBN.015 	;
 1232            	1034.4800   	0.000000    	VZ1.SAT.NBN.015 	;
 1233            	1035.0000   	0.040962    	VZ1.SAT.NBN.015 	;
 1234            	1039.7000   	0.055802    	VZ1.SAT.NBN.015 	;
 1235            	1045.0500   	0.042891    	VZ1.SAT.NBN.015 	;
 1236            	1047.3400   	0.081340    	VZ1.SAT.NBN.015 	;
 1237            	1048.5200   	0.000000    	VZ1.SAT.NBN.015 	;
 1238            	1040.0000   	0.053268    	VZ1.SAT.NBN.015 	;
 1239            	1040.0000   	0.000000    	VZ1.SAT.NBN.015 	;
 1240            	1040.0000   	0.000000    	VZ1.SAT.NBN.015 	;
 1241            	1040.0000   	0.000000    	VZ1.SAT.NBN.015 	;
 1242            	1040.0000   	0.030737    	VZ1.SAT.NBN.015 	;
 1243            	1040.0000   	0.053626    	VZ1.SAT.NBN.015 	;
 1244            	1040.0000   	0.054551    	VZ1.SAT.NBN.015 	;
 1245            	1040.0000   	0.000000    	VZ1.SAT.NBN.015 	;
 1246            	1040.0000   	0.060902    	VZ1.SAT.NBN.015 	;
 1247            	1030.0400   	0.000000    	VZ1.SAT.NBN.015 	;
 1248            	1028.8800   	0.000000    	VZ1.SAT.NBN.015 	;
 1249            	1030.0400   	0.000000    	VZ1.SAT.NBN.015 	;
 1250            	1039.0800   	0.000000    	VZ1.SAT.NBN.015 	;
 1251            	1037.6600   	0.000000    	VZ1.SAT.NBN.015 	;
 1252            	1037.6600   	0.000000    	VZ1.SAT.NBN.015 	;
 1253            	1040.0000   	0.211215    	VZ1.SAT.NBN.015 	;
 1254            	1040.0000   	0.080311    	VZ1.SAT.NBN.015 	;
 1255            	1040.0000   	0.169770    	VZ1.SAT.NBN.015 	;
 1256            	1038.1800   	0.031885    	VZ1.SAT.NBN.015 	;
 1257            	1040.0000   	0.069866    	VZ1.SAT.NBN.015 	;
 1258            	1023.7700   	0.053241    	VZ1.SAT.NBN.015 	;
 1259            	1023.7200   	0.035753    	VZ1.SAT.NBN.015 	;
 1260            	1029.6700   	0.024098    	VZ1.SAT.NBN.015 	;
 1261            	1030.3300   	0.000000    	VZ1.SAT.NBN.015 	;
 1262            	1030.3800   	0.000000    	VZ1.SAT.NBN.015 	;
 1263            	1030.3300   	0.000000    	VZ1.SAT.NBN.015 	;
 1264            	1034.7400   	0.154380    	VZ1.SAT.NBN.015 	;
 1265            	1031.8700   	0.056949    	VZ1.SAT.NBN.015 	;
 1266            	1034.7400   	0.100671    	VZ1.SAT.NBN.015 	;
 1267            	1031.8700   	0.108390    	VZ1.SAT.NBN.015 	;
 1268            	1037.5500   	0.000000    	VZ1.SAT.NBN.015 	;
 1269            	1037.3500   	0.059947    	VZ1.SAT.NBN.015 	;
 1270            	1037.6600   	0.000000    	VZ1.SAT.NBN.015 	;
 1271            	1040.0000   	0.000000    	VZ1.SAT.NBN.015 	;
 1272            	1040.0000   	0.032796    	VZ1.SAT.NBN.015 	;
 1273            	1040.0000   	0.000000    	VZ1.SAT.NBN.015 	;
 1274            	1033.5400   	0.021039    	VZ1.SAT.NBN.015 	;
 1275            	1037.4800   	0.012628    	VZ1.SAT.NBN.015 	;
 1276            	1037.8900   	0.065497    	VZ1.SAT.NBN.015 	;
 1277            	1040.0000   	0.054551    	VZ1.SAT.NBN.015 	;
 1278            	1040.0000   	0.112974    	VZ1.SAT.NBN.015 	;
 1279            	1023.7200   	0.092501    	VZ1.SAT.NBN.015 	;
 1280            	1023.7100   	0.000000    	VZ1.SAT.NBN.015 	;
 1281            	1030.1500   	0.028485    	VZ1.SAT.NBN.015 	;
 1282            	1029.6400   	0.059866    	VZ1.SAT.NBN.015 	;
 1283            	1032.1200   	0.236653    	VZ1.SAT.NBN.015 	;
 1284            	1037.5500   	0.180387    	VZ1.SAT.NBN.015 	;
 1285            	1032.7300   	0.159128    	VZ1.SAT.NBN.015 	;
 1286            	1038.2400   	0.027276    	VZ1.SAT.NBN.015 	;
 1287            	1032.3900   	0.000000    	VZ1.SAT.NBN.015 	;
 1288            	1032.4600   	0.014555    	VZ1.SAT.NBN.015 	;
 1289            	1036.9300   	0.125765    	VZ1.SAT.NBN.015 	;
 1290            	1036.1500   	0.012436    	VZ1.SAT.NBN.015 	;
 1291            	1032.0300   	0.131569    	VZ1.SAT.NBN.015 	;
 1292            	1033.9600   	0.024628    	VZ1.SAT.NBN.015 	;
 1293            	1038.4800   	0.000000    	VZ1.SAT.NBN.015 	;
 1294            	1023.1300   	0.027276    	VZ1.SAT.NBN.015 	;
 1295            	1040.0000   	0.027276    	VZ1.SAT.NBN.015 	;
 1296            	1040.0000   	0.000000    	VZ1.SAT.NBN.015 	;
 1297            	1023.7600   	0.027276    	VZ1.SAT.NBN.015 	;
 1298            	1023.8700   	0.000000    	VZ1.SAT.NBN.015 	;
 1299            	1023.4700   	0.000000    	VZ1.SAT.NBN.015 	;
 1300            	1023.6000   	0.039030    	VZ1.SAT.NBN.015 	;
 1301            	1023.2200   	0.027276    	VZ1.SAT.NBN.015 	;
 1302            	1023.3800   	0.003600    	VZ1.SAT.NBN.015 	;
 1303            	1022.9900   	0.056583    	VZ1.SAT.NBN.015 	;
 1304            	1023.2100   	0.071516    	VZ1.SAT.NBN.015 	;
 1305            	1023.4000   	0.027276    	VZ1.SAT.NBN.015 	;
 1306            	1032.3600   	0.019991    	VZ1.SAT.NBN.015 	;
 1307            	1024.7100   	0.137685    	VZ1.SAT.NBN.015 	;
 1308            	1016.7200   	0.029163    	VZ1.SAT.NBN.015 	;
 1309            	1017.3200   	0.000000    	VZ1.SAT.NBN.015 	;
 1310            	1020.4200   	0.056938    	VZ1.SAT.NBN.015 	;
 1311            	1018.4300   	0.011092    	VZ1.SAT.NBN.015 	;
 1312            	1020.3100   	0.042663    	VZ1.SAT.NBN.015 	;
 1313            	1018.4900   	0.096263    	VZ1.SAT.NBN.015 	;
 1314            	1018.8900   	0.032831    	VZ1.SAT.NBN.015 	;
 1315            	1018.2900   	0.071422    	VZ1.SAT.NBN.015 	;
 1316            	1019.1300   	0.055044    	VZ1.SAT.NBN.015 	;
 1317            	1018.4100   	0.029610    	VZ1.SAT.NBN.015 	;
 1318            	1020.1100   	0.068228    	VZ1.SAT.NBN.015 	;
 1319            	1019.6500   	0.028453    	VZ1.SAT.NBN.015 	;
 1320            	1022.6700   	0.079244    	VZ1.SAT.NBN.015 	;
 1321            	1020.8000   	0.034883    	VZ1.SAT.NBN.015 	;
 1322            	1018.2900   	0.061602    	VZ1.SAT.NBN.015 	;
 1323            	1017.3200   	0.007427    	VZ1.SAT.NBN.015 	;
 1324            	1017.3600   	0.032407    	VZ1.SAT.NBN.015 	;
 1325            	1017.1400   	0.015304    	VZ1.SAT.NBN.015 	;
 1326            	1016.6400   	0.018036    	VZ1.SAT.NBN.015 	;
 1327            	1015.8900   	0.155832    	VZ1.SAT.NBN.015 	;
 1328            	1023.6200   	0.000000    	VZ1.SAT.NBN.015 	;
 1329            	1026.3300   	0.037311    	VZ1.SAT.NBN.015 	;
 1330            	1026.3300   	0.000000    	VZ1.SAT.NBN.015 	;
 1331            	1015.8100   	0.000000    	VZ1.SAT.NBN.015 	;
 1332            	1025.0200   	0.106682    	VZ1.SAT.NBN.015 	;
 1333            	1021.4100   	0.770962    	VZ1.SAT.NBN.015 	;
 1334            	1026.2900   	0.072115    	VZ1.SAT.NBN.015 	;
 1335            	1026.2600   	0.006419    	VZ1.SAT.NBN.015 	;
 1336            	1021.2500   	0.059831    	VZ1.SAT.NBN.015 	;
 1337            	1021.5400   	0.170888    	VZ1.SAT.NBN.015 	;
 1338            	1016.0200   	0.516193    	VZ1.SAT.NBN.015 	;
 1339            	1020.0000   	0.064043    	VZ1.SAT.NBN.015 	;
 1340            	1025.0000   	0.200023    	VZ1.SAT.NBN.015 	;
 1341            	1026.3600   	0.000000    	VZ1.SAT.NBN.015 	;
 1342            	1025.0000   	0.220336    	VZ1.SAT.NBN.015 	;
 1343            	1025.5400   	0.000000    	VZ1.SAT.NBN.015 	;
 1344            	1025.8600   	0.032153    	VZ1.SAT.NBN.015 	;
 1345            	1022.0500   	0.103269    	VZ1.SAT.NBN.015 	;
 1346            	1023.1300   	0.277922    	VZ1.SAT.NBN.015 	;
 1347            	1022.9000   	0.231489    	VZ1.SAT.NBN.015 	;
 1348            	1019.1300   	0.010481    	VZ1.SAT.NBN.015 	;
 1349            	1021.3800   	0.030832    	VZ1.SAT.NBN.015 	;
 1350            	1021.1200   	0.090990    	VZ1.SAT.NBN.015 	;
 1351            	1019.6300   	0.064303    	VZ1.SAT.NBN.015 	;
 1352            	1024.0700   	0.033115    	VZ1.SAT.NBN.015 	;
 1353            	1024.6400   	0.214637    	VZ1.SAT.NBN.015 	;
 1354            	1018.1500   	0.241455    	VZ1.SAT.NBN.015 	;
 1355            	1017.9900   	0.262059    	VZ1.SAT.NBN.015 	;
 1356            	1040.0000   	0.335205    	VZ1.SAT.NBN.015 	;
 1357            	1040.5100   	0.000000    	VZ1.SAT.NBN.015 	;
 1358            	1040.7100   	0.027276    	VZ1.SAT.NBN.015 	;
 1359            	1040.3600   	0.433867    	VZ1.SAT.NBN.015 	;
 1360            	1040.1100   	0.191356    	VZ1.SAT.NBN.015 	;
 1361            	1040.6500   	0.258039    	VZ1.SAT.NBN.015 	;
 1362            	1034.7000   	0.211635    	VZ1.SAT.NBN.015 	;
 1363            	1033.1200   	0.141540    	VZ1.SAT.NBN.015 	;
 1364            	1032.8600   	0.078825    	VZ1.SAT.NBN.015 	;
 1365            	1035.0000   	0.168104    	VZ1.SAT.NBN.015 	;
 1366            	1035.9300   	0.039549    	VZ1.SAT.NBN.015 	;
 1367            	1036.3100   	0.004364    	VZ1.SAT.NBN.015 	;
 1368            	1037.9600   	1.250664    	VZ1.SAT.NBN.015 	;
 1369            	1040.0000   	0.000000    	VZ1.SAT.NBN.015 	;
 1370            	1029.3900   	0.290077    	VZ1.SAT.NBN.015 	;
 1371            	1029.4800   	0.014815    	VZ1.SAT.NBN.015 	;
 1372            	1027.5900   	0.199501    	VZ1.SAT.NBN.015 	;
 1373            	1034.3900   	0.000000    	VZ1.SAT.NBN.015 	;
 1374            	1036.2200   	0.989228    	VZ1.SAT.NBN.015 	;
 1375            	1036.4000   	0.192916    	VZ1.SAT.NBN.015 	;
 1376            	1036.0700   	0.388617    	VZ1.SAT.NBN.015 	;
 1377            	1036.6400   	0.337188    	VZ1.SAT.NBN.015 	;
 1378            	1036.6400   	0.000000    	VZ1.SAT.NBN.015 	;
 1379            	1037.8000   	0.481424    	VZ1.SAT.NBN.015 	;
 1380            	1040.0000   	0.054551    	VZ1.SAT.NBN.015 	;
 1381            	1040.0000   	0.031094    	VZ1.SAT.NBN.015 	;
 1382            	1031.8000   	0.119140    	VZ1.SAT.NBN.015 	;
 1383            	1032.6100   	0.056979    	VZ1.SAT.NBN.015 	;
 1384            	1035.0000   	0.159165    	VZ1.SAT.NBN.015 	;
 1385            	1036.6400   	0.230532    	VZ1.SAT.NBN.015 	;
 1386            	1030.2600   	0.081600    	VZ1.SAT.NBN.015 	;
 1387            	1029.4800   	0.000000    	VZ1.SAT.NBN.015 	;
 1388            	1030.8800   	0.302732    	VZ1.SAT.NBN.015 	;
 1389            	1040.0000   	0.017747    	VZ1.SAT.NBN.015 	;
 1390            	1040.5100   	0.014069    	VZ1.SAT.NBN.015 	;
 1391            	1040.5000   	0.009420    	VZ1.SAT.NBN.015 	;
 1392            	1040.0000   	0.043084    	VZ1.SAT.NBN.015 	;
 1393            	1040.0000   	0.027746    	VZ1.SAT.NBN.015 	;
 1394            	1040.0100   	0.011992    	VZ1.SAT.NBN.015 	;
 1395            	1040.0000   	0.049321    	VZ1.SAT.NBN.015 	;
 1396            	1037.9400   	0.050607    	VZ1.SAT.NBN.015 	;
 1397            	1030.8200   	0.322329    	VZ1.SAT.NBN.015 	;
 1398            	1029.2600   	0.221428    	VZ1.SAT.NBN.015 	;
 1399            	1040.0000   	0.224228    	VZ1.SAT.NBN.015 	;
 1400            	1040.0000   	0.568347    	VZ1.SAT.NBN.015 	;
 1401            	1040.2900   	0.000000    	VZ1.SAT.NBN.015 	;
 1402            	1040.0000   	0.033342    	VZ1.SAT.NBN.015 	;
 1403            	1040.0000   	0.000000    	VZ1.SAT.NBN.015 	;
 1404            	1040.0000   	0.064305    	VZ1.SAT.NBN.015 	;
 1405            	1028.7300   	0.280723    	VZ1.SAT.NBN.015 	;
 1406            	1024.0400   	0.000000    	VZ1.SAT.NBN.015 	;
 1407            	1030.8200   	0.102690    	VZ1.SAT.NBN.015 	;
 1408            	1030.6600   	0.000000    	VZ1.SAT.NBN.015 	;
 1409            	1020.5800   	0.008754    	VZ1.SAT.NBN.015 	;
 1410            	1022.5800   	0.046333    	VZ1.SAT.NBN.015 	;
 1411            	1024.5800   	0.045071    	VZ1.SAT.NBN.015 	;
 1412            	1022.5100   	0.027103    	VZ1.SAT.NBN.015 	;
 1413            	1031.2400   	0.409973    	VZ1.SAT.NBN.015 	;
 1414            	1024.8100   	0.125262    	VZ1.SAT.NBN.015 	;
 1415            	1041.9600   	0.019265    	VZ1.SAT.NBN.015 	;
 1416            	1041.7000   	0.000000    	VZ1.SAT.NBN.015 	;
 1417            	1044.3300   	0.002863    	VZ1.SAT.NBN.014 	;
 1418            	1044.3300   	0.000000    	VZ1.SAT.NBN.014 	;
 1419            	1025.7800   	0.081102    	VZ1.SAT.NBN.014 	;
 1420            	1023.3200   	0.286527    	VZ1.SAT.NBN.014 	;
 1421            	1022.7700   	0.161090    	VZ1.SAT.NBN.014 	;
 1422            	1045.0500   	0.000000    	VZ1.SAT.NBN.014 	;
 1423            	1045.0600   	0.000658    	VZ1.SAT.NBN.014 	;
 1424            	1045.0000   	0.000000    	VZ1.SAT.NBN.014 	;
 1425            	1045.0000   	0.000000    	VZ1.SAT.NBN.014 	;
 1426            	1045.0000   	0.000000    	VZ1.SAT.NBN.014 	;
 1427            	1045.0000   	0.000000    	VZ1.SAT.NBN.014 	;
 1428            	1045.0000   	0.000000    	VZ1.SAT.NBN.014 	;
 1429            	1043.3200   	0.000000    	VZ1.SAT.NBN.014 	;
 1430            	1043.3200   	0.000000    	VZ1.SAT.NBN.014 	;
 1431            	1045.0000   	0.000000    	VZ1.SAT.NBN.014 	;
 1432            	1045.0000   	0.000000    	VZ1.SAT.NBN.014 	;
 1433            	1045.0000   	0.000000    	VZ1.SAT.NBN.014 	;
 1434            	1045.0000   	0.000000    	VZ1.SAT.NBN.014 	;
 1435            	1045.0000   	0.034476    	VZ1.SAT.NBN.014 	;
 1436            	1044.2400   	0.083582    	VZ1.SAT.NBN.014 	;
 1437            	1043.4400   	0.007120    	VZ1.SAT.NBN.014 	;
 1438            	1043.3200   	0.000000    	VZ1.SAT.NBN.014 	;
 1439            	1043.3200   	0.000000    	VZ1.SAT.NBN.014 	;
 1440            	1043.3200   	0.000000    	VZ1.SAT.NBN.014 	;
 1441            	1045.0000   	0.000000    	VZ1.SAT.NBN.014 	;
 1442            	1041.3500   	0.000000    	VZ1.SAT.NBN.014 	;
 1443            	1041.1100   	0.000000    	VZ1.SAT.NBN.014 	;
 1444            	1041.1100   	0.000000    	VZ1.SAT.NBN.014 	;
 PM.VRP.CND.004  	1033.6800   	0.000000    	VZ1.SAT.NBN.014 	;
 1446            	1033.9900   	0.000000    	VZ1.SAT.NBN.014 	;
 1447            	1021.6600   	0.020468    	VZ1.SAT.NBN.014 	;
 1448            	1021.6600   	0.000000    	VZ1.SAT.NBN.014 	;
 1449            	1025.9700   	0.000000    	VZ1.SAT.NBN.014 	;
 1450            	1026.3000   	0.010873    	VZ1.SAT.NBN.014 	;
 1451            	1021.1300   	0.053861    	VZ1.SAT.NBN.014 	;
 1452            	1029.5200   	0.004179    	VZ1.SAT.NBN.014 	;
 1453            	1029.5200   	0.066475    	VZ1.SAT.NBN.014 	;
 1454            	1029.5200   	0.054483    	VZ1.SAT.NBN.014 	;
 1455            	1032.8800   	0.241569    	VZ1.SAT.NBN.014 	;
 1456            	1018.6700   	0.051772    	VZ1.SAT.NBN.014 	;
 1457            	1022.0100   	0.023514    	VZ1.SAT.NBN.014 	;
 1458            	1021.5500   	0.000000    	VZ1.SAT.NBN.014 	;
 1459            	1041.4800   	0.000000    	VZ1.SAT.NBN.015 	;
 1460            	1041.5900   	0.000000    	VZ1.SAT.NBN.015 	;
 1461            	1041.4400   	0.000000    	VZ1.SAT.NBN.015 	;
 1462            	1041.4800   	0.000000    	VZ1.SAT.NBN.015 	;
 1463            	1041.6700   	0.000000    	VZ1.SAT.NBN.015 	;
 1464            	1041.6700   	0.000000    	VZ1.SAT.NBN.015 	;
 1465            	1019.2900   	0.000000    	VZ1.SAT.NBN.015 	;
 1466            	1019.2900   	0.000000    	VZ1.SAT.NBN.015 	;
 1467            	1019.2400   	0.000000    	VZ1.SAT.NBN.015 	;
 1468            	1020.0000   	0.000000    	VZ1.SAT.NBN.015 	;
 1469            	1038.9500   	0.000000    	VZ1.SAT.NBN.015 	;
 1470            	1019.0200   	0.000000    	VZ1.SAT.NBN.015 	;
 1471            	1019.0200   	0.000000    	VZ1.SAT.NBN.015 	;
 1472            	1050.0000   	0.000000    	VZ1.SAT.NBN.015 	;
 1473            	1050.0000   	0.000000    	VZ1.SAT.NBN.015 	;
 1474            	1020.7400   	0.000000    	VZ1.SAT.NBN.015 	;
 1475            	1050.0000   	0.000000    	VZ1.SAT.NBN.015 	;
 1476            	1050.0000   	0.000000    	VZ1.SAT.NBN.015 	;
 1477            	1050.0000   	0.000000    	VZ1.SAT.NBN.015 	;
 1478            	1041.7600   	0.000000    	VZ1.SAT.NBN.015 	;
 1479            	1040.1500   	0.000000    	VZ1.SAT.NBN.014 	;
 1480            	1040.0900   	0.000000    	VZ1.SAT.NBN.014 	;
 1481            	1036.2800   	0.000000    	VZ1.SAT.NBN.014 	;
 1482            	1037.3800   	0.000000    	VZ1.SAT.NBN.014 	;
 1483            	1038.4800   	0.061135    	VZ1.SAT.NBN.014 	;
 1484            	1038.4800   	0.000000    	VZ1.SAT.NBN.014 	;
 1485            	1038.9900   	0.000000    	VZ1.SAT.NBN.014 	;
 1486            	1040.0900   	0.000000    	VZ1.SAT.NBN.014 	;
 1487            	1035.6100   	0.000000    	VZ1.SAT.NBN.014 	;
 1488            	1035.6100   	0.000000    	VZ1.SAT.NBN.014 	;
 1489            	1036.8000   	0.000000    	VZ1.SAT.NBN.014 	;
 1490            	1036.7000   	0.007623    	VZ1.SAT.NBN.014 	;
 1491            	1036.7000   	0.000000    	VZ1.SAT.NBN.014 	;
 1492            	1036.3000   	0.000000    	VZ1.SAT.NBN.014 	;
 1493            	1034.4000   	0.000000    	VZ1.SAT.NBN.014 	;
 1494            	1034.4000   	0.000000    	VZ1.SAT.NBN.014 	;
 1495            	1034.1300   	0.058966    	VZ1.SAT.NBN.015 	;
 1496            	1036.5100   	0.185378    	VZ1.SAT.NBN.015 	;
 1497            	1038.9200   	0.033951    	VZ1.SAT.NBN.015 	;
 1498            	1048.6700   	0.000000    	VZ1.SAT.NBN.015 	;
 1499            	1048.6700   	0.000000    	VZ1.SAT.NBN.015 	;
 1500            	1047.8100   	0.018261    	VZ1.SAT.NBN.015 	;
 1501            	1047.1100   	0.055459    	VZ1.SAT.NBN.015 	;
 1502            	1045.3200   	0.068191    	VZ1.SAT.NBN.015 	;
 1503            	1044.2200   	0.084902    	VZ1.SAT.NBN.015 	;
 1504            	1039.5300   	0.032153    	VZ1.SAT.NBN.015 	;
 1505            	1042.7100   	0.123729    	VZ1.SAT.NBN.015 	;
 1506            	1036.8700   	0.000000    	VZ1.SAT.NBN.015 	;
 1507            	1036.8700   	0.000000    	VZ1.SAT.NBN.015 	;
 1508            	1036.8900   	0.146066    	VZ1.SAT.NBN.015 	;
 1509            	1044.0900   	0.034209    	VZ1.SAT.NBN.015 	;
 1510            	1044.4700   	0.000000    	VZ1.SAT.NBN.015 	;
 1511            	1044.4700   	0.000000    	VZ1.SAT.NBN.015 	;
 1512            	1036.8700   	0.000000    	VZ1.SAT.NBN.015 	;
 1513            	1041.3200   	0.116850    	VZ1.SAT.NBN.015 	;
 1514            	1040.0000   	0.035526    	VZ1.SAT.NBN.015 	;
 1515            	1030.9400   	0.084429    	VZ1.SAT.NBN.015 	;
 1516            	1030.9400   	0.059287    	VZ1.SAT.NBN.015 	;
 1517            	1038.8800   	0.021655    	VZ1.SAT.NBN.015 	;
 1518            	1036.4200   	0.034242    	VZ1.SAT.NBN.014 	;
 1519            	1036.4200   	0.003665    	VZ1.SAT.NBN.014 	;
 1520            	1036.4100   	0.000932    	VZ1.SAT.NBN.014 	;
 1521            	1050.7800   	0.000000    	VZ1.SAT.NBN.015 	;
 1522            	1050.0000   	0.000000    	VZ1.SAT.NBN.015 	;
 PM.VRP.NBN.003  	1048.5700   	0.040231    	VZ1.SAT.NBN.015 	;
 1524            	1041.7600   	0.000000    	VZ1.SAT.NBN.015 	;
 1525            	1041.6500   	0.000000    	VZ1.SAT.NBN.015 	;
 1526            	1041.6500   	0.000000    	VZ1.SAT.NBN.015 	;
 1527            	1041.5300   	0.000000    	VZ1.SAT.NBN.015 	;
 1528            	1041.4200   	0.000000    	VZ1.SAT.NBN.015 	;
 1529            	1041.8800   	0.000000    	VZ1.SAT.NBN.015 	;
 1530            	1040.2500   	0.000627    	VZ1.SAT.NBN.015 	;
 1531            	1039.7700   	0.000000    	VZ1.SAT.NBN.015 	;
 1532            	1038.5700   	0.000000    	VZ1.SAT.NBN.015 	;
 1533            	1036.9800   	0.000000    	VZ1.SAT.NBN.015 	;
 1534            	1035.6700   	0.000000    	VZ1.SAT.NBN.015 	;
 1535            	1034.6900   	0.000000    	VZ1.SAT.NBN.015 	;
 1536            	1034.1700   	0.000000    	VZ1.SAT.NBN.015 	;
 1537            	1033.5900   	0.000000    	VZ1.SAT.NBN.015 	;
 1538            	1032.6500   	0.000000    	VZ1.SAT.NBN.015 	;
 1539            	1031.9200   	0.015028    	VZ1.SAT.NBN.015 	;
 1540            	1030.7200   	0.000000    	VZ1.SAT.NBN.015 	;
 1541            	1030.0100   	0.000000    	VZ1.SAT.NBN.015 	;
 1542            	1029.4300   	0.000000    	VZ1.SAT.NBN.015 	;
 1543            	1028.8700   	0.000000    	VZ1.SAT.NBN.015 	;
 1544            	1028.3900   	0.000000    	VZ1.SAT.NBN.015 	;
 1545            	1027.1100   	0.000000    	VZ1.SAT.NBN.015 	;
 1546            	1025.9400   	0.000000    	VZ1.SAT.NBN.015 	;
 1547            	1025.1500   	0.000000    	VZ1.SAT.NBN.015 	;
 1548            	1024.6300   	0.000000    	VZ1.SAT.NBN.015 	;
 1549            	1019.9000   	0.000000    	VZ1.SAT.NBN.015 	;
 1550            	1019.5000   	0.000000    	VZ1.SAT.NBN.015 	;
 1551            	1019.1000   	0.000000    	VZ1.SAT.NBN.015 	;
 1552            	1018.8300   	0.000000    	VZ1.SAT.NBN.015 	;
 1553            	1019.5400   	0.032153    	VZ1.SAT.NBN.015 	;
 1554            	1019.5400   	0.000000    	VZ1.SAT.NBN.015 	;
 1555            	1019.3200   	0.000000    	VZ1.SAT.NBN.015 	;
 1556            	1019.5400   	0.000000    	VZ1.SAT.NBN.015 	;
 1557            	1020.0200   	0.000000    	VZ1.SAT.NBN.015 	;
 1558            	1020.2800   	0.000000    	VZ1.SAT.NBN.015 	;
 1559            	1020.6900   	0.000000    	VZ1.SAT.NBN.015 	;
 1560            	1021.1600   	0.000000    	VZ1.SAT.NBN.015 	;
 1561            	1021.6600   	0.000000    	VZ1.SAT.NBN.015 	;
 1562            	1022.3400   	0.000000    	VZ1.SAT.NBN.015 	;
 1563            	1022.8800   	0.000000    	VZ1.SAT.NBN.015 	;
 1564            	1025.0000   	0.032153    	VZ1.SAT.NBN.014 	;
 1565            	1029.3500   	0.000000    	VZ1.SAT.NBN.014 	;
 1566            	1029.2600   	0.000000    	VZ1.SAT.NBN.014 	;
 1567            	1029.4500   	0.000000    	VZ1.SAT.NBN.014 	;
 1568            	1030.0000   	0.000000    	VZ1.SAT.NBN.014 	;
 1569            	1030.0000   	0.000000    	VZ1.SAT.NBN.014 	;
 1570            	1030.1000   	0.000000    	VZ1.SAT.NBN.014 	;
 1571            	1030.7500   	0.000000    	VZ1.SAT.NBN.014 	;
 1572            	1031.5700   	0.000000    	VZ1.SAT.NBN.014 	;
 1573            	1032.0200   	0.000000    	VZ1.SAT.NBN.014 	;
 1574            	1032.8700   	0.000000    	VZ1.SAT.NBN.014 	;
 1575            	1032.8700   	0.000000    	VZ1.SAT.NBN.014 	;
 1576            	1018.0400   	0.000000    	VZ1.SAT.NBN.015 	;
 1577            	1016.9700   	0.000000    	VZ1.SAT.NBN.015 	;
 1578            	1015.8300   	0.000000    	VZ1.SAT.NBN.015 	;
 1579            	1015.0000   	0.000000    	VZ1.SAT.NBN.015 	;
 1580            	1019.0200   	0.000000    	VZ1.SAT.NBN.015 	;
 1581            	1036.3400   	0.000000    	VZ1.SAT.NBN.014 	;
 1582            	1038.3700   	0.032153    	VZ1.SAT.NBN.014 	;
 1583            	1039.1500   	0.034182    	VZ1.SAT.NBN.014 	;
 1584            	1040.0000   	0.000000    	VZ1.SAT.NBN.014 	;
 1585            	1050.3400   	0.085618    	VZ1.SAT.NBN.014 	;
 1586            	1050.2700   	0.062532    	VZ1.SAT.NBN.014 	;
 1587            	1050.3600   	0.032153    	VZ1.SAT.NBN.014 	;
 1588            	1050.2800   	0.017843    	VZ1.SAT.NBN.014 	;
 1589            	1050.0000   	0.000000    	VZ1.SAT.NBN.014 	;
 1590            	1050.0000   	0.000000    	VZ1.SAT.NBN.014 	;
 1591            	1048.7400   	0.032153    	VZ1.SAT.NBN.014 	;
 1592            	1048.3200   	0.145260    	VZ1.SAT.NBN.014 	;
 1593            	1046.8500   	0.000000    	VZ1.SAT.NBN.014 	;
 1594            	1045.1600   	0.000000    	VZ1.SAT.NBN.014 	;
 1595            	1050.0000   	0.000000    	VZ1.SAT.NBN.015 	;
 1596            	1050.0000   	0.000000    	VZ1.SAT.NBN.015 	;
 1597            	1050.0000   	0.000000    	VZ1.SAT.NBN.015 	;
 1598            	1050.0000   	0.000000    	VZ1.SAT.NBN.015 	;
 1599            	1050.0000   	0.000000    	VZ1.SAT.NBN.015 	;
 1600            	1050.0000   	0.000000    	VZ1.SAT.NBN.015 	;
 1601            	1050.0000   	0.000000    	VZ1.SAT.NBN.015 	;
 1602            	1042.0100   	0.000000    	VZ1.SAT.NBN.015 	;
 1603            	1042.2800   	0.000000    	VZ1.SAT.NBN.015 	;
 1604            	1042.5500   	0.000000    	VZ1.SAT.NBN.015 	;
 1605            	1042.5500   	0.000000    	VZ1.SAT.NBN.015 	;
 1606            	1042.9800   	0.015383    	VZ1.SAT.NBN.015 	;
 1607            	1043.3200   	0.000000    	VZ1.SAT.NBN.015 	;
 1608            	1043.5600   	0.000000    	VZ1.SAT.NBN.015 	;
 1609            	1043.6700   	0.000000    	VZ1.SAT.NBN.015 	;
 1610            	1043.6700   	0.075930    	VZ1.SAT.NBN.015 	;
 1611            	1044.0700   	0.000000    	VZ1.SAT.NBN.015 	;
 1612            	1044.8500   	0.000000    	VZ1.SAT.NBN.015 	;
 1613            	1045.0300   	0.000000    	VZ1.SAT.NBN.015 	;
 1614            	1045.3300   	0.000763    	VZ1.SAT.NBN.015 	;
 1615            	1045.8100   	0.032783    	VZ1.SAT.NBN.015 	;
 1616            	1046.2900   	0.000000    	VZ1.SAT.NBN.015 	;
 1617            	1046.7600   	0.000000    	VZ1.SAT.NBN.015 	;
 1618            	1047.2400   	0.000000    	VZ1.SAT.NBN.015 	;
 1619            	1047.7500   	0.000000    	VZ1.SAT.NBN.015 	;
 1620            	1048.1700   	0.005154    	VZ1.SAT.NBN.015 	;
 1621            	1048.3600   	0.000000    	VZ1.SAT.NBN.015 	;
 1622            	1048.8900   	0.000000    	VZ1.SAT.NBN.015 	;
 1623            	1049.0700   	0.000000    	VZ1.SAT.NBN.015 	;
 1624            	1049.3500   	0.000000    	VZ1.SAT.NBN.015 	;
 1625            	1049.8400   	0.014209    	VZ1.SAT.NBN.015 	;
 1626            	1050.0000   	0.000000    	VZ1.SAT.NBN.015 	;
 1627            	1050.0000   	0.000000    	VZ1.SAT.NBN.015 	;
 1628            	1022.1000   	0.000000    	VZ1.SAT.NBN.015 	;
 1629            	1022.1000   	0.000000    	VZ1.SAT.NBN.015 	;
 1630            	1022.7600   	0.055108    	VZ1.SAT.NBN.015 	;
 1631            	1026.6600   	0.113927    	VZ1.SAT.NBN.015 	;
 1632            	1025.3500   	0.017908    	VZ1.SAT.NBN.015 	;
 1633            	1025.3500   	0.013600    	VZ1.SAT.NBN.015 	;
 1634            	1026.8100   	0.044882    	VZ1.SAT.NBN.015 	;
 1635            	1028.6600   	0.066232    	VZ1.SAT.NBN.015 	;
 1636            	1027.6600   	0.008456    	VZ1.SAT.NBN.015 	;
 1637            	1028.9200   	0.048903    	VZ1.SAT.NBN.015 	;
 1638            	1027.9600   	0.009324    	VZ1.SAT.NBN.015 	;
 1639            	1015.7300   	0.035815    	VZ1.SAT.NBN.015 	;
 1640            	1015.5200   	0.015818    	VZ1.SAT.NBN.015 	;
 1641            	1017.7200   	0.010770    	VZ1.SAT.NBN.015 	;
 1642            	1017.6300   	0.056128    	VZ1.SAT.NBN.015 	;
 1643            	1016.5000   	0.009324    	VZ1.SAT.NBN.015 	;
 1644            	1016.4000   	0.026653    	VZ1.SAT.NBN.015 	;
 1645            	1026.3000   	0.000000    	VZ1.SAT.NBN.015 	;
 1646            	1026.0400   	0.009420    	VZ1.SAT.NBN.015 	;
 1647            	1026.3500   	0.064997    	VZ1.SAT.NBN.015 	;
 1648            	1042.2000   	0.000000    	VZ1.SAT.NBN.015 	;
 1649            	1042.2000   	0.015682    	VZ1.SAT.NBN.015 	;
 1650            	1046.7700   	0.000000    	VZ1.SAT.NBN.015 	;
 1651            	1044.9400   	0.000000    	VZ1.SAT.NBN.015 	;
 1652            	1044.8100   	0.000000    	VZ1.SAT.NBN.015 	;
 1653            	1042.0000   	0.157415    	VZ1.SAT.NBN.015 	;
 1654            	1042.2700   	0.000000    	VZ1.SAT.NBN.015 	;
 1655            	1041.7000   	0.000000    	VZ1.SAT.NBN.015 	;
 1656            	1027.0300   	0.040027    	VZ1.SAT.NBN.015 	;
 1657            	1041.2900   	0.049578    	VZ1.SAT.NBN.015 	;
 1658            	1042.2300   	0.210583    	VZ1.SAT.NBN.015 	;
 1659            	1042.3000   	0.034176    	VZ1.SAT.NBN.015 	;
 1660            	1041.2400   	0.025419    	VZ1.SAT.NBN.015 	;
 1661            	1042.5900   	0.127500    	VZ1.SAT.NBN.015 	;
 1662            	1042.4000   	0.037422    	VZ1.SAT.NBN.015 	;
 1663            	1045.9200   	0.000000    	VZ1.SAT.NBN.015 	;
 1664            	1042.6400   	0.000000    	VZ1.SAT.NBN.015 	;
 1665            	1043.1200   	0.031637    	VZ1.SAT.NBN.015 	;
 1666            	1042.6400   	0.000000    	VZ1.SAT.NBN.015 	;
 1667            	1042.8800   	0.000000    	VZ1.SAT.NBN.015 	;
 1668            	1042.8800   	0.071921    	VZ1.SAT.NBN.015 	;
 1669            	1043.2000   	0.009955    	VZ1.SAT.NBN.015 	;
 1670            	1044.0600   	0.030928    	VZ1.SAT.NBN.015 	;
 1671            	1044.6500   	0.027276    	VZ1.SAT.NBN.015 	;
 1672            	1044.6200   	0.546075    	VZ1.SAT.NBN.015 	;
 1673            	1048.0600   	0.001854    	VZ1.SAT.NBN.015 	;
 1674            	1047.2300   	0.048276    	VZ1.SAT.NBN.015 	;
 1675            	1047.6500   	0.072688    	VZ1.SAT.NBN.015 	;
 1676            	1046.7000   	0.009491    	VZ1.SAT.NBN.015 	;
 1677            	1032.7200   	0.261991    	VZ1.SAT.NBN.015 	;
 1678            	1032.5600   	0.000000    	VZ1.SAT.NBN.015 	;
 1679            	1027.9600   	0.000000    	VZ1.SAT.NBN.015 	;
 1680            	1024.0300   	0.000000    	VZ1.SAT.NBN.015 	;
 1681            	1030.5700   	0.000000    	VZ1.SAT.NBN.015 	;
 1682            	1031.0000   	0.008134    	VZ1.SAT.NBN.015 	;
 1683            	1039.4100   	0.000000    	VZ1.SAT.NBN.015 	;
 1684            	1034.1300   	0.000000    	VZ1.SAT.NBN.015 	;
 1685            	1033.8700   	0.005373    	VZ1.SAT.NBN.015 	;
 1686            	1035.1100   	0.046144    	VZ1.SAT.NBN.015 	;
 1687            	1041.2300   	0.000000    	VZ1.SAT.NBN.015 	;
 1688            	1041.2200   	0.028092    	VZ1.SAT.NBN.015 	;
 1689            	1034.1300   	0.027276    	VZ1.SAT.NBN.015 	;
 1690            	1036.1700   	0.060097    	VZ1.SAT.NBN.015 	;
 1691            	1041.2700   	0.000000    	VZ1.SAT.NBN.015 	;
 1692            	1040.9800   	0.000000    	VZ1.SAT.NBN.015 	;
 1693            	1040.9100   	0.025528    	VZ1.SAT.NBN.015 	;
 1694            	1040.9800   	0.000000    	VZ1.SAT.NBN.015 	;
 1695            	1039.8300   	0.000000    	VZ1.SAT.NBN.015 	;
 1696            	1041.0000   	0.000000    	VZ1.SAT.NBN.015 	;
 1697            	1041.0000   	0.000000    	VZ1.SAT.NBN.015 	;
 1698            	1037.5700   	0.000000    	VZ1.SAT.NBN.015 	;
 1699            	1040.7900   	0.719664    	VZ1.SAT.NBN.015 	;
 1700            	1039.0800   	0.000000    	VZ1.SAT.NBN.015 	;
 1701            	1042.9600   	0.000000    	VZ1.SAT.NBN.015 	;
 1702            	1037.1100   	0.109103    	VZ1.SAT.NBN.015 	;
 1703            	1036.8000   	0.357707    	VZ1.SAT.NBN.015 	;
 1704            	1040.7500   	0.272596    	VZ1.SAT.NBN.015 	;
 1705            	1040.5500   	0.572074    	VZ1.SAT.NBN.015 	;
 1706            	1038.7400   	0.202697    	VZ1.SAT.NBN.015 	;
 1707            	1034.0800   	0.000000    	VZ1.SAT.NBN.015 	;
 1708            	1034.3700   	0.136378    	VZ1.SAT.NBN.015 	;
 1709            	1033.5400   	0.000000    	VZ1.SAT.NBN.015 	;
 1710            	1041.5800   	0.188801    	VZ1.SAT.NBN.015 	;
 1711            	1042.6500   	0.118022    	VZ1.SAT.NBN.015 	;
 1712            	1042.8000   	0.348418    	VZ1.SAT.NBN.015 	;
 1713            	1041.5800   	0.090456    	VZ1.SAT.NBN.015 	;
 1714            	1041.4200   	0.287699    	VZ1.SAT.NBN.015 	;
 1715            	1042.6900   	0.046177    	VZ1.SAT.NBN.015 	;
 1716            	1041.4200   	0.299806    	VZ1.SAT.NBN.015 	;
 1717            	1041.3700   	0.110880    	VZ1.SAT.NBN.015 	;
 1718            	1042.9700   	0.017155    	VZ1.SAT.NBN.015 	;
 1719            	1041.3700   	0.029128    	VZ1.SAT.NBN.015 	;
 1720            	1042.9700   	0.019037    	VZ1.SAT.NBN.015 	;
 1721            	1042.0600   	0.012503    	VZ1.SAT.NBN.015 	;
 1722            	1044.1100   	0.045003    	VZ1.SAT.NBN.015 	;
 1723            	1036.6800   	0.000000    	VZ1.SAT.NBN.015 	;
 1724            	1042.2000   	0.000000    	VZ1.SAT.NBN.015 	;
 1725            	1044.1100   	0.077516    	VZ1.SAT.NBN.015 	;
 1726            	1042.2000   	0.057715    	VZ1.SAT.NBN.015 	;
 1727            	1042.3100   	0.156109    	VZ1.SAT.NBN.015 	;
 1728            	1045.0000   	0.055450    	VZ1.SAT.NBN.015 	;
 1729            	1042.9000   	0.000000    	VZ1.SAT.NBN.015 	;
 1730            	1042.9600   	0.000000    	VZ1.SAT.NBN.015 	;
 1731            	1043.3900   	0.039228    	VZ1.SAT.NBN.015 	;
 1732            	1043.6500   	0.020456    	VZ1.SAT.NBN.015 	;
 1733            	1044.6800   	0.051140    	VZ1.SAT.NBN.015 	;
 1734            	1045.0000   	0.021137    	VZ1.SAT.NBN.015 	;
 1735            	1045.5300   	0.048549    	VZ1.SAT.NBN.015 	;
 1736            	1045.0000   	0.017843    	VZ1.SAT.NBN.015 	;
 1737            	1045.5800   	0.014673    	VZ1.SAT.NBN.015 	;
 1738            	1046.9100   	0.081827    	VZ1.SAT.NBN.015 	;
 1739            	1045.5800   	0.045440    	VZ1.SAT.NBN.015 	;
 1740            	1030.0400   	0.000000    	VZ1.SAT.NBN.015 	;
 1741            	1024.1600   	0.035365    	VZ1.SAT.NBN.015 	;
 1742            	1030.0400   	0.063853    	VZ1.SAT.NBN.015 	;
 1743            	1024.0300   	0.035237    	VZ1.SAT.NBN.015 	;
 1744            	1030.5600   	0.060059    	VZ1.SAT.NBN.015 	;
 1745            	1024.1100   	0.000000    	VZ1.SAT.NBN.015 	;
 1746            	1030.7600   	0.441113    	VZ1.SAT.NBN.015 	;
 1747            	1024.2400   	0.029932    	VZ1.SAT.NBN.015 	;
 1748            	1030.6000   	0.020769    	VZ1.SAT.NBN.015 	;
 1749            	1024.3200   	0.095813    	VZ1.SAT.NBN.015 	;
 1750            	1030.7400   	0.028517    	VZ1.SAT.NBN.015 	;
 1751            	1024.4500   	0.122146    	VZ1.SAT.NBN.015 	;
 1752            	1030.9000   	0.056812    	VZ1.SAT.NBN.015 	;
 1753            	1024.1600   	0.063821    	VZ1.SAT.NBN.015 	;
 1754            	1031.0600   	0.028742    	VZ1.SAT.NBN.015 	;
 1755            	1024.4700   	0.025334    	VZ1.SAT.NBN.015 	;
 1756            	1030.3900   	0.304628    	VZ1.SAT.NBN.015 	;
 1757            	1024.6200   	0.031694    	VZ1.SAT.NBN.015 	;
 1758            	1030.3900   	0.030080    	VZ1.SAT.NBN.015 	;
 1759            	1025.0000   	0.099966    	VZ1.SAT.NBN.015 	;
 1760            	1030.5800   	0.032825    	VZ1.SAT.NBN.015 	;
 1761            	1025.0000   	0.063764    	VZ1.SAT.NBN.015 	;
 1762            	1030.0000   	0.037841    	VZ1.SAT.NBN.015 	;
 1763            	1030.2100   	0.024081    	VZ1.SAT.NBN.015 	;
 1764            	1031.2500   	0.000000    	VZ1.SAT.NBN.015 	;
 1765            	1034.4700   	0.016746    	VZ1.SAT.NBN.015 	;
 1766            	1034.4700   	0.052613    	VZ1.SAT.NBN.015 	;
 1767            	1034.4700   	0.024410    	VZ1.SAT.NBN.015 	;
 1768            	1041.4500   	0.111310    	VZ1.SAT.NBN.015 	;
 1769            	1041.5800   	0.045113    	VZ1.SAT.NBN.015 	;
 1770            	1034.4700   	0.000000    	VZ1.SAT.NBN.015 	;
 1771            	1041.8400   	0.000000    	VZ1.SAT.NBN.015 	;
 1772            	1041.1200   	0.158412    	VZ1.SAT.NBN.015 	;
 1773            	1040.9300   	0.020128    	VZ1.SAT.NBN.015 	;
 1774            	1039.0500   	0.060604    	VZ1.SAT.NBN.015 	;
 1775            	1040.9800   	0.050213    	VZ1.SAT.NBN.015 	;
 1776            	1039.1000   	0.190372    	VZ1.SAT.NBN.015 	;
 1777            	1038.7000   	0.049449    	VZ1.SAT.NBN.015 	;
 1778            	1040.9100   	0.040231    	VZ1.SAT.NBN.015 	;
 1779            	1039.0800   	0.032198    	VZ1.SAT.NBN.015 	;
 1780            	1040.7600   	0.060659    	VZ1.SAT.NBN.015 	;
 1781            	1046.1700   	0.000000    	VZ1.SAT.NBN.015 	;
 1782            	1045.8700   	0.012982    	VZ1.SAT.NBN.015 	;
 1783            	1045.8700   	0.030928    	VZ1.SAT.NBN.015 	;
 1784            	1028.7700   	0.000000    	VZ1.SAT.NBN.015 	;
 1785            	1028.7700   	0.000000    	VZ1.SAT.NBN.015 	;
 1786            	1029.0600   	0.000000    	VZ1.SAT.NBN.015 	;
 1787            	1028.7700   	0.000000    	VZ1.SAT.NBN.015 	;
 1788            	1028.7700   	0.000000    	VZ1.SAT.NBN.015 	;
 1789            	1028.7700   	0.000000    	VZ1.SAT.NBN.015 	;
 1790            	1028.7700   	0.000000    	VZ1.SAT.NBN.015 	;
 1791            	1028.7700   	0.000000    	VZ1.SAT.NBN.015 	;
 1792            	1028.7700   	0.000000    	VZ1.SAT.NBN.015 	;
 1793            	1028.7700   	0.000000    	VZ1.SAT.NBN.015 	;
 1794            	1028.7700   	0.000000    	VZ1.SAT.NBN.015 	;
 1795            	1028.9100   	0.000000    	VZ1.SAT.NBN.015 	;
 1796            	1029.1800   	0.027276    	VZ1.SAT.NBN.015 	;
 1797            	1028.7700   	0.000000    	VZ1.SAT.NBN.015 	;
 1798            	1028.7700   	0.000000    	VZ1.SAT.NBN.015 	;
 1799            	1029.6000   	0.163654    	VZ1.SAT.NBN.015 	;
 1800            	1028.2200   	0.000000    	VZ1.SAT.NBN.015 	;
 1801            	1041.6300   	0.000000    	VZ1.SAT.NBN.015 	;
 1802            	1041.6300   	0.010310    	VZ1.SAT.NBN.015 	;
 1803            	1046.0500   	0.054604    	VZ1.SAT.NBN.015 	;
 1804            	1047.2000   	0.022447    	VZ1.SAT.NBN.015 	;
 1805            	1049.8900   	0.000000    	VZ1.SAT.NBN.015 	;
 1806            	1031.0500   	0.054551    	VZ1.SAT.NBN.015 	;
 1807            	1031.0500   	0.000000    	VZ1.SAT.NBN.015 	;
 1808            	1030.7800   	0.142172    	VZ1.SAT.NBN.015 	;
 1809            	1031.4100   	0.054551    	VZ1.SAT.NBN.015 	;
 1810            	1033.6500   	0.090908    	VZ1.SAT.NBN.015 	;
 1811            	1031.3800   	0.000000    	VZ1.SAT.NBN.015 	;
 1812            	1040.1300   	0.029485    	VZ1.SAT.NBN.015 	;
 1813            	1048.6000   	0.000655    	VZ1.SAT.NBN.015 	;
 1814            	1048.2900   	0.000000    	VZ1.SAT.NBN.015 	;
 1815            	1046.0300   	0.002727    	VZ1.SAT.NBN.015 	;
 1816            	1042.8700   	0.006409    	VZ1.SAT.NBN.015 	;
 1817            	1048.2900   	0.000000    	VZ1.SAT.NBN.015 	;
 1818            	1041.8200   	0.168662    	VZ1.SAT.NBN.015 	;
 1819            	1046.9200   	0.079152    	VZ1.SAT.NBN.015 	;
 1820            	1031.3800   	0.000000    	VZ1.SAT.NBN.015 	;
 1822            	1031.0900   	0.000000    	VZ1.SAT.NBN.015 	;
 1823            	1041.2700   	0.045117    	VZ1.SAT.NBN.015 	;
 1824            	1034.3200   	0.048222    	VZ1.SAT.NBN.015 	;
 1825            	1050.0000   	0.000000    	VZ1.SAT.NBN.015 	;
 1826            	1047.2500   	0.020074    	VZ1.SAT.NBN.015 	;
 1827            	1033.7900   	0.000000    	VZ1.SAT.NBN.015 	;
 1828            	1041.3200   	0.000000    	VZ1.SAT.NBN.015 	;
 1829            	1041.1400   	0.007648    	VZ1.SAT.NBN.015 	;
 1830            	1046.9300   	0.020319    	VZ1.SAT.NBN.015 	;
 1831            	1046.6700   	0.000000    	VZ1.SAT.NBN.015 	;
 1832            	1046.0000   	0.075155    	VZ1.SAT.NBN.015 	;
 1833            	1041.6300   	0.014483    	VZ1.SAT.NBN.015 	;
 1834            	1042.3500   	0.127520    	VZ1.SAT.NBN.015 	;
 1835            	1046.0500   	0.048373    	VZ1.SAT.NBN.015 	;
 1836            	1045.8700   	0.027276    	VZ1.SAT.NBN.015 	;
 1837            	1040.7100   	0.000000    	VZ1.SAT.NBN.015 	;
 1838            	1045.6400   	0.054551    	VZ1.SAT.NBN.015 	;
 1839            	1045.9300   	0.101523    	VZ1.SAT.NBN.015 	;
 1840            	1046.0300   	0.042740    	VZ1.SAT.NBN.015 	;
 1841            	1047.0600   	0.019555    	VZ1.SAT.NBN.015 	;
 1842            	1046.8300   	0.050076    	VZ1.SAT.NBN.015 	;
 1843            	1041.9700   	0.000000    	VZ1.SAT.NBN.015 	;
 1844            	1042.3600   	0.000000    	VZ1.SAT.NBN.015 	;
 1845            	1040.8800   	0.000000    	VZ1.SAT.NBN.015 	;
 1846            	1040.1300   	0.000000    	VZ1.SAT.NBN.015 	;
 1847            	1040.8400   	0.000000    	VZ1.SAT.NBN.015 	;
 1848            	1041.3200   	0.000000    	VZ1.SAT.NBN.015 	;
 1849            	1049.6500   	0.027276    	VZ1.SAT.NBN.015 	;
 1850            	1042.1800   	0.008591    	VZ1.SAT.NBN.015 	;
 1851            	1045.8700   	0.000000    	VZ1.SAT.NBN.015 	;
 1852            	1048.7700   	0.005731    	VZ1.SAT.NBN.015 	;
 1853            	1048.9700   	0.009573    	VZ1.SAT.NBN.015 	;
 1854            	1046.7700   	0.052231    	VZ1.SAT.NBN.015 	;
 1855            	1049.3700   	0.021764    	VZ1.SAT.NBN.015 	;
 1856            	1031.3800   	0.000000    	VZ1.SAT.NBN.015 	;
 1857            	1028.7700   	0.000000    	VZ1.SAT.NBN.015 	;
 1858            	1028.7700   	0.000000    	VZ1.SAT.NBN.015 	;
 1859            	1028.7700   	0.000000    	VZ1.SAT.NBN.015 	;
 1860            	1044.5900   	0.199405    	VZ1.SAT.NBN.015 	;
 1861            	1033.0200   	0.562789    	VZ1.SAT.NBN.015 	;
 1862            	1031.4100   	0.000000    	VZ1.SAT.NBN.015 	;
 1863            	1041.6400   	0.064204    	VZ1.SAT.NBN.015 	;
 1864            	1042.0700   	0.169235    	VZ1.SAT.NBN.015 	;
 1865            	1046.4000   	0.043968    	VZ1.SAT.NBN.015 	;
 1866            	1042.7200   	0.100455    	VZ1.SAT.NBN.015 	;
 1867            	1042.9000   	0.016855    	VZ1.SAT.NBN.015 	;
 1868            	1042.9200   	0.081525    	VZ1.SAT.NBN.015 	;
 1869            	1046.1000   	0.016418    	VZ1.SAT.NBN.015 	;
 1870            	1042.6100   	0.078716    	VZ1.SAT.NBN.015 	;
 1871            	1046.4100   	0.019091    	VZ1.SAT.NBN.015 	;
 1872            	1041.8300   	0.183660    	VZ1.SAT.NBN.015 	;
 1873            	1046.1600   	0.047458    	VZ1.SAT.NBN.015 	;
 1874            	1046.3000   	0.016609    	VZ1.SAT.NBN.015 	;
 1875            	1042.3800   	0.335012    	VZ1.SAT.NBN.015 	;
 1876            	1041.8600   	0.332181    	VZ1.SAT.NBN.015 	;
 1877            	1046.1500   	0.071379    	VZ1.SAT.NBN.015 	;
 1878            	1042.0200   	0.178405    	VZ1.SAT.NBN.015 	;
 1879            	1045.9200   	0.015464    	VZ1.SAT.NBN.015 	;
 1880            	1045.8100   	0.094806    	VZ1.SAT.NBN.015 	;
 1881            	1047.1300   	0.018191    	VZ1.SAT.NBN.015 	;
 1882            	1049.7100   	0.043858    	VZ1.SAT.NBN.015 	;
 1883            	1047.1300   	0.000000    	VZ1.SAT.NBN.015 	;
 1884            	1049.4000   	0.017100    	VZ1.SAT.NBN.015 	;
 1885            	1046.9900   	0.094236    	VZ1.SAT.NBN.015 	;
 1886            	1047.1000   	0.020155    	VZ1.SAT.NBN.015 	;
 1887            	1049.4000   	0.027276    	VZ1.SAT.NBN.015 	;
 1888            	1046.9900   	0.023101    	VZ1.SAT.NBN.015 	;
 1889            	1049.3500   	0.014810    	VZ1.SAT.NBN.015 	;
 1890            	1049.1600   	0.042112    	VZ1.SAT.NBN.015 	;
 1891            	1047.1100   	0.021137    	VZ1.SAT.NBN.015 	;
 1892            	1049.3800   	0.015491    	VZ1.SAT.NBN.015 	;
 1893            	1047.0400   	0.118072    	VZ1.SAT.NBN.015 	;
 1894            	1046.4800   	0.018955    	VZ1.SAT.NBN.015 	;
 1895            	1049.2200   	0.008209    	VZ1.SAT.NBN.015 	;
 1896            	1046.6100   	0.163703    	VZ1.SAT.NBN.015 	;
 1897            	1049.1500   	0.014728    	VZ1.SAT.NBN.015 	;
 1898            	1049.2700   	0.043995    	VZ1.SAT.NBN.015 	;
 1899            	1046.6100   	0.110601    	VZ1.SAT.NBN.015 	;
 1900            	1046.6300   	0.129095    	VZ1.SAT.NBN.015 	;
 1901            	1048.8700   	0.014073    	VZ1.SAT.NBN.015 	;
 1902            	1046.6300   	0.021628    	VZ1.SAT.NBN.015 	;
 1903            	1049.2200   	0.009246    	VZ1.SAT.NBN.015 	;
 1904            	1049.0700   	0.016310    	VZ1.SAT.NBN.015 	;
 1905            	1034.3200   	0.292269    	VZ1.SAT.NBN.015 	;
 1906            	1041.2700   	0.167074    	VZ1.SAT.NBN.015 	;
 1907            	1033.3200   	0.000000    	VZ1.SAT.NBN.015 	;
 1908            	1040.1300   	0.023291    	VZ1.SAT.NBN.015 	;
 1909            	1033.3200   	0.027276    	VZ1.SAT.NBN.015 	;
 1910            	1033.6500   	0.000000    	VZ1.SAT.NBN.015 	;
 1911            	1040.6000   	0.121753    	VZ1.SAT.NBN.015 	;
 1912            	1040.3400   	0.217768    	VZ1.SAT.NBN.015 	;
 1913            	1033.3200   	0.000000    	VZ1.SAT.NBN.015 	;
 1914            	1033.3200   	0.104873    	VZ1.SAT.NBN.015 	;
 1915            	1033.0400   	0.000000    	VZ1.SAT.NBN.015 	;
 1916            	1033.6400   	0.027276    	VZ1.SAT.NBN.015 	;
 1917            	1033.9900   	0.027276    	VZ1.SAT.NBN.015 	;
 1918            	1040.6400   	0.073561    	VZ1.SAT.NBN.015 	;
 1919            	1040.6400   	0.074652    	VZ1.SAT.NBN.015 	;
 1920            	1040.8700   	0.063563    	VZ1.SAT.NBN.015 	;
 1921            	1041.1100   	0.000000    	VZ1.SAT.NBN.015 	;
 1922            	1044.3700   	0.000000    	VZ1.SAT.NBN.015 	;
 1923            	1040.7100   	0.019446    	VZ1.SAT.NBN.015 	;
 1924            	1042.1500   	0.041731    	VZ1.SAT.NBN.015 	;
 1925            	1042.1500   	0.000000    	VZ1.SAT.NBN.015 	;
 1926            	1042.4200   	0.000000    	VZ1.SAT.NBN.015 	;
 1927            	1042.4000   	0.000000    	VZ1.SAT.NBN.015 	;
 1928            	1043.8100   	0.044131    	VZ1.SAT.NBN.015 	;
 1929            	1044.3200   	0.000327    	VZ1.SAT.NBN.015 	;
 1930            	1041.1100   	0.000000    	VZ1.SAT.NBN.015 	;
 1931            	1041.2500   	0.000000    	VZ1.SAT.NBN.015 	;
 1932            	1043.5900   	0.014919    	VZ1.SAT.NBN.015 	;
 1933            	1041.4600   	0.000000    	VZ1.SAT.NBN.015 	;
 1934            	1041.5000   	0.000000    	VZ1.SAT.NBN.015 	;
 1935            	1041.8200   	0.018901    	VZ1.SAT.NBN.015 	;
 1936            	1041.4600   	0.035865    	VZ1.SAT.NBN.015 	;
 1937            	1042.1500   	0.000000    	VZ1.SAT.NBN.015 	;
 1938            	1041.2100   	0.063361    	VZ1.SAT.NBN.015 	;
 1939            	1041.3500   	0.332357    	VZ1.SAT.NBN.015 	;
 1940            	1043.5900   	0.000000    	VZ1.SAT.NBN.015 	;
 1941            	1041.3200   	0.000000    	VZ1.SAT.NBN.015 	;
 1942            	1041.9300   	0.010500    	VZ1.SAT.NBN.015 	;
 1943            	1048.3700   	0.000000    	VZ1.SAT.NBN.015 	;
 1944            	1048.3700   	0.000000    	VZ1.SAT.NBN.015 	;
 1945            	1049.3900   	0.006819    	VZ1.SAT.NBN.015 	;
 1946            	1041.8400   	0.041158    	VZ1.SAT.NBN.015 	;
 1947            	1042.9600   	0.000000    	VZ1.SAT.NBN.015 	;
 1948            	1041.2200   	0.000000    	VZ1.SAT.NBN.015 	;
 1949            	1041.2200   	0.000000    	VZ1.SAT.NBN.015 	;
 1950            	1033.6500   	0.048658    	VZ1.SAT.NBN.015 	;
 1951            	1041.8800   	0.000000    	VZ1.SAT.NBN.015 	;
 1952            	1033.5400   	0.000000    	VZ1.SAT.NBN.015 	;
 1953            	1029.9600   	0.024981    	VZ1.SAT.NBN.015 	;
 1954            	1042.0000   	0.012628    	VZ1.SAT.NBN.015 	;
 1955            	1028.7700   	0.000000    	VZ1.SAT.NBN.015 	;
 1956            	1028.4900   	0.000000    	VZ1.SAT.NBN.015 	;
 1957            	1044.3700   	0.000000    	VZ1.SAT.NBN.015 	;
 1958            	1025.1000   	0.000000    	VZ1.SAT.NBN.015 	;
 1959            	1032.8900   	0.511538    	VZ1.SAT.NBN.015 	;
 1960            	1040.6000   	0.000000    	VZ1.SAT.NBN.015 	;
 1961            	1031.0900   	0.000000    	VZ1.SAT.NBN.015 	;
 1962            	1031.7400   	0.000000    	VZ1.SAT.NBN.015 	;
 1963            	1033.6500   	0.000000    	VZ1.SAT.NBN.015 	;
 1964            	1021.5400   	0.431449    	VZ1.SAT.NBN.015 	;
 1965            	1033.3900   	0.031884    	VZ1.SAT.NBN.014 	;
 1966            	1019.9300   	0.000000    	VZ1.SAT.NBN.015 	;
 1967            	1021.6700   	0.000000    	VZ1.SAT.NBN.015 	;
 1968            	1021.4900   	0.032153    	VZ1.SAT.NBN.015 	;
 1969            	1022.4900   	0.000000    	VZ1.SAT.NBN.015 	;
 1970            	1020.6800   	0.000000    	VZ1.SAT.NBN.015 	;
 1971            	1050.0000   	0.000000    	VZ1.SAT.NBN.014 	;
 1972            	1031.1000   	0.000000    	VZ1.SAT.NBN.015 	;
 1973            	1046.8900   	0.000000    	VZ1.SAT.NBN.014 	;
 1974            	1027.9400   	0.015206    	VZ1.SAT.NBN.014 	;
 1975            	1042.4700   	0.079364    	VZ1.SAT.NBN.014 	;
 1976            	1042.0000   	0.202024    	VZ1.SAT.NBN.014 	;
 1977            	1041.9100   	0.064580    	VZ1.SAT.NBN.014 	;
 1978            	1041.9500   	0.067330    	VZ1.SAT.NBN.014 	;
 1979            	1041.9700   	0.017413    	VZ1.SAT.NBN.014 	;
 1980            	1041.9700   	0.013465    	VZ1.SAT.NBN.014 	;
 1981            	1028.8600   	0.084391    	VZ1.SAT.NBN.014 	;
 1982            	1035.9800   	0.038697    	VZ1.SAT.NBN.014 	;
 1983            	1034.2900   	0.019888    	VZ1.SAT.NBN.014 	;
 1984            	1034.7400   	0.034476    	VZ1.SAT.NBN.014 	;
 1985            	1036.6700   	0.100529    	VZ1.SAT.NBN.014 	;
 1986            	1036.1000   	0.077467    	VZ1.SAT.NBN.014 	;
 1987            	1037.2900   	0.024996    	VZ1.SAT.NBN.014 	;
 1988            	1031.0800   	0.119353    	VZ1.SAT.NBN.014 	;
 1989            	1031.2700   	0.128993    	VZ1.SAT.NBN.014 	;
 1990            	1034.1500   	0.016251    	VZ1.SAT.NBN.014 	;
 1991            	1035.0700   	0.112477    	VZ1.SAT.NBN.014 	;
 1992            	1035.7000   	0.000000    	VZ1.SAT.NBN.014 	;
 1993            	1037.9900   	0.018999    	VZ1.SAT.NBN.014 	;
 1994            	1035.7800   	0.049063    	VZ1.SAT.NBN.014 	;
 1995            	1035.7700   	0.028594    	VZ1.SAT.NBN.014 	;
 1996            	1040.6700   	0.000000    	VZ1.SAT.NBN.015 	;
 1997            	1042.2100   	0.188602    	VZ1.SAT.NBN.015 	;
 1998            	1035.0700   	0.000000    	VZ1.SAT.NBN.015 	;
 1999            	1033.0700   	0.000000    	VZ1.SAT.NBN.015 	;
 2000            	1048.4000   	0.046695    	VZ1.SAT.NBN.015 	;
 2001            	1047.7000   	0.085673    	VZ1.SAT.NBN.015 	;
 2002            	1047.6100   	0.054551    	VZ1.SAT.NBN.015 	;
 2003            	1041.1100   	0.009645    	VZ1.SAT.NBN.015 	;
 2004            	1041.1100   	0.000000    	VZ1.SAT.NBN.015 	;
 2005            	1043.5900   	0.000000    	VZ1.SAT.NBN.015 	;
 2006            	1042.1500   	0.036713    	VZ1.SAT.NBN.015 	;
 2007            	1041.3600   	0.000000    	VZ1.SAT.NBN.015 	;
 2008            	1041.3300   	0.264377    	VZ1.SAT.NBN.015 	;
 2009            	1041.3200   	0.038049    	VZ1.SAT.NBN.015 	;
 2010            	1027.9600   	0.000000    	VZ1.SAT.NBN.015 	;
 2011            	1023.2700   	0.000000    	VZ1.SAT.NBN.015 	;
 2012            	1040.3300   	0.000000    	VZ1.SAT.NBN.015 	;
 2013            	1040.0000   	0.027276    	VZ1.SAT.NBN.015 	;
 2014            	1028.3300   	0.027276    	VZ1.SAT.NBN.015 	;
 2015            	1027.3700   	0.000000    	VZ1.SAT.NBN.015 	;
 2016            	1025.5700   	0.170221    	VZ1.SAT.NBN.015 	;
 2017            	1025.0000   	0.113165    	VZ1.SAT.NBN.015 	;
 2018            	1024.6100   	0.027276    	VZ1.SAT.NBN.015 	;
 2019            	1024.5600   	0.081827    	VZ1.SAT.NBN.015 	;
 2020            	1024.0800   	0.081827    	VZ1.SAT.NBN.015 	;
 2021            	1024.1700   	0.000000    	VZ1.SAT.NBN.015 	;
 2022            	1015.6500   	0.214647    	VZ1.SAT.NBN.015 	;
 2023            	1034.4800   	0.061924    	VZ1.SAT.NBN.015 	;
 2024            	1035.0000   	0.072568    	VZ1.SAT.NBN.015 	;
 2025            	1036.6400   	0.029225    	VZ1.SAT.NBN.015 	;
 2026            	1034.4800   	0.009066    	VZ1.SAT.NBN.015 	;
 2027            	1035.0000   	0.010674    	VZ1.SAT.NBN.015 	;
 2028            	1046.6000   	0.033758    	VZ1.SAT.NBN.015 	;
 2029            	1044.8200   	0.000000    	VZ1.SAT.NBN.015 	;
 2030            	1037.2500   	0.000000    	VZ1.SAT.NBN.015 	;
 2031            	1040.4700   	0.000000    	VZ1.SAT.NBN.014 	;
 2032            	1035.4800   	0.000000    	VZ1.SAT.NBN.014 	;
 2033            	1035.0000   	0.186213    	VZ1.SAT.NBN.014 	;
 2034            	1046.2300   	0.000000    	VZ1.SAT.NBN.015 	;
 2035            	1042.0300   	0.000155    	VZ1.SAT.NBN.014 	;
 2036            	1042.2500   	0.000000    	VZ1.SAT.NBN.014 	;
 2037            	1046.6300   	0.195988    	VZ1.SAT.NBN.014 	;
 2038            	1045.5200   	0.018070    	VZ1.SAT.NBN.014 	;
 2039            	1046.2100   	0.173549    	VZ1.SAT.NBN.014 	;
 2040            	1046.8900   	0.083617    	VZ1.SAT.NBN.014 	;
 2041            	1047.5600   	0.137793    	VZ1.SAT.NBN.014 	;
 2042            	1045.3800   	0.018232    	VZ1.SAT.NBN.014 	;
 2043            	1043.6300   	0.077968    	VZ1.SAT.NBN.014 	;
 2044            	1044.1500   	0.114948    	VZ1.SAT.NBN.014 	;
 2045            	1043.8300   	0.061410    	VZ1.SAT.NBN.014 	;
 2046            	1044.1100   	0.000929    	VZ1.SAT.NBN.014 	;
 2047            	1031.8200   	0.042059    	VZ1.SAT.NBN.014 	;
 2048            	1031.0100   	0.116860    	VZ1.SAT.NBN.014 	;
 2049            	1035.0700   	0.075575    	VZ1.SAT.NBN.014 	;
 2050            	1035.0400   	0.046717    	VZ1.SAT.NBN.015 	;
 2051            	1033.8600   	0.129026    	VZ1.SAT.NBN.015 	;
 2052            	1037.9300   	0.064753    	VZ1.SAT.NBN.015 	;
 2053            	1029.9800   	0.063686    	VZ1.SAT.NBN.015 	;
 2054            	1037.3200   	0.000000    	VZ1.SAT.NBN.015 	;
 2055            	1041.6400   	0.000000    	VZ1.SAT.NBN.015 	;
 2056            	1045.7400   	0.004340    	VZ1.SAT.NBN.015 	;
 2057            	1042.1900   	0.054272    	VZ1.SAT.NBN.015 	;
 2058            	1039.2500   	0.218898    	VZ1.SAT.NBN.015 	;
 2059            	1041.8800   	0.003247    	VZ1.SAT.NBN.015 	;
 2060            	1041.2200   	0.015400    	VZ1.SAT.NBN.015 	;
 2061            	1041.2200   	0.036139    	VZ1.SAT.NBN.015 	;
 2062            	1047.0100   	0.006173    	VZ1.SAT.NBN.015 	;
 2063            	1047.8000   	0.013825    	VZ1.SAT.NBN.015 	;
 2064            	1045.9500   	0.087355    	VZ1.SAT.NBN.015 	;
 2065            	1046.7300   	0.035657    	VZ1.SAT.NBN.015 	;
 2066            	1040.4300   	0.000000    	VZ1.DMC.API.001 	;
 2067            	1039.6400   	0.009195    	VZ1.DMC.API.001 	;
 2068            	1048.8300   	0.125096    	VZ1.SAT.NBN.014 	;
 2069            	1040.0000   	0.058285    	VZ1.SAT.NBN.015 	;
 2070            	1040.0000   	0.033683    	VZ1.SAT.NBN.015 	;
 2071            	1031.3700   	0.055383    	VZ1.SAT.NBN.015 	;
 2072            	1026.3000   	0.000000    	VZ1.SAT.NBN.015 	;
 2073            	1026.6600   	0.045564    	VZ1.SAT.NBN.015 	;
 2074            	1023.9800   	0.000000    	VZ1.SAT.NBN.015 	;
 2075            	1032.4500   	0.056361    	VZ1.SAT.NBN.015 	;
 2076            	1030.2300   	0.085596    	VZ1.SAT.NBN.015 	;
 2077            	1032.2300   	0.000000    	VZ1.SAT.NBN.015 	;
 2078            	1032.0200   	0.000000    	VZ1.SAT.NBN.015 	;
 2079            	1031.6200   	0.064068    	VZ1.SAT.NBN.015 	;
 2080            	1027.7500   	0.068482    	VZ1.SAT.NBN.015 	;
 2081            	1027.8900   	0.023309    	VZ1.SAT.NBN.015 	;
 2082            	1030.0000   	0.144164    	VZ1.SAT.NBN.015 	;
 2083            	1030.3600   	0.089196    	VZ1.SAT.NBN.015 	;
 2084            	1025.9800   	0.000000    	VZ1.SAT.NBN.015 	;
 2085            	1022.9200   	0.294953    	VZ1.SAT.NBN.015 	;
 2086            	1022.9200   	0.160763    	VZ1.SAT.NBN.015 	;
 2087            	1017.3200   	0.028485    	VZ1.SAT.NBN.015 	;
 2088            	1029.4800   	0.000000    	VZ1.SAT.NBN.015 	;
 2089            	1030.6600   	0.000000    	VZ1.SAT.NBN.015 	;
 2090            	1031.0400   	0.032153    	VZ1.SAT.NBN.015 	;
 2091            	1020.7400   	0.032153    	VZ1.SAT.NBN.015 	;
 2092            	1032.0200   	0.000000    	VZ1.SAT.NBN.015 	;
 2093            	1020.4500   	0.000000    	VZ1.SAT.NBN.015 	;
 2094            	1040.3600   	0.000000    	VZ1.SAT.NBN.014 	;
 2095            	1042.0100   	0.000000    	VZ1.SAT.NBN.014 	;
 2096            	1030.4600   	0.025305    	VZ1.SAT.NBN.014 	;
 2097            	1026.8800   	0.014200    	VZ1.SAT.NBN.014 	;
 2098            	1026.9800   	0.000000    	VZ1.SAT.NBN.014 	;
 2099            	1024.0800   	0.000000    	VZ1.SAT.NBN.014 	;
 2100            	1025.0000   	0.000000    	VZ1.SAT.NBN.014 	;
 2101            	1025.0000   	0.003714    	VZ1.SAT.NBN.014 	;
 2102            	1019.0000   	0.004411    	VZ1.SAT.NBN.014 	;
 2103            	1025.0000   	0.040899    	VZ1.SAT.NBN.014 	;
 2104            	1028.3600   	0.042795    	VZ1.SAT.NBN.014 	;
 2105            	1028.1800   	0.000000    	VZ1.SAT.NBN.014 	;
 2106            	1028.0200   	0.003211    	VZ1.SAT.NBN.014 	;
 2107            	1027.3300   	0.000000    	VZ1.SAT.NBN.014 	;
 2108            	1026.5000   	0.000000    	VZ1.SAT.NBN.014 	;
 2109            	1018.9700   	0.038697    	VZ1.SAT.NBN.014 	;
 2110            	1028.5900   	0.087956    	VZ1.SAT.NBN.014 	;
 2111            	1020.4600   	0.021701    	VZ1.SAT.NBN.015 	;
 2112            	1030.0000   	0.000000    	VZ1.SAT.NBN.015 	;
 2113            	1030.0000   	0.000000    	VZ1.SAT.NBN.015 	;
 2114            	1020.0000   	0.027276    	VZ1.SAT.NBN.015 	;
 2115            	1019.1700   	0.003845    	VZ1.SAT.NBN.015 	;
 2116            	1020.0000   	0.044394    	VZ1.SAT.NBN.015 	;
 2117            	1020.9400   	0.008618    	VZ1.SAT.NBN.015 	;
 2118            	1020.0300   	0.136378    	VZ1.SAT.NBN.015 	;
 2119            	1020.0000   	0.280612    	VZ1.SAT.NBN.015 	;
 2120            	1021.5100   	0.245482    	VZ1.SAT.NBN.015 	;
 2121            	1047.2000   	0.000000    	VZ1.SAT.NBN.014 	;
 2122            	1048.2300   	0.007827    	VZ1.SAT.NBN.015 	;
 2123            	1023.5200   	0.042686    	VZ1.SAT.NBN.015 	;
 2124            	1024.1600   	0.116842    	VZ1.SAT.NBN.015 	;
 2125            	1040.4300   	0.153561    	VZ1.SAT.NBN.015 	;
 2126            	1045.1900   	0.000000    	VZ1.SAT.NBN.015 	;
 2127            	1045.3900   	0.000000    	VZ1.SAT.NBN.015 	;
 2128            	1050.0000   	0.037858    	VZ1.SAT.NBN.015 	;
 2129            	1045.4500   	0.050405    	VZ1.SAT.NBN.015 	;
 2130            	1043.5200   	0.038260    	VZ1.SAT.NBN.015 	;
 2131            	1044.9800   	0.048402    	VZ1.SAT.NBN.015 	;
 2132            	1041.3000   	0.001964    	VZ1.SAT.NBN.015 	;
 2133            	1041.1500   	0.054551    	VZ1.SAT.NBN.015 	;
 2134            	1040.8500   	0.000000    	VZ1.SAT.NBN.015 	;
 2135            	1047.2800   	0.030847    	VZ1.SAT.NBN.015 	;
 2136            	1025.0000   	0.000000    	VZ1.SAT.NBN.015 	;
 2137            	1039.6400   	0.000000    	VZ1.DMC.API.001 	;
 2138            	1034.3300   	0.126607    	VZ1.DMC.API.001 	;
 2139            	1032.2800   	0.797717    	VZ1.DMC.API.001 	;
 2140            	1032.2500   	0.307618    	VZ1.SAT.NBN.015 	;
 2141            	1025.0000   	0.000000    	VZ1.SAT.NBN.015 	;
 2142            	1026.4800   	0.019910    	VZ1.SAT.NBN.015 	;
 2143            	1024.4800   	0.001857    	VZ1.SAT.NBN.014 	;
 2144            	1020.7300   	0.000000    	VZ1.SAT.NBN.014 	;
 2145            	1029.1900   	0.000000    	VZ1.SAT.NBN.014 	;
 2146            	1029.1900   	0.032193    	VZ1.SAT.NBN.014 	;
 2147            	1024.1900   	0.079324    	VZ1.SAT.NBN.014 	;
 2148            	1017.4300   	0.014433    	VZ1.SAT.NBN.014 	;
 2149            	1027.9000   	0.110414    	VZ1.SAT.NBN.014 	;
 2150            	1044.1200   	0.000000    	VZ1.SAT.NBN.014 	;
 2151            	1017.0600   	0.117012    	VZ1.SAT.NBN.014 	;
 2152            	1017.8200   	0.031767    	VZ1.SAT.NBN.014 	;
 2153            	1044.4600   	0.041985    	VZ1.SAT.NBN.014 	;
 2154            	1042.4500   	0.038697    	VZ1.SAT.NBN.014 	;
 2155            	1043.4200   	0.050940    	VZ1.SAT.NBN.014 	;
 2156            	1042.7600   	0.072747    	VZ1.SAT.NBN.014 	;
 2157            	1047.2700   	0.163160    	VZ1.SAT.NBN.014 	;
 2158            	1041.1200   	0.000000    	VZ1.SAT.NBN.014 	;
 2159            	1041.4500   	0.000000    	VZ1.SAT.NBN.014 	;
 2160            	1042.1500   	0.044133    	VZ1.SAT.NBN.014 	;
 2161            	1041.7900   	0.001270    	VZ1.SAT.NBN.014 	;
 2162            	1041.7900   	0.000232    	VZ1.SAT.NBN.014 	;
 2163            	1041.5800   	0.038697    	VZ1.SAT.NBN.014 	;
 2164            	1041.3400   	0.000000    	VZ1.SAT.NBN.014 	;
 2165            	1042.7200   	0.027080    	VZ1.SAT.NBN.014 	;
 2166            	1046.1900   	0.101563    	VZ1.SAT.NBN.014 	;
 2167            	1048.9800   	0.002347    	VZ1.SAT.NBN.014 	;
 2168            	1050.0000   	0.103299    	VZ1.SAT.NBN.014 	;
 2169            	1050.0000   	0.073176    	VZ1.SAT.NBN.014 	;
 2170            	1047.4300   	0.156831    	VZ1.SAT.NBN.014 	;
 2171            	1048.8800   	0.000000    	VZ1.SAT.NBN.014 	;
 2172            	1044.2100   	0.000000    	VZ1.SAT.NBN.014 	;
 2173            	1038.8500   	0.000000    	VZ1.SAT.NBN.014 	;
 2174            	1039.5200   	0.034244    	VZ1.SAT.NBN.014 	;
 2175            	1029.6600   	0.145144    	VZ1.SAT.NBN.014 	;
 2176            	1032.9000   	0.000000    	VZ1.SAT.NBN.014 	;
 2177            	1032.3100   	0.050495    	VZ1.SAT.NBN.014 	;
 2178            	1044.6700   	0.121078    	VZ1.SAT.NBN.014 	;
 2179            	1044.0500   	0.024880    	VZ1.SAT.NBN.014 	;
 2180            	1043.7300   	0.006152    	VZ1.SAT.NBN.014 	;
 2181            	1043.2900   	0.080604    	VZ1.SAT.NBN.014 	;
 2182            	1042.9900   	0.100966    	VZ1.SAT.NBN.014 	;
 2183            	1042.1000   	0.008280    	VZ1.SAT.NBN.014 	;
 2184            	1042.1000   	0.015593    	VZ1.SAT.NBN.014 	;
 2185            	1041.6000   	0.026505    	VZ1.SAT.NBN.014 	;
 2186            	1029.7800   	0.081411    	VZ1.SAT.NBN.014 	;
 2187            	1029.2200   	0.237664    	VZ1.SAT.NBN.014 	;
 2188            	1029.5600   	0.115174    	VZ1.SAT.NBN.014 	;
 2189            	1029.3700   	0.171263    	VZ1.SAT.NBN.014 	;
 2190            	1029.6400   	0.059510    	VZ1.SAT.NBN.014 	;
 2191            	1029.4100   	0.074523    	VZ1.SAT.NBN.014 	;
 2192            	1029.1000   	0.070890    	VZ1.SAT.NBN.014 	;
 2193            	1029.2700   	0.110011    	VZ1.SAT.NBN.014 	;
 2194            	1035.0000   	0.129509    	VZ1.SAT.NBN.014 	;
 2195            	1033.3500   	0.295242    	VZ1.SAT.NBN.014 	;
 2196            	1033.1400   	0.460820    	VZ1.SAT.NBN.014 	;
 2197            	1033.3800   	0.077929    	VZ1.SAT.NBN.014 	;
 2198            	1033.1600   	0.045116    	VZ1.SAT.NBN.014 	;
 2199            	1032.6700   	0.013814    	VZ1.SAT.NBN.014 	;
 2200            	1033.2000   	0.018186    	VZ1.SAT.NBN.014 	;
 2201            	1045.3600   	0.069728    	VZ1.SAT.NBN.014 	;
 2202            	1044.7600   	0.061446    	VZ1.SAT.NBN.014 	;
 2203            	1044.2700   	0.035675    	VZ1.SAT.NBN.014 	;
 2204            	1043.5200   	0.021707    	VZ1.SAT.NBN.014 	;
 2205            	1042.8800   	0.084790    	VZ1.SAT.NBN.014 	;
 2206            	1046.6900   	0.032316    	VZ1.SAT.NBN.014 	;
 2207            	1045.5200   	0.045272    	VZ1.SAT.NBN.014 	;
 2208            	1044.9800   	0.069342    	VZ1.SAT.NBN.014 	;
 2209            	1044.1700   	0.120732    	VZ1.SAT.NBN.014 	;
 2210            	1043.8400   	0.064737    	VZ1.SAT.NBN.014 	;
 2211            	1043.5900   	0.072514    	VZ1.SAT.NBN.014 	;
 2212            	1044.5900   	0.153080    	VZ1.SAT.NBN.014 	;
 2213            	1044.1300   	0.028710    	VZ1.SAT.NBN.014 	;
 2214            	1043.6400   	0.100260    	VZ1.SAT.NBN.014 	;
 2215            	1043.1800   	0.074410    	VZ1.SAT.NBN.014 	;
 2216            	1042.6800   	0.020237    	VZ1.SAT.NBN.014 	;
 2217            	1038.8500   	0.017722    	VZ1.SAT.NBN.014 	;
 2218            	1043.4200   	0.099430    	VZ1.SAT.NBN.014 	;
 2219            	1043.8000   	0.047558    	VZ1.SAT.NBN.014 	;
 2220            	1044.7700   	0.036836    	VZ1.SAT.NBN.014 	;
 2221            	1045.4700   	0.017876    	VZ1.SAT.NBN.014 	;
 2222            	1047.0200   	0.019037    	VZ1.SAT.NBN.014 	;
 2223            	1047.7200   	0.010834    	VZ1.SAT.NBN.014 	;
 2224            	1045.0000   	0.098171    	VZ1.SAT.NBN.014 	;
 2225            	1045.0000   	0.025808    	VZ1.SAT.NBN.014 	;
 2226            	1045.0000   	0.057794    	VZ1.SAT.NBN.014 	;
 2227            	1043.1900   	0.090507    	VZ1.SAT.NBN.014 	;
 2228            	1045.0000   	0.036681    	VZ1.SAT.NBN.014 	;
 2229            	1045.0000   	0.062609    	VZ1.SAT.NBN.014 	;
 2230            	1045.0000   	0.051792    	VZ1.SAT.NBN.014 	;
 2231            	1045.0000   	0.106180    	VZ1.SAT.NBN.014 	;
 2232            	1044.4100   	0.035018    	VZ1.SAT.NBN.014 	;
 2233            	1043.1100   	0.030761    	VZ1.SAT.NBN.014 	;
 2234            	1042.4700   	0.015942    	VZ1.SAT.NBN.014 	;
 2235            	1042.4700   	0.107651    	VZ1.SAT.NBN.014 	;
 2236            	1045.0000   	0.007391    	VZ1.SAT.NBN.014 	;
 2237            	1045.0000   	0.067600    	VZ1.SAT.NBN.014 	;
 2238            	1045.0000   	0.046973    	VZ1.SAT.NBN.014 	;
 2239            	1045.0000   	0.102230    	VZ1.SAT.NBN.014 	;
 2240            	1045.0000   	0.160084    	VZ1.SAT.NBN.014 	;
 2241            	1045.0000   	0.147840    	VZ1.SAT.NBN.014 	;
 2242            	1044.1600   	0.027279    	VZ1.SAT.NBN.014 	;
 2243            	1042.9100   	0.023254    	VZ1.SAT.NBN.014 	;
 2244            	1045.0000   	0.019424    	VZ1.SAT.NBN.014 	;
 2245            	1045.0000   	0.063731    	VZ1.SAT.NBN.014 	;
 2246            	1045.0000   	0.143080    	VZ1.SAT.NBN.014 	;
 2247            	1045.0000   	0.152690    	VZ1.SAT.NBN.014 	;
 2248            	1045.0000   	0.048795    	VZ1.SAT.NBN.014 	;
 2249            	1045.0000   	0.020971    	VZ1.SAT.NBN.014 	;
 2250            	1045.0000   	0.107187    	VZ1.SAT.NBN.014 	;
 2251            	1045.0000   	0.029213    	VZ1.SAT.NBN.014 	;
 2252            	1045.0000   	0.104439    	VZ1.SAT.NBN.014 	;
 2253            	1045.0000   	0.075378    	VZ1.SAT.NBN.014 	;
 2254            	1041.9700   	0.219558    	VZ1.SAT.NBN.014 	;
 2255            	1042.8400   	0.082149    	VZ1.SAT.NBN.014 	;
 2256            	1033.6900   	0.024841    	VZ1.SAT.NBN.014 	;
 2257            	1038.1100   	0.252254    	VZ1.SAT.NBN.014 	;
 2258            	1043.8800   	0.002245    	VZ1.SAT.NBN.014 	;
 2259            	1043.4200   	0.010640    	VZ1.SAT.NBN.014 	;
 2260            	1042.4800   	0.021939    	VZ1.SAT.NBN.014 	;
 2261            	1042.0100   	0.012227    	VZ1.SAT.NBN.014 	;
 2262            	1042.0100   	0.011299    	VZ1.SAT.NBN.014 	;
 2263            	1044.3300   	0.042217    	VZ1.SAT.NBN.014 	;
 2264            	1044.8900   	0.024184    	VZ1.SAT.NBN.014 	;
 2265            	1045.0000   	0.031302    	VZ1.SAT.NBN.014 	;
 2266            	1045.0000   	0.033161    	VZ1.SAT.NBN.014 	;
 2267            	1045.0000   	0.045235    	VZ1.SAT.NBN.014 	;
 2268            	1045.0000   	0.022016    	VZ1.SAT.NBN.014 	;
 2269            	1045.0000   	0.019694    	VZ1.SAT.NBN.014 	;
 2270            	1045.0000   	0.040550    	VZ1.SAT.NBN.014 	;
 2271            	1045.0000   	0.064463    	VZ1.SAT.NBN.014 	;
 2272            	1047.7600   	0.111088    	VZ1.SAT.NBN.014 	;
 2273            	1041.2200   	0.000000    	VZ1.SAT.NBN.015 	;
 2274            	1031.9600   	0.049994    	VZ1.SAT.NBN.015 	;
 2275            	1035.0000   	0.007073    	VZ1.SAT.NBN.015 	;
 2276            	1046.3000   	0.000000    	VZ1.SAT.NBN.015 	;
 2277            	1015.0000   	0.437695    	VZ1.SAT.NBN.015 	;
 2278            	1026.5900   	0.000000    	VZ1.SAT.NBN.015 	;
 2279            	1026.4800   	0.000000    	VZ1.SAT.NBN.015 	;
 2280            	1032.9400   	0.000000    	VZ1.SAT.NBN.015 	;
 2281            	1033.2700   	0.000000    	VZ1.SAT.NBN.015 	;
 2282            	1015.5600   	0.010320    	VZ1.SAT.NBN.015 	;
 2283            	1043.7200   	0.038697    	VZ1.SAT.NBN.014 	;
 2284            	1041.4600   	0.000000    	VZ1.SAT.NBN.015 	;
 2285            	1028.5900   	0.054551    	VZ1.SAT.NBN.015 	;
 2286            	1041.4800   	0.000000    	VZ1.SAT.NBN.015 	;
 2287            	1036.1700   	0.000000    	VZ1.SAT.NBN.014 	;
 2288            	1033.3700   	0.000000    	VZ1.SAT.NBN.014 	;
 2289            	1039.4000   	0.028130    	VZ1.SAT.NBN.014 	;
 2290            	1045.0000   	0.000000    	VZ1.SAT.NBN.014 	;
 2291            	1046.5300   	0.000000    	VZ1.SAT.NBN.015 	;
 2292            	1049.4000   	0.000000    	VZ1.SAT.NBN.015 	;
 2293            	1036.0200   	0.001479    	VZ1.SAT.NBN.014 	;
 2294            	1049.0300   	0.000000    	VZ1.SAT.NBN.015 	;
 2295            	1047.2700   	0.000000    	VZ1.SAT.NBN.015 	;
 2296            	1046.8400   	0.000000    	VZ1.SAT.NBN.015 	;
 2297            	1046.8400   	0.000000    	VZ1.SAT.NBN.015 	;
 2298            	1035.0000   	0.024443    	VZ1.SAT.NBN.015 	;
 2299            	1041.3000   	0.000000    	VZ1.SAT.NBN.015 	;
 2300            	1023.7600   	0.027276    	VZ1.SAT.NBN.015 	;
 2301            	1033.9200   	0.099513    	VZ1.SAT.NBN.015 	;
 2302            	1026.7100   	0.000000    	VZ1.SAT.NBN.015 	;
 2303            	1026.7100   	0.013567    	VZ1.SAT.NBN.015 	;
 2305            	1030.1300   	0.000000    	VZ1.SAT.NBN.015 	;
 2306            	1043.9900   	0.000000    	VZ1.SAT.NBN.015 	;
 2307            	1043.9900   	0.000000    	VZ1.SAT.NBN.015 	;
 2308            	1044.6800   	0.000000    	VZ1.SAT.NBN.015 	;
 2309            	1045.9000   	0.000000    	VZ1.SAT.NBN.015 	;
 2310            	1047.0200   	0.000000    	VZ1.SAT.NBN.015 	;
 2311            	1040.4300   	0.000000    	VZ1.DMC.API.001 	;
 2312            	1038.3100   	0.000000    	VZ1.SAT.NBN.015 	;
 2313            	1028.5700   	0.000000    	VZ1.SAT.NBN.015 	;
 2314            	1028.5700   	0.000000    	VZ1.SAT.NBN.015 	;
 2315            	1027.9300   	0.000000    	VZ1.SAT.NBN.015 	;
 2316            	1029.3400   	0.000000    	VZ1.SAT.NBN.015 	;
 2317            	1029.3400   	0.000000    	VZ1.SAT.NBN.015 	;
 2318            	1035.0000   	0.000000    	VZ1.SAT.NBN.015 	;
 2319            	1040.2900   	0.000000    	VZ1.SAT.NBN.015 	;
 2320            	1040.4300   	0.000000    	VZ1.SAT.NBN.015 	;
 2321            	1027.2900   	0.010127    	VZ1.SAT.NBN.015 	;
 2322            	1020.6700   	0.000000    	VZ1.SAT.NBN.015 	;
 2323            	1022.8200   	0.000000    	VZ1.SAT.NBN.015 	;
 2324            	1025.0000   	0.000000    	VZ1.SAT.NBN.015 	;
 2325            	1023.7700   	0.000000    	VZ1.SAT.NBN.015 	;
 2326            	1023.3400   	0.000000    	VZ1.SAT.NBN.015 	;
 2327            	1023.3400   	0.000000    	VZ1.SAT.NBN.015 	;
 2328            	1022.2900   	0.000000    	VZ1.SAT.NBN.015 	;
 2329            	1022.0100   	0.000000    	VZ1.SAT.NBN.015 	;
 2330            	1015.4200   	0.097532    	VZ1.SAT.NBN.015 	;
 2331            	1031.0800   	0.000000    	VZ1.SAT.NBN.014 	;
 2332            	1030.6500   	0.000000    	VZ1.SAT.NBN.015 	;
 2333            	1034.7700   	0.000000    	VZ1.SAT.NBN.014 	;
 2334            	1034.7700   	0.106368    	VZ1.SAT.NBN.014 	;
 2335            	1047.8900   	0.000000    	VZ1.SAT.NBN.015 	;
 2336            	1040.0000   	0.138915    	VZ1.SAT.NBN.015 	;
 2337            	1040.0000   	0.000000    	VZ1.SAT.NBN.014 	;
 2338            	1025.0000   	0.000000    	VZ1.SAT.NBN.015 	;
 2339            	1025.0700   	0.000000    	VZ1.SAT.NBN.015 	;
 2340            	1041.4100   	0.000000    	VZ1.SAT.NBN.015 	;
 2343            	1041.4600   	0.000000    	VZ1.SAT.NBN.015 	;
 2344            	1041.5000   	0.000000    	VZ1.SAT.NBN.015 	;
 2345            	1040.1700   	0.032429    	VZ1.SAT.NBN.015 	;
 2346            	1045.1900   	0.027276    	VZ1.SAT.NBN.015 	;
 2347            	1050.0000   	0.015300    	VZ1.SAT.NBN.015 	;
 2348            	1050.0000   	0.000000    	VZ1.SAT.NBN.015 	;
 2349            	1050.0000   	0.000000    	VZ1.SAT.NBN.015 	;
 2350            	1043.8500   	0.101886    	VZ1.SAT.NBN.015 	;
 2351            	1020.8800   	0.000000    	VZ1.SAT.NBN.014 	;
 2352            	1027.2000   	0.008435    	VZ1.SAT.NBN.014 	;
 2353            	1036.6700   	0.000000    	VZ1.SAT.NBN.014 	;
 2354            	1039.8300   	0.000000    	VZ1.SAT.NBN.015 	;
 2355            	1028.7700   	0.000000    	VZ1.SAT.NBN.015 	;
 2357            	1046.5300   	0.000000    	VZ1.SAT.NBN.015 	;
 2358            	1046.5300   	0.000000    	VZ1.SAT.NBN.015 	;
 2359            	1046.5300   	0.000000    	VZ1.SAT.NBN.015 	;
 2360            	1046.2300   	0.000000    	VZ1.SAT.NBN.015 	;
 2361            	1035.9900   	0.000000    	VZ1.SAT.NBN.014 	;
 2362            	1035.9900   	0.011879    	VZ1.SAT.NBN.014 	;
 2363            	1035.2000   	0.043146    	VZ1.SAT.NBN.014 	;
 2364            	1035.2000   	0.061446    	VZ1.SAT.NBN.014 	;
 2365            	1035.4000   	0.053087    	VZ1.SAT.NBN.014 	;
 2366            	1017.3900   	0.031651    	VZ1.SAT.NBN.014 	;
 2367            	1015.9900   	0.000000    	VZ1.SAT.NBN.014 	;
 2368            	1015.0000   	0.031535    	VZ1.SAT.NBN.014 	;
 2369            	1011.0200   	0.136906    	VZ1.SAT.NBN.014 	;
 2370            	1020.1600   	0.000000    	VZ1.SAT.NBN.014 	;
 2371            	1018.4600   	0.017063    	VZ1.SAT.NBN.014 	;
 2372            	1014.5900   	0.019811    	VZ1.SAT.NBN.014 	;
 2373            	1021.1000   	0.007583    	VZ1.SAT.NBN.014 	;
 2374            	1021.3200   	0.000000    	VZ1.SAT.NBN.014 	;
 2375            	1021.0900   	0.000000    	VZ1.SAT.NBN.014 	;
 2376            	1020.7500   	0.000503    	VZ1.SAT.NBN.014 	;
 2377            	1020.2600   	0.055622    	VZ1.SAT.NBN.014 	;
 2378            	1020.0000   	0.000000    	VZ1.SAT.NBN.014 	;
 2379            	1020.4100   	0.004179    	VZ1.SAT.NBN.014 	;
 2380            	1050.0000   	0.000000    	VZ1.SAT.NBN.015 	;
 2381            	1036.9500   	0.000000    	VZ1.SAT.NBN.015 	;
 2382            	1025.0000   	0.000000    	VZ1.SAT.NBN.015 	;
 2383            	1025.0000   	0.000000    	VZ1.SAT.NBN.015 	;
 2384            	1015.0000   	0.000000    	VZ1.SAT.NBN.015 	;
 2385            	1041.3900   	0.000000    	VZ1.SAT.NBN.015 	;
 2386            	1041.7600   	0.000000    	VZ1.SAT.NBN.015 	;
 2387            	1041.3100   	0.000000    	VZ1.SAT.NBN.015 	;
 2388            	1041.6600   	0.000000    	VZ1.SAT.NBN.015 	;
 2389            	1041.0800   	0.000000    	VZ1.SAT.NBN.015 	;
 2390            	1041.1100   	0.000000    	VZ1.SAT.NBN.015 	;
 2391            	1036.1800   	0.000000    	VZ1.SAT.NBN.014 	;
 2392            	1036.2900   	0           	VZ1.SAT.NBN.014 	;
 2393            	1047.8900   	0.000000    	VZ1.SAT.NBN.015 	;
 2394            	1045.3200   	0.076389    	VZ1.SAT.NBN.015 	;
 2395            	1030.0000   	0.038100    	VZ1.SAT.NBN.015 	;
 2396            	1030.4400   	0.026492    	VZ1.SAT.NBN.015 	;
 2397            	1030.8700   	0.015464    	VZ1.SAT.NBN.015 	;
 2398            	1026.7300   	0.000000    	VZ1.SAT.NBN.015 	;
 2399            	1028.2400   	0.000000    	VZ1.SAT.NBN.015 	;
 2400            	1019.0200   	0.000000    	VZ1.SAT.NBN.015 	;
 2401            	1036.8300   	0.000000    	VZ1.SAT.NBN.014 	;
 2402            	1038.0800   	0.000000    	VZ1.SAT.NBN.014 	;
 2403            	1037.8000   	0.000000    	VZ1.SAT.NBN.014 	;
 2404            	1040.2500   	0.037680    	VZ1.SAT.NBN.014 	;
 2405            	1041.0400   	0.000000    	VZ1.SAT.NBN.014 	;
 2406            	1041.0400   	0.000000    	VZ1.SAT.NBN.014 	;
 2407            	1049.5900   	0.138985    	VZ1.SAT.NBN.014 	;
 2408            	1050.2000   	0.040284    	VZ1.SAT.NBN.014 	;
 2409            	1050.3900   	0.000070    	VZ1.SAT.NBN.014 	;
 2410            	1029.6600   	0.046208    	VZ1.SAT.NBN.014 	;
 2411            	1035.7500   	0.000000    	VZ1.SAT.NBN.014 	;
 PM.VRP.CND.002  	1036.1800   	0.000000    	VZ1.SAT.NBN.014 	;
 2413            	1019.2800   	0.000000    	VZ1.SAT.NBN.015 	;
 2414            	1038.7200   	0.000000    	VZ1.SAT.NBN.015 	;
 2415            	1038.3200   	0.000000    	VZ1.SAT.NBN.015 	;
 2416            	1038.9200   	0.032103    	VZ1.SAT.NBN.015 	;
 2417            	1039.8100   	0.081827    	VZ1.SAT.NBN.015 	;
 2418            	1040.0000   	0.027276    	VZ1.SAT.NBN.015 	;
 2419            	1040.2600   	0.000000    	VZ1.SAT.NBN.015 	;
 2420            	1040.3400   	0.000000    	VZ1.SAT.NBN.015 	;
 2421            	1040.5300   	0.000000    	VZ1.SAT.NBN.015 	;
 2422            	1040.3400   	0.000000    	VZ1.SAT.NBN.015 	;
 2423            	1040.5300   	0.000000    	VZ1.SAT.NBN.015 	;
 2424            	1040.0000   	0.000000    	VZ1.SAT.NBN.015 	;
 2425            	1039.8200   	0.000000    	VZ1.SAT.NBN.015 	;
 2426            	1039.8900   	0.000000    	VZ1.SAT.NBN.015 	;
 2427            	1039.4200   	0.000000    	VZ1.SAT.NBN.015 	;
 2428            	1038.7500   	0.000000    	VZ1.SAT.NBN.015 	;
 2429            	1038.8500   	0.027276    	VZ1.SAT.NBN.015 	;
 2430            	1038.6700   	0.000000    	VZ1.SAT.NBN.015 	;
 2431            	1038.2800   	0.045789    	VZ1.SAT.NBN.015 	;
 2432            	1037.4900   	0.027276    	VZ1.SAT.NBN.015 	;
 2433            	1035.7700   	0.411675    	VZ1.SAT.NBN.015 	;
 2434            	1035.5300   	0.683916    	VZ1.SAT.NBN.015 	;
 2435            	1050.1300   	0.000000    	VZ1.SAT.NBN.015 	;
 2436            	1050.1300   	0.000000    	VZ1.SAT.NBN.015 	;
 2437            	1050.4400   	0.000000    	VZ1.SAT.NBN.015 	;
 2438            	1050.0200   	0.000000    	VZ1.SAT.NBN.015 	;
 2439            	1050.0000   	0.000000    	VZ1.SAT.NBN.015 	;
 2440            	1050.0000   	0.000000    	VZ1.SAT.NBN.015 	;
 2441            	1050.0000   	0.000000    	VZ1.SAT.NBN.015 	;
 2442            	1050.0000   	0.000000    	VZ1.SAT.NBN.015 	;
 PM.VRP.SPW.010  	1050.0000   	0.000000    	VZ1.SAT.NBN.015 	;
 2444            	1050.0000   	0.000000    	VZ1.SAT.NBN.015 	;
 2445            	1050.0000   	0.000000    	VZ1.SAT.NBN.015 	;
 2446            	1050.0000   	0.000000    	VZ1.SAT.NBN.015 	;
 2447            	1050.0000   	0.000000    	VZ1.SAT.NBN.015 	;
 2448            	1050.0000   	0.000000    	VZ1.SAT.NBN.015 	;
 2449            	1050.0000   	0.000000    	VZ1.SAT.NBN.015 	;
 2450            	1050.0000   	0.000000    	VZ1.SAT.NBN.015 	;
 2451            	1050.0000   	0.000000    	VZ1.SAT.NBN.015 	;
 2452            	1050.0000   	0.000000    	VZ1.SAT.NBN.015 	;
 2453            	1050.0000   	0.000000    	VZ1.SAT.NBN.015 	;
 2454            	1050.0000   	0.000000    	VZ1.SAT.NBN.015 	;
 2455            	1050.0000   	0.000000    	VZ1.SAT.NBN.015 	;
 2456            	1050.0000   	0.000000    	VZ1.SAT.NBN.015 	;
 2457            	1047.9700   	0.000000    	VZ1.SAT.NBN.015 	;
 2458            	1046.7800   	0.000000    	VZ1.SAT.NBN.015 	;
 2459            	1046.5300   	0.000000    	VZ1.SAT.NBN.015 	;
 2460            	1050.0000   	0.000000    	VZ1.SAT.NBN.015 	;
 2461            	1050.0000   	0.000000    	VZ1.SAT.NBN.015 	;
 2462            	1050.0000   	0.000000    	VZ1.SAT.NBN.015 	;
 2463            	1050.0000   	0.000000    	VZ1.SAT.NBN.015 	;
 2464            	1028.0800   	0.000000    	VZ1.SAT.NBN.015 	;
 PM.VRP.NBN.005  	1026.7300   	0.000000    	VZ1.SAT.NBN.015 	;
 2466            	1027.4400   	0.095720    	VZ1.SAT.NBN.015 	;
 2467            	1023.2700   	0.102524    	VZ1.SAT.NBN.015 	;
 2468            	1023.7800   	0.175732    	VZ1.SAT.NBN.015 	;
 2469            	1023.4500   	0.307600    	VZ1.SAT.NBN.015 	;
 2470            	1022.2100   	0.201128    	VZ1.SAT.NBN.015 	;
 2471            	1030.0000   	0.075602    	VZ1.SAT.NBN.015 	;
 2472            	1031.8000   	0.096744    	VZ1.SAT.NBN.015 	;
 2473            	1032.3600   	0.000000    	VZ1.SAT.NBN.015 	;
 2474            	1022.9700   	0.000000    	VZ1.SAT.NBN.015 	;
 2475            	1022.2500   	0.060852    	VZ1.SAT.NBN.015 	;
 2476            	1022.0000   	0.261802    	VZ1.SAT.NBN.015 	;
 2477            	1020.6900   	0.121438    	VZ1.SAT.NBN.015 	;
 2478            	1020.8400   	0.203312    	VZ1.SAT.NBN.015 	;
 2479            	1020.8800   	0.197381    	VZ1.SAT.NBN.015 	;
 2480            	1020.8500   	0.081827    	VZ1.SAT.NBN.015 	;
 2481            	1021.2400   	0.000000    	VZ1.SAT.NBN.015 	;
 2482            	1021.7200   	0.000000    	VZ1.SAT.NBN.015 	;
 2483            	1021.7200   	0.026101    	VZ1.SAT.NBN.015 	;
 2484            	1022.5700   	0.068952    	VZ1.SAT.NBN.015 	;
 2485            	1023.3000   	0.000000    	VZ1.SAT.NBN.015 	;
 2486            	1023.6100   	0.000000    	VZ1.SAT.NBN.015 	;
 2487            	1020.8500   	0.000000    	VZ1.SAT.NBN.015 	;
 2488            	1020.8500   	0.000000    	VZ1.SAT.NBN.015 	;
 2489            	1020.0200   	0.000000    	VZ1.SAT.NBN.015 	;
 2490            	1015.0000   	0.298120    	VZ1.SAT.NBN.015 	;
 2491            	1020.7400   	0.000000    	VZ1.SAT.NBN.015 	;
 2492            	1020.7400   	0.000000    	VZ1.SAT.NBN.015 	;
 2493            	1022.9800   	0.000000    	VZ1.SAT.NBN.015 	;
 2494            	1046.2300   	0.000000    	VZ1.SAT.NBN.015 	;
 2495            	1041.6000   	0.027276    	VZ1.SAT.NBN.015 	;
 2496            	1040.4000   	0.000000    	VZ1.SAT.NBN.015 	;
 2497            	1041.4300   	0.062052    	VZ1.SAT.NBN.014 	;
 2498            	1042.0500   	0.000000    	VZ1.SAT.NBN.014 	;
 2499            	1043.5600   	0.131876    	VZ1.SAT.NBN.014 	;
 2500            	1041.9900   	0.000000    	VZ1.SAT.NBN.014 	;
 2501            	1025.0000   	0.000000    	VZ1.SAT.NBN.015 	;
 2502            	1025.0000   	0.000000    	VZ1.SAT.NBN.015 	;
 2503            	1025.0000   	0.004758    	VZ1.SAT.NBN.015 	;
 2504            	1025.0000   	0.000000    	VZ1.SAT.NBN.015 	;
 2505            	1025.0000   	0.025881    	VZ1.SAT.NBN.015 	;
 2527            	1044.6800   	0.000000    	VZ1.SAT.NBN.015 	;
 2528            	1043.9900   	0.000000    	VZ1.SAT.NBN.015 	;
 2529            	1043.3500   	0.000000    	VZ1.SAT.NBN.015 	;
 2530            	1042.0700   	0.000000    	VZ1.SAT.NBN.015 	;
 2531            	1040.2900   	0.000000    	VZ1.SAT.NBN.015 	;
 2532            	1039.7200   	0.000000    	VZ1.SAT.NBN.015 	;
 2533            	1038.9500   	0.000000    	VZ1.SAT.NBN.015 	;
 2534            	1038.1700   	0.000000    	VZ1.SAT.NBN.015 	;
 2535            	1037.5900   	0.000000    	VZ1.SAT.NBN.015 	;
 2536            	1036.5300   	0.000000    	VZ1.SAT.NBN.015 	;
 2537            	1036.2600   	0.000000    	VZ1.SAT.NBN.015 	;
 2538            	1036.2600   	0.000000    	VZ1.SAT.NBN.015 	;
 2539            	1036.3600   	0.000000    	VZ1.SAT.NBN.015 	;
 2540            	1035.4300   	0.000000    	VZ1.SAT.NBN.015 	;
 2541            	1035.0000   	0.000000    	VZ1.SAT.NBN.015 	;
 2542            	1035.0000   	0.000000    	VZ1.SAT.NBN.015 	;
 2543            	1035.0000   	0.000000    	VZ1.SAT.NBN.015 	;
 2544            	1035.0000   	0.000000    	VZ1.SAT.NBN.015 	;
 2545            	1035.0000   	0.000000    	VZ1.SAT.NBN.015 	;
 2546            	1033.2700   	0.000000    	VZ1.SAT.NBN.015 	;
 PM.VRP.GUA.014  	1034.2200   	0.064305    	VZ1.SAT.NBN.015 	;
 2548            	1033.7700   	0.000000    	VZ1.SAT.NBN.015 	;
 2550            	1034.2200   	0.032153    	VZ1.DMC.API.001 	;
 2551            	1034.2200   	0.089570    	VZ1.DMC.API.001 	;
 2552            	1034.2200   	0.074171    	VZ1.DMC.API.001 	;
 2553            	1034.7800   	0.020480    	VZ1.DMC.API.001 	;
 2554            	1035.1100   	0.000000    	VZ1.DMC.API.001 	;
 2555            	1037.2400   	0.004276    	VZ1.DMC.API.001 	;
 2556            	1038.1000   	0.000000    	VZ1.DMC.API.001 	;
 2557            	1039.2000   	0.000000    	VZ1.DMC.API.001 	;
 2558            	1040.3300   	0.000000    	VZ1.DMC.API.001 	;
 2559            	1041.5500   	0.000000    	VZ1.DMC.API.001 	;
 2560            	1042.8600   	0.000000    	VZ1.DMC.API.001 	;
 2561            	1043.5800   	0.000000    	VZ1.DMC.API.001 	;
 2562            	1044.4200   	0.000000    	VZ1.DMC.API.001 	;
 2563            	1045.0000   	0.003890    	VZ1.DMC.API.001 	;
 2564            	1045.6100   	0.000000    	VZ1.DMC.API.001 	;
 2565            	1046.6000   	0.000000    	VZ1.DMC.API.001 	;
 2566            	1047.2700   	0.266022    	VZ1.DMC.API.001 	;
 2567            	1047.4800   	0.000000    	VZ1.DMC.API.001 	;
 2568            	1047.4800   	0.000000    	VZ1.DMC.API.001 	;
 2569            	1048.4400   	0.000000    	VZ1.DMC.API.001 	;
 2570            	1048.7200   	0.032153    	VZ1.DMC.API.001 	;
 2571            	1049.0800   	0.000000    	VZ1.DMC.API.001 	;
 2572            	1049.8600   	0.000000    	VZ1.DMC.API.001 	;
 2573            	1050.0000   	0.000000    	VZ1.DMC.API.001 	;
 2574            	1051.0000   	0.000000    	VZ1.DMC.API.001 	;
 2575            	1052.6900   	0.008906    	VZ1.DMC.API.001 	;
 2576            	1052.8400   	0.000000    	VZ1.DMC.API.001 	;
 2577            	1053.3500   	0.071601    	VZ1.DMC.API.001 	;
 2578            	1053.3800   	0.032153    	VZ1.DMC.API.001 	;
 2579            	1053.6400   	0.000000    	VZ1.DMC.API.001 	;
 2580            	1053.9300   	0.000000    	VZ1.DMC.API.001 	;
 2581            	1054.2500   	0.000000    	VZ1.DMC.API.001 	;
 2582            	1054.4700   	0.000000    	VZ1.DMC.API.001 	;
 2583            	1054.6400   	0.006719    	VZ1.DMC.API.001 	;
 2584            	1054.5700   	0.000000    	VZ1.DMC.API.001 	;
 2585            	1054.2500   	0.028678    	VZ1.DMC.API.001 	;
 2586            	1053.5400   	0.032153    	VZ1.DMC.API.001 	;
 2587            	1052.7500   	0.128611    	VZ1.DMC.API.001 	;
 2588            	1051.3200   	0.008809    	VZ1.DMC.API.001 	;
 2589            	1050.3400   	0.000000    	VZ1.DMC.API.001 	;
 2590            	1049.0100   	0.000000    	VZ1.DMC.API.001 	;
 2591            	1047.7800   	0.188178    	VZ1.DMC.API.001 	;
 2592            	1046.6300   	0.003215    	VZ1.DMC.API.001 	;
 2593            	1045.6000   	0.000000    	VZ1.DMC.API.001 	;
 2594            	1044.6000   	0.000000    	VZ1.DMC.API.001 	;
 2595            	1043.5000   	0.000000    	VZ1.DMC.API.001 	;
 2596            	1042.5200   	0.000000    	VZ1.DMC.API.001 	;
 2597            	1041.6100   	0.000000    	VZ1.DMC.API.001 	;
 2598            	1040.8600   	0.000000    	VZ1.DMC.API.001 	;
 2599            	1040.0000   	0.004083    	VZ1.DMC.API.001 	;
 2600            	1041.7800   	0.000000    	VZ1.DMC.API.001 	;
 2601            	1043.1100   	0.000000    	VZ1.DMC.API.001 	;
 2602            	1044.4000   	0.032761    	VZ1.DMC.API.001 	;
 2603            	1044.8100   	0.050703    	VZ1.DMC.API.001 	;
 2604            	1045.2200   	0.000000    	VZ1.DMC.API.001 	;
 2605            	1045.6600   	0.032153    	VZ1.DMC.API.001 	;
 2606            	1045.7200   	0.117447    	VZ1.DMC.API.001 	;
 2607            	1045.6600   	0.062082    	VZ1.DMC.API.001 	;
 2608            	1045.3800   	0.010320    	VZ1.DMC.API.001 	;
 2609            	1044.8500   	0.036458    	VZ1.DMC.API.001 	;
 2610            	1044.0300   	0.140881    	VZ1.DMC.API.001 	;
 2611            	1043.2600   	0.013439    	VZ1.DMC.API.001 	;
 2612            	1042.4600   	0.078054    	VZ1.DMC.API.001 	;
 2613            	1041.5300   	0.014564    	VZ1.DMC.API.001 	;
 2614            	1041.2400   	0.181404    	VZ1.DMC.API.001 	;
 2615            	1039.9200   	0.050993    	VZ1.DMC.API.001 	;
 2616            	1038.3400   	0.006912    	VZ1.DMC.API.001 	;
 2617            	1036.7200   	0.024328    	VZ1.DMC.API.001 	;
 2618            	1035.4400   	0.021595    	VZ1.DMC.API.001 	;
 2619            	1033.1500   	0.067065    	VZ1.DMC.API.001 	;
 2620            	1031.0300   	0.007684    	VZ1.DMC.API.001 	;
 2621            	1029.5000   	0.150433    	VZ1.DMC.API.001 	;
 2622            	1028.5400   	0.093916    	VZ1.DMC.API.001 	;
 2623            	1027.6000   	0.144901    	VZ1.DMC.API.001 	;
 2624            	1026.7600   	0.014789    	VZ1.DMC.API.001 	;
 2625            	1026.8500   	0.064043    	VZ1.DMC.API.001 	;
 2626            	1027.0100   	0.019740    	VZ1.DMC.API.001 	;
 2627            	1027.6000   	0.015239    	VZ1.DMC.API.001 	;
 2628            	1027.9400   	0.012378    	VZ1.DMC.API.001 	;
 2629            	1028.2600   	0.008584    	VZ1.DMC.API.001 	;
 2630            	1028.6400   	0.000000    	VZ1.DMC.API.001 	;
 2631            	1029.1100   	0.081825    	VZ1.DMC.API.001 	;
 2632            	1029.6500   	0.095165    	VZ1.DMC.API.001 	;
 2633            	1029.8300   	0.189344    	VZ1.DMC.API.001 	;
 2634            	1030.6500   	0.209047    	VZ1.DMC.API.001 	;
 2635            	1030.7700   	0.069417    	VZ1.DMC.API.001 	;
 2636            	1031.3300   	0.000000    	VZ1.DMC.API.001 	;
 2637            	1031.6300   	0.000000    	VZ1.DMC.API.001 	;
 2638            	1031.8400   	0.000000    	VZ1.DMC.API.001 	;
 2639            	1031.7500   	0.001254    	VZ1.DMC.API.001 	;
 2640            	1031.5900   	0.000000    	VZ1.DMC.API.001 	;
 2641            	1031.2400   	0.019676    	VZ1.DMC.API.001 	;
 2642            	1030.7700   	0.094457    	VZ1.DMC.API.001 	;
 2643            	1030.2100   	0.004308    	VZ1.DMC.API.001 	;
 2644            	1028.7800   	0.035786    	VZ1.DMC.API.001 	;
 2645            	1026.9900   	0.058998    	VZ1.DMC.API.001 	;
 2646            	1029.3400   	0.000000    	VZ1.DMC.API.001 	;
 2647            	1030.7000   	0.012185    	VZ1.DMC.API.001 	;
 2648            	1031.5900   	0.013857    	VZ1.DMC.API.001 	;
 2649            	1032.5400   	0.098446    	VZ1.DMC.API.001 	;
 2650            	1033.5500   	0.105676    	VZ1.DMC.API.001 	;
 2651            	1034.6300   	0.000000    	VZ1.DMC.API.001 	;
 2652            	1036.0700   	0.007266    	VZ1.DMC.API.001 	;
 2653            	1036.9000   	0.060991    	VZ1.DMC.API.001 	;
 2654            	1038.4600   	0.000000    	VZ1.DMC.API.001 	;
 2655            	1039.9800   	0.000000    	VZ1.DMC.API.001 	;
 2656            	1040.9600   	0.000000    	VZ1.DMC.API.001 	;
 2657            	1040.9600   	0.000000    	VZ1.DMC.API.001 	;
 2658            	1039.9000   	0.008681    	VZ1.DMC.API.001 	;
 2659            	1038.5700   	0.028453    	VZ1.DMC.API.001 	;
 2660            	1037.0300   	0.049739    	VZ1.DMC.API.001 	;
 2661            	1035.5400   	0.008970    	VZ1.DMC.API.001 	;
 2662            	1034.8200   	0.018936    	VZ1.DMC.API.001 	;
 2663            	1033.8700   	0.053147    	VZ1.DMC.API.001 	;
 2664            	1032.9800   	0.023727    	VZ1.DMC.API.001 	;
 2665            	1032.1700   	0.017554    	VZ1.DMC.API.001 	;
 2666            	1040.4400   	0.004405    	VZ1.DMC.API.001 	;
 2667            	1040.8100   	0.000000    	VZ1.DMC.API.001 	;
 2668            	1040.9400   	0.000000    	VZ1.DMC.API.001 	;
 2669            	1041.0900   	0.003537    	VZ1.DMC.API.001 	;
 2670            	1040.9600   	0.000000    	VZ1.DMC.API.001 	;
 2671            	1040.4300   	0.000000    	VZ1.DMC.API.001 	;
 2672            	1040.2300   	0.000000    	VZ1.DMC.API.001 	;
 2673            	1039.5800   	0.000000    	VZ1.DMC.API.001 	;
 2674            	1039.7800   	0.139067    	VZ1.DMC.API.001 	;
 2675            	1039.5800   	0.000000    	VZ1.DMC.API.001 	;
 2676            	1039.5800   	0.000000    	VZ1.DMC.API.001 	;
 2677            	1039.9800   	0.000000    	VZ1.DMC.API.001 	;
 2678            	1039.5700   	0.000000    	VZ1.DMC.API.001 	;
 2679            	1039.2400   	0.000000    	VZ1.DMC.API.001 	;
 2680            	1038.7600   	0.004469    	VZ1.DMC.API.001 	;
 2681            	1038.1700   	0.004630    	VZ1.DMC.API.001 	;
 2682            	1037.5200   	0.000354    	VZ1.DMC.API.001 	;
 2683            	1036.8500   	0.000000    	VZ1.DMC.API.001 	;
 2684            	1036.1300   	0.000000    	VZ1.DMC.API.001 	;
 2685            	1035.3000   	0.000000    	VZ1.DMC.API.001 	;
 2686            	1034.3600   	0.000000    	VZ1.DMC.API.001 	;
 2687            	1033.3400   	0.032271    	VZ1.DMC.API.001 	;
 2688            	1033.5500   	0.086618    	VZ1.DMC.API.001 	;
 2689            	1032.3900   	0.164448    	VZ1.DMC.API.001 	;
 2690            	1031.0100   	0.000000    	VZ1.DMC.API.001 	;
 2691            	1030.2400   	0.000000    	VZ1.DMC.API.001 	;
 2692            	1030.0000   	0.012346    	VZ1.DMC.API.001 	;
 2693            	1029.8400   	0.000000    	VZ1.DMC.API.001 	;
 2694            	1029.7400   	0.000000    	VZ1.DMC.API.001 	;
 2695            	1029.8100   	0.064305    	VZ1.DMC.API.001 	;
 2696            	1030.1600   	0.000000    	VZ1.DMC.API.001 	;
 2697            	1030.1000   	0.000000    	VZ1.DMC.API.001 	;
 2698            	1030.4500   	0.032150    	VZ1.DMC.API.001 	;
 2699            	1031.2800   	0.070896    	VZ1.DMC.API.001 	;
 2700            	1031.6300   	0.000000    	VZ1.DMC.API.001 	;
 2701            	1030.6200   	0.000000    	VZ1.DMC.API.001 	;
 2702            	1029.6000   	0.000000    	VZ1.DMC.API.001 	;
 2703            	1028.5500   	0.004887    	VZ1.DMC.API.001 	;
 2704            	1027.0400   	0.010385    	VZ1.DMC.API.001 	;
 2705            	1025.5500   	0.007395    	VZ1.DMC.API.001 	;
 2706            	1025.0700   	0.000000    	VZ1.DMC.API.001 	;
 2707            	1023.2700   	0.008552    	VZ1.DMC.API.001 	;
 2708            	1022.0400   	0.019708    	VZ1.DMC.API.001 	;
 2709            	1020.1300   	0.021862    	VZ1.DMC.API.001 	;
 2710            	1020.0000   	0.025270    	VZ1.DMC.API.001 	;
 2711            	1020.0000   	0.032153    	VZ1.DMC.API.001 	;
 2712            	1031.6900   	0.000000    	VZ1.DMC.API.001 	;
 2713            	1032.7100   	0.000000    	VZ1.DMC.API.001 	;
 2714            	1031.3100   	0.000000    	VZ1.DMC.API.001 	;
 2715            	1030.8500   	0.000000    	VZ1.DMC.API.001 	;
 2716            	1029.4000   	0.000000    	VZ1.DMC.API.001 	;
 2717            	1029.4700   	0.010513    	VZ1.DMC.API.001 	;
 2718            	1030.0600   	0.007041    	VZ1.DMC.API.001 	;
 2719            	1030.2600   	0.000000    	VZ1.DMC.API.001 	;
 2720            	1029.6200   	0.000000    	VZ1.DMC.API.001 	;
 2721            	1029.8700   	0.000000    	VZ1.DMC.API.001 	;
 2722            	1029.8700   	0.146192    	VZ1.DMC.API.001 	;
 2723            	1031.0400   	0.000000    	VZ1.SAT.NBN.015 	;
 PM.VRP.NBN.001  	1020.7400   	0.000000    	VZ1.SAT.NBN.015 	;
 2731            	1050.0000   	0.000000    	VZ1.SAT.NBN.015 	;
 2732            	1041.8600   	0.000000    	VZ1.SAT.NBN.015 	;
 2733            	1041.3000   	0.000000    	VZ1.SAT.NBN.015 	;
 2734            	1041.8800   	0.000000    	VZ1.SAT.NBN.015 	;
 2735            	1018.7200   	0.000000    	VZ1.SAT.NBN.015 	;
 2736            	1018.3800   	0.000000    	VZ1.SAT.NBN.015 	;
 2737            	1026.9600   	0.000000    	VZ1.SAT.NBN.014 	;
 2738            	1045.0000   	0.000000    	VZ1.SAT.NBN.014 	;
 2739            	1030.3300   	0.012699    	VZ1.SAT.NBN.015 	;
 2740            	1030.2300   	0.049675    	VZ1.SAT.NBN.015 	;
 2741            	1030.2300   	0.090026    	VZ1.SAT.NBN.015 	;
 2742            	1030.6500   	0.000000    	VZ1.SAT.NBN.015 	;
 2743            	1030.6500   	0.000000    	VZ1.SAT.NBN.015 	;
 2744            	1030.8700   	0.000000    	VZ1.SAT.NBN.015 	;
 2745            	1030.8700   	0.000000    	VZ1.SAT.NBN.015 	;
 2746            	1034.9200   	0.000000    	VZ1.SAT.NBN.014 	;
 2747            	1034.9200   	0.000000    	VZ1.SAT.NBN.014 	;
 2748            	1041.3800   	0.005031    	VZ1.SAT.NBN.014 	;
 2749            	1041.3800   	0.000000    	VZ1.SAT.NBN.014 	;
 2750            	1031.9300   	0.029385    	VZ1.SAT.NBN.015 	;
 2751            	1050.0000   	0.000000    	VZ1.SAT.NBN.015 	;
 2752            	1050.0000   	0.000000    	VZ1.SAT.NBN.015 	;
 2753            	1050.0000   	0.000000    	VZ1.SAT.NBN.015 	;
 2754            	1020.7400   	0.000000    	VZ1.SAT.NBN.015 	;
 2755            	1020.7400   	0.000000    	VZ1.SAT.NBN.015 	;
 2756            	1020.7400   	0.000000    	VZ1.SAT.NBN.015 	;
 2757            	1036.6100   	0.000000    	VZ1.SAT.NBN.014 	;
 2758            	1037.0300   	0.000000    	VZ1.SAT.NBN.014 	;
 2759            	1037.0300   	0.000000    	VZ1.SAT.NBN.014 	;
 2760            	1037.0300   	0.000000    	VZ1.SAT.NBN.014 	;
 2761            	1037.0500   	0.000000    	VZ1.SAT.NBN.014 	;
 2762            	1037.0000   	0.000000    	VZ1.SAT.NBN.014 	;
 2763            	1037        	0.032153    	VZ1.SAT.NBN.014 	;
 2764            	1025.0000   	0.104815    	VZ1.SAT.NBN.015 	;
 2767            	1025.0000   	0.000000    	VZ1.SAT.NBN.015 	;
 2768            	1025.0000   	0.000000    	VZ1.SAT.NBN.015 	;
 2769            	1025.0000   	0.010545    	VZ1.SAT.NBN.015 	;
 2770            	1025.0000   	0.032153    	VZ1.SAT.NBN.015 	;
 2771            	1025.0000   	0.000000    	VZ1.SAT.NBN.015 	;
 2772            	1035.0000   	0.000000    	VZ1.SAT.NBN.015 	;
 2773            	1035.0000   	0.000000    	VZ1.SAT.NBN.015 	;
 2774            	1042.2900   	0.000000    	VZ1.SAT.NBN.015 	;
 2775            	1044.9900   	0.000000    	VZ1.SAT.NBN.015 	;
 2776            	1046.8500   	0.000000    	VZ1.SAT.NBN.015 	;
 2777            	1047.8200   	0.000000    	VZ1.SAT.NBN.015 	;
 2778            	1049.7500   	0.000000    	VZ1.SAT.NBN.015 	;
 2779            	1051.1100   	0.000000    	VZ1.SAT.NBN.015 	;
 2780            	1053.4400   	0.000000    	VZ1.SAT.NBN.015 	;
 2781            	1055.7300   	0.000000    	VZ1.SAT.NBN.015 	;
 2782            	1056.1300   	0.000000    	VZ1.SAT.NBN.015 	;
 2783            	1054.0600   	0.000000    	VZ1.SAT.NBN.015 	;
 2784            	1051.9500   	0.000000    	VZ1.SAT.NBN.015 	;
 2785            	1050.5900   	0.000000    	VZ1.SAT.NBN.015 	;
 2786            	1049.7100   	0.000000    	VZ1.SAT.NBN.015 	;
 2787            	1047.7900   	0.000000    	VZ1.SAT.NBN.015 	;
 2788            	1046.8400   	0.000000    	VZ1.SAT.NBN.015 	;
 2789            	1041.3800   	0.000000    	VZ1.SAT.NBN.014 	;
 2790            	1035.9200   	0.093015    	VZ1.SAT.NBN.014 	;
 2791            	1035.3800   	0.134543    	VZ1.SAT.NBN.014 	;
 2792            	1035.3500   	0.000000    	VZ1.SAT.NBN.014 	;
 2793            	1035.5800   	0.038307    	VZ1.SAT.NBN.014 	;
 2794            	1035.5000   	0.027665    	VZ1.SAT.NBN.014 	;
 2795            	1035.5200   	0.000000    	VZ1.SAT.NBN.014 	;
 2796            	1035.2900   	0.000000    	VZ1.SAT.NBN.014 	;
 2797            	1035.3800   	0.000000    	VZ1.SAT.NBN.014 	;
 2798            	1035.6100   	0.000000    	VZ1.SAT.NBN.014 	;
 2799            	1040.0900   	0.000000    	VZ1.SAT.NBN.014 	;
 2800            	1040.7100   	0.000000    	VZ1.SAT.NBN.014 	;
 2801            	1048.0100   	0.000000    	VZ1.SAT.NBN.015 	;
 2802            	1048.3600   	0.000000    	VZ1.SAT.NBN.015 	;
 2803            	1042.8800   	0.000000    	VZ1.SAT.NBN.014 	;
 2804            	1042.8800   	0.000000    	VZ1.SAT.NBN.014 	;
 2805            	1042.8800   	0.013564    	VZ1.SAT.NBN.014 	;
 2806            	1042.8800   	0.000000    	VZ1.SAT.NBN.014 	;
 2808            	1041.3500   	0.000000    	VZ1.SAT.NBN.014 	;
 2809            	1042.2500   	0.000000    	VZ1.SAT.NBN.014 	;
 2810            	1045.0000   	0.002089    	VZ1.SAT.NBN.014 	;
 2811            	1045.0000   	0.000000    	VZ1.SAT.NBN.014 	;
 2812            	1043.3200   	0.000000    	VZ1.SAT.NBN.014 	;
 2813            	1041.8000   	0.000000    	VZ1.SAT.NBN.014 	;
 PM.VRP.CND.003  	1041.3500   	0.026196    	VZ1.SAT.NBN.014 	;
 2815            	1049.8400   	0.000000    	VZ1.SAT.NBN.015 	;
 2816            	1049.5100   	0.000000    	VZ1.SAT.NBN.015 	;
 2817            	1049.3900   	0.000000    	VZ1.SAT.NBN.015 	;
 2818            	1049.0600   	0.000000    	VZ1.SAT.NBN.015 	;
 2819            	1048.9500   	0.000000    	VZ1.SAT.NBN.015 	;
 2820            	1048.6500   	0.000000    	VZ1.SAT.NBN.015 	;
 2821            	1048.6000   	0.000000    	VZ1.SAT.NBN.015 	;
 2822            	1041.3000   	0.000000    	VZ1.SAT.NBN.015 	;
 2823            	1033.3700   	0.038697    	VZ1.SAT.NBN.014 	;
 2825            	1053.4000   	0.000000    	VZ1.SAT.NBN.015 	;
 2826            	1050.5900   	0.000000    	VZ1.SAT.NBN.015 	;
 2827            	1049.7100   	0.000000    	VZ1.SAT.NBN.015 	;
 2828            	1047.7900   	0.000000    	VZ1.SAT.NBN.015 	;
 2829            	1046.7300   	0.000000    	VZ1.SAT.NBN.015 	;
 2830            	1046.8400   	0.000000    	VZ1.SAT.NBN.015 	;
 2831            	1043.9900   	0.000000    	VZ1.SAT.NBN.015 	;
 2832            	1040.7800   	0.000000    	VZ1.SAT.NBN.015 	;
 2833            	1038.5600   	0.000000    	VZ1.SAT.NBN.015 	;
 2834            	1036.4500   	0.000000    	VZ1.SAT.NBN.015 	;
 2835            	1036.3000   	0.000000    	VZ1.SAT.NBN.015 	;
 2836            	1035.0000   	0.000000    	VZ1.SAT.NBN.015 	;
 2837            	1035.0000   	0.000000    	VZ1.SAT.NBN.015 	;
 2838            	1035.0000   	0.000000    	VZ1.SAT.NBN.015 	;
 2839            	1041.4800   	0.000000    	VZ1.SAT.NBN.015 	;
 2840            	1041.9900   	0.001663    	VZ1.SAT.NBN.014 	;
 2841            	1041.9900   	0.000000    	VZ1.SAT.NBN.014 	;
 2842            	1041.9900   	0.000000    	VZ1.SAT.NBN.014 	;
 2843            	1035.0000   	0.000000    	VZ1.SAT.NBN.014 	;
 2844            	1035.4100   	0.000000    	VZ1.SAT.NBN.014 	;
 2845            	1035.8500   	0.000000    	VZ1.SAT.NBN.014 	;
 2846            	1035.8000   	0.029368    	VZ1.SAT.NBN.014 	;
 2847            	1036.0000   	0.025731    	VZ1.SAT.NBN.014 	;
 2848            	1036.0900   	0.012653    	VZ1.SAT.NBN.014 	;
 2849            	1036.7400   	0.030817    	VZ1.SAT.NBN.014 	;
 2850            	1036.0600   	0.002554    	VZ1.SAT.NBN.014 	;
 2851            	1036.0100   	0.082019    	VZ1.SAT.NBN.014 	;
 2852            	1036.6000   	0.078315    	VZ1.SAT.NBN.014 	;
 2853            	1036.4900   	0.000000    	VZ1.SAT.NBN.014 	;
 2854            	1036.0000   	0.044613    	VZ1.SAT.NBN.014 	;
 2855            	1036.4100   	0.000000    	VZ1.SAT.NBN.014 	;
 2856            	1036.400    	0.000000    	VZ1.SAT.NBN.014 	;
 PM.VRP.CND.001  	1036.3000   	0.000000    	VZ1.SAT.NBN.014 	;
 2858            	1036.8000   	0.000000    	VZ1.SAT.NBN.014 	;
 2859            	1036.8000   	0.000000    	VZ1.SAT.NBN.014 	;
 2861            	1036.8000   	0.000000    	VZ1.SAT.NBN.014 	;
 2862            	1030.3300   	0.008616    	VZ1.SAT.NBN.015 	;
 2863            	1030.7600   	0.123914    	VZ1.SAT.NBN.015 	;
 2864            	1031.4000   	0.059030    	VZ1.SAT.NBN.015 	;
 2865            	1023.6300   	0.032153    	VZ1.SAT.NBN.015 	;
 9999            	1048.4500   	0.000000    	VZ1.SAT.NBN.015 	;
 2869            	1041.8800   	0.000000    	VZ1.SAT.NBN.015 	;
 VZ1.SAT.NBN.014 	1028.0900   	0.000000    	VZ1.SAT.NBN.014 	;
 2871            	1028.4500   	0.000000    	VZ1.SAT.NBN.014 	;
 2872            	1028.4500   	0.000000    	VZ1.SAT.NBN.014 	;
 2873            	1028.4500   	0.000000    	VZ1.SAT.NBN.014 	;
 2874            	1028.4500   	0.000000    	VZ1.SAT.NBN.014 	;
 2875            	1029.5300   	0.000000    	VZ1.SAT.NBN.014 	;
 2876            	1029.4400   	0.000000    	VZ1.SAT.NBN.014 	;
 2877            	1036.8300   	0.000000    	VZ1.SAT.NBN.014 	;
 2878            	1037.3500   	0.000000    	VZ1.SAT.NBN.014 	;
 2879            	1019.4300   	0.000000    	VZ1.SAT.NBN.015 	;
 2880            	1019.5700   	0.000000    	VZ1.SAT.NBN.015 	;
 2881            	1020.0000   	0.000000    	VZ1.SAT.NBN.015 	;
 2882            	1020.9200   	0.000000    	VZ1.SAT.NBN.015 	;
 2883            	1022.6600   	0.000000    	VZ1.SAT.NBN.015 	;
 2884            	1023.2300   	0.000000    	VZ1.SAT.NBN.015 	;
 2885            	1023.2300   	0.000000    	VZ1.SAT.NBN.015 	;
 2886            	1023.2300   	0.000000    	VZ1.SAT.NBN.015 	;
 2887            	1022.1000   	0.000000    	VZ1.SAT.NBN.015 	;
 105             	1041.6000   	0.000000    	Nivel           	;
 382             	1040.4300   	0.000000    	VZ1.SAT.NBN.015 	;

[RESERVOIRS]
;ID              	Head        	Pattern         
 2341            	1162.1400   	                	;

[TANKS]
;ID              	Elevation   	InitLevel   	MinLevel    	MaxLevel    	Diameter    	MinVol      	VolCurve        	Overflow

[PIPES]
;ID              	Node1           	Node2           	Length      	Diameter    	Roughness   	MinorLoss   	Status
 0               	2774            	2775            	48.2941     	90.0000     	130.0000    	0.0000      	Open  	;
 1               	2819            	2820            	10.6121     	300.0000    	120.0000    	0.0000      	Open  	;
 2               	2820            	2821            	10.1079     	300.0000    	120.0000    	0.0000      	Open  	;
 3               	2768            	2769            	40.6542     	63.0000     	140.0000    	0.0000      	Open  	;
 4               	2769            	2770            	70.9398     	63.0000     	140.0000    	0.0000      	Open  	;
 5               	2821            	2802            	7.8000      	300.0000    	120.0000    	0.0000      	Open  	;
 6               	2749            	2789            	0.4262      	100.0000    	130.0000    	0.0000      	Open  	;
 7               	2739            	2862            	2.6094      	85.0000     	132.0000    	0.0000      	Open  	;
 8               	2862            	2863            	2.6094      	85.0000     	132.0000    	0.0000      	Open  	;
 9               	1102            	2767            	4.9106      	63.0000     	140.0000    	0.0000      	Open  	;
 10              	2802            	2801            	17.3730     	300.0000    	120.0000    	0.0000      	Open  	;
 11              	2770            	2771            	2.0000      	63.0000     	140.0000    	0.0000      	Open  	;
 12              	2772            	2773            	1.6250      	90.0000     	130.0000    	0.0000      	Open  	;
 13              	2745            	2397            	0.6737      	85.0000     	132.0000    	0.0000      	Open  	;
 14              	2397            	2864            	18.7402     	85.0000     	132.0000    	0.0000      	Open  	;
 15              	2864            	2750            	19.6142     	85.0000     	132.0000    	0.0000      	Open  	;
 16              	1174            	2865            	2.5009      	32.0000     	135.0000    	0.0000      	Open  	;
 17              	2786            	2787            	44.7648     	90.0000     	130.0000    	0.0000      	Open  	;
 18              	2785            	2786            	26.3579     	90.0000     	130.0000    	0.0000      	Open  	;
 19              	2773            	2774            	147.3425    	90.0000     	130.0000    	0.0000      	Open  	;
 20              	2784            	2785            	21.5156     	90.0000     	140.0000    	0.0000      	Open  	;
 21              	2543            	2772            	2.5874      	90.0000     	130.0000    	0.0000      	Open  	;
 22              	2801            	2457            	13.8129     	300.0000    	120.0000    	0.0000      	Open  	;
 23              	2767            	2768            	50.4083     	63.0000     	140.0000    	0.0000      	Open  	;
 24              	2778            	2779            	51.1879     	90.0000     	130.0000    	0.0000      	Open  	;
 25              	2780            	2781            	51.2979     	90.0000     	130.0000    	0.0000      	Open  	;
 26              	2779            	2780            	49.2177     	90.0000     	130.0000    	0.0000      	Open  	;
 27              	2783            	2784            	20.7769     	90.0000     	140.0000    	0.0000      	Open  	;
 28              	2787            	2788            	15.0001     	90.0000     	130.0000    	0.0000      	Open  	;
 29              	2777            	2778            	49.2840     	90.0000     	130.0000    	0.0000      	Open  	;
 30              	2776            	2777            	26.8625     	90.0000     	130.0000    	0.0000      	Open  	;
 31              	2790            	2746            	0.5741      	50.0000     	130.0000    	0.0000      	Open  	;
 32              	2456            	2815            	13.5803     	300.0000    	120.0000    	0.0000      	Open  	;
 33              	2788            	2527            	42.3530     	90.0000     	130.0000    	0.0000      	Open  	;
 34              	2781            	2782            	11.8729     	90.0000     	140.0000    	0.0000      	Open  	;
 35              	2782            	2783            	33.0486     	90.0000     	140.0000    	0.0000      	Open  	;
 36              	2815            	2816            	15.4292     	300.0000    	120.0000    	0.0000      	Open  	;
 37              	2816            	2817            	10.0055     	300.0000    	120.0000    	0.0000      	Open  	;
 38              	2817            	2818            	10.0055     	300.0000    	120.0000    	0.0000      	Open  	;
 39              	2818            	2819            	10.6121     	300.0000    	120.0000    	0.0000      	Open  	;
 40              	2775            	2776            	37.0981     	90.0000     	130.0000    	0.0000      	Open  	;
 45              	2744            	2745            	3.3821      	85.0000     	132.0000    	0.0000      	Open  	;
 48              	2501            	2502            	27.3776     	200.0000    	120.0000    	0.0000      	Open  	;
 49              	2500            	2498            	1.1340      	60          	132         	0.0000      	Open  	;
 50              	2502            	2503            	14.0388     	200.0000    	120.0000    	0.0000      	Open  	;
 51              	2090            	2723            	1.0000      	60.0000     	137.0000    	0.0000      	Open  	;
 56              	232             	1076            	51.4135     	100.0000    	108.0000    	0.0000      	Open  	;
 60              	2338            	2501            	11.2480     	200.0000    	120.0000    	0.0000      	Open  	;
 63              	2746            	2747            	0.9138      	50.0000     	118.0000    	0.0000      	Open  	;
 65              	2305            	2471            	14.8587     	100.0000    	108.0000    	0.0000      	Open  	;
 66              	175             	2753            	0.2753      	75.0000     	108.0000    	0.0000      	Open  	;
 67              	2752            	171             	17.1407     	100.0000    	108.0000    	0.0000      	Open  	;
 68              	395             	2752            	0.0434      	100.0000    	108.0000    	0.0000      	Open  	;
 69              	2739            	2742            	4.9616      	85.0000     	132.0000    	0.0000      	Open  	;
 70              	2740            	2741            	8.1155      	85.0000     	132.0000    	0.0000      	Open  	;
 71              	2756            	2492            	0.9000      	200.0000    	120.0000    	0.0000      	Open  	;
 72              	2739            	2740            	8.1155      	85.0000     	132.0000    	0.0000      	Open  	;
 73              	158             	1058            	0.5667      	75.0000     	108.0000    	0.0000      	Open  	;
 74              	2751            	234             	11.5883     	60.0000     	122.0000    	0.0000      	Open  	;
 76              	2755            	2756            	0.3853      	200.0000    	120.0000    	0.0000      	Closed	;
 77              	211             	2751            	6.8808      	60.0000     	122.0000    	0.0000      	Open  	;
 78              	2748            	2749            	0.5515      	100.0000    	118.0000    	0.0000      	Open  	;
 80              	2754            	2755            	1.0147      	200.0000    	120.0000    	0.0000      	Open  	;
 81              	1474            	2754            	0.8870      	200.0000    	120.0000    	0.0000      	Open  	;
 82              	2281            	2546            	0.3090      	300.0000    	75.0000     	0.0000      	Open  	;
 83              	2753            	791             	0.2379      	75.0000     	108.0000    	0.0000      	Open  	;
 86              	1144            	2750            	18.9334     	85.0000     	132.0000    	0.0000      	Open  	;
 88              	2750            	1142            	5.7461      	85.0000     	132.0000    	0.0000      	Open  	;
 90              	2743            	2744            	3.3821      	85.0000     	132.0000    	0.0000      	Open  	;
 91              	2742            	2743            	4.9616      	85.0000     	132.0000    	0.0000      	Open  	;
 93              	218             	219             	18.9611     	85.0000     	122.0000    	0.0000      	Open  	;
 94              	1092            	1093            	21.4946     	85.0000     	122.0000    	0.0000      	Open  	;
 95              	216             	217             	17.1820     	85.0000     	122.0000    	0.0000      	Open  	;
 96              	219             	220             	15.3851     	85.0000     	122.0000    	0.0000      	Open  	;
 97              	1093            	1094            	18.6903     	85.0000     	122.0000    	0.0000      	Open  	;
 98              	1094            	1095            	19.8489     	85.0000     	122.0000    	0.0000      	Open  	;
 99              	217             	218             	20.2014     	85.0000     	122.0000    	0.0000      	Open  	;
 100             	233             	234             	0.8253      	85.0000     	122.0000    	0.0000      	Open  	;
 101             	221             	222             	15.7350     	85.0000     	122.0000    	0.0000      	Open  	;
 102             	1087            	1088            	22.3835     	85.0000     	122.0000    	0.0000      	Open  	;
 103             	1088            	1089            	15.8462     	85.0000     	122.0000    	0.0000      	Open  	;
 104             	1089            	1090            	17.3426     	85.0000     	122.0000    	0.0000      	Open  	;
 105             	1090            	1091            	20.4010     	85.0000     	122.0000    	0.0000      	Open  	;
 106             	1091            	1092            	19.8541     	85.0000     	122.0000    	0.0000      	Open  	;
 107             	1095            	1096            	15.3969     	85.0000     	122.0000    	0.0000      	Open  	;
 108             	231             	232             	24.3939     	100.0000    	97.0000     	0.0000      	Open  	;
 109             	220             	221             	19.2636     	85.0000     	122.0000    	0.0000      	Open  	;
 110             	230             	231             	16.8951     	100.0000    	97.0000     	0.0000      	Open  	;
 111             	228             	229             	18.4216     	100.0000    	97.0000     	0.0000      	Open  	;
 112             	227             	228             	25.1650     	100.0000    	97.0000     	0.0000      	Open  	;
 113             	226             	227             	18.3247     	100.0000    	97.0000     	0.0000      	Open  	;
 114             	225             	226             	5.0169      	100.0000    	97.0000     	0.0000      	Open  	;
 115             	175             	225             	5.0333      	100.0000    	97.0000     	0.0000      	Open  	;
 116             	224             	212             	8.6894      	85.0000     	122.0000    	0.0000      	Open  	;
 117             	222             	223             	19.2854     	85.0000     	122.0000    	0.0000      	Open  	;
 118             	229             	230             	18.0055     	100.0000    	97.0000     	0.0000      	Open  	;
 119             	223             	224             	15.6182     	85.0000     	122.0000    	0.0000      	Open  	;
 120             	2836            	2837            	1.5983      	60.0000     	122.0000    	0.0000      	Open  	;
 121             	1097            	1098            	20.6213     	85.0000     	122.0000    	0.0000      	Open  	;
 122             	2830            	2831            	50.1395     	250.0000    	101.0000    	0.0000      	Open  	;
 123             	2829            	2830            	6.2613      	250.0000    	101.0000    	0.0000      	Open  	;
 124             	2828            	2829            	19.4989     	250.0000    	101.0000    	0.0000      	Open  	;
 125             	2827            	2828            	40.9234     	250.0000    	101.0000    	0.0000      	Open  	;
 126             	2826            	2827            	27.9323     	250.0000    	101.0000    	0.0000      	Open  	;
 127             	2825            	2826            	34.0198     	250.0000    	111.0000    	0.0000      	Open  	;
 128             	2831            	2832            	51.7156     	250.0000    	101.0000    	0.0000      	Open  	;
 129             	768             	310             	53.2964     	75.0000     	97.0000     	0.0000      	Open  	;
 130             	388             	389             	0.6118      	75.0000     	97.0000     	0.0000      	Open  	;
 131             	389             	390             	0.7241      	75.0000     	97.0000     	0.0000      	Open  	;
 132             	768             	769             	5.4509      	75.0000     	97.0000     	0.0000      	Open  	;
 133             	769             	770             	5.4508      	75.0000     	97.0000     	0.0000      	Open  	;
 134             	770             	771             	16.6637     	75.0000     	97.0000     	0.0000      	Open  	;
 136             	169             	388             	0.6118      	75.0000     	97.0000     	0.0000      	Open  	;
 137             	1096            	1097            	20.0344     	85.0000     	122.0000    	0.0000      	Open  	;
 138             	754             	755             	10.6116     	85.0000     	97.0000     	0.0000      	Open  	;
 139             	2832            	2833            	45.6853     	250.0000    	101.0000    	0.0000      	Open  	;
 140             	1098            	157             	4.8845      	85.0000     	122.0000    	0.0000      	Open  	;
 141             	2349            	159             	6.2381      	85.0000     	122.0000    	0.0000      	Open  	;
 142             	2348            	2349            	6.2381      	85.0000     	122.0000    	0.0000      	Open  	;
 143             	234             	2348            	9.9834      	85.0000     	122.0000    	0.0000      	Open  	;
 144             	310             	311             	18.6970     	75.0000     	122.0000    	0.0000      	Open  	;
 145             	311             	312             	24.4296     	75.0000     	122.0000    	0.0000      	Open  	;
 146             	751             	171             	25.1489     	100.0000    	97.0000     	0.0000      	Open  	;
 147             	312             	169             	7.2908      	75.0000     	122.0000    	0.0000      	Open  	;
 148             	2836            	2546            	57.6018     	300.0000    	102.0000    	0.0000      	Open  	;
 149             	749             	750             	3.8248      	100.0000    	97.0000     	0.0000      	Open  	;
 150             	750             	751             	18.2071     	100.0000    	97.0000     	0.0000      	Open  	;
 151             	2835            	2836            	47.1999     	250.0000    	101.0000    	0.0000      	Open  	;
 152             	2834            	2835            	59.8592     	250.0000    	101.0000    	0.0000      	Open  	;
 153             	2833            	2834            	58.3235     	250.0000    	101.0000    	0.0000      	Open  	;
 154             	215             	216             	24.9469     	85.0000     	122.0000    	0.0000      	Open  	;
 155             	213             	199             	25.9092     	60.0000     	122.0000    	0.0000      	Open  	;
 156             	214             	215             	22.7435     	85.0000     	122.0000    	0.0000      	Open  	;
 157             	210             	211             	10.5582     	60.0000     	122.0000    	0.0000      	Open  	;
 158             	1070            	1071            	4.1004      	75.0000     	97.0000     	0.0000      	Open  	;
 159             	1071            	1072            	10.3376     	75.0000     	97.0000     	0.0000      	Open  	;
 160             	1072            	1073            	10.3377     	75.0000     	97.0000     	0.0000      	Open  	;
 161             	2446            	2447            	18.5067     	300.0000    	102.0000    	0.0000      	Open  	;
 162             	1073            	1074            	7.3850      	75.0000     	97.0000     	0.0000      	Open  	;
 163             	1074            	1075            	7.3850      	75.0000     	97.0000     	0.0000      	Open  	;
 164             	2447            	2448            	73.0418     	300.0000    	102.0000    	0.0000      	Open  	;
 165             	2448            	2449            	51.8132     	300.0000    	102.0000    	0.0000      	Open  	;
 166             	2449            	2450            	89.6302     	300.0000    	102.0000    	0.0000      	Open  	;
 167             	2450            	2451            	8.1636      	300.0000    	102.0000    	0.0000      	Open  	;
 168             	212             	213             	22.4076     	60.0000     	122.0000    	0.0000      	Open  	;
 169             	2451            	2452            	7.6439      	300.0000    	102.0000    	0.0000      	Open  	;
 170             	2452            	2453            	15.6515     	300.0000    	102.0000    	0.0000      	Open  	;
 171             	2453            	2454            	15.6515     	300.0000    	102.0000    	0.0000      	Open  	;
 172             	1075            	1056            	8.6923      	75.0000     	97.0000     	0.0000      	Open  	;
 173             	1076            	170             	8.2617      	100.0000    	97.0000     	0.0000      	Open  	;
 174             	2454            	2455            	9.2364      	300.0000    	102.0000    	0.0000      	Open  	;
 175             	2455            	2456            	7.0083      	300.0000    	102.0000    	0.0000      	Open  	;
 176             	2457            	2458            	64.6667     	300.0000    	102.0000    	0.0000      	Open  	;
 177             	2458            	2459            	12.5572     	300.0000    	102.0000    	0.0000      	Open  	;
 178             	2459            	2291            	3.9011      	300.0000    	102.0000    	0.0000      	Open  	;
 179             	768             	1070            	4.1005      	75.0000     	97.0000     	0.0000      	Open  	;
 180             	157             	158             	3.5155      	75.0000     	97.0000     	0.0000      	Open  	;
 181             	1069            	1058            	48.9134     	75.0000     	97.0000     	0.0000      	Open  	;
 182             	1067            	1068            	7.2902      	75.0000     	97.0000     	0.0000      	Open  	;
 183             	984             	2395            	21.1799     	85.0000     	132.0000    	0.0000      	Open  	;
 184             	2395            	2396            	19.9223     	85.0000     	132.0000    	0.0000      	Open  	;
 185             	2396            	2397            	18.6677     	85.0000     	132.0000    	0.0000      	Open  	;
 186             	200             	1048            	17.3433     	85.0000     	122.0000    	0.0000      	Open  	;
 187             	1048            	1049            	18.3192     	85.0000     	122.0000    	0.0000      	Open  	;
 188             	1049            	1050            	30.4238     	85.0000     	122.0000    	0.0000      	Open  	;
 189             	1050            	1051            	20.1711     	85.0000     	122.0000    	0.0000      	Open  	;
 190             	1051            	1052            	16.7627     	85.0000     	122.0000    	0.0000      	Open  	;
 191             	1052            	1053            	20.4647     	85.0000     	122.0000    	0.0000      	Open  	;
 192             	1053            	1054            	17.3215     	85.0000     	122.0000    	0.0000      	Open  	;
 193             	1054            	1055            	20.0435     	85.0000     	122.0000    	0.0000      	Open  	;
 194             	1055            	212             	20.5637     	85.0000     	122.0000    	0.0000      	Open  	;
 195             	1056            	1059            	8.6923      	75.0000     	97.0000     	0.0000      	Open  	;
 196             	1059            	1060            	8.6575      	75.0000     	97.0000     	0.0000      	Open  	;
 197             	1060            	1061            	8.6575      	75.0000     	97.0000     	0.0000      	Open  	;
 198             	1061            	1062            	8.6697      	75.0000     	97.0000     	0.0000      	Open  	;
 199             	1062            	1063            	8.6697      	75.0000     	97.0000     	0.0000      	Open  	;
 200             	1063            	1064            	10.5683     	75.0000     	97.0000     	0.0000      	Open  	;
 201             	1064            	1065            	8.6301      	75.0000     	97.0000     	0.0000      	Open  	;
 202             	1065            	1066            	16.2342     	75.0000     	97.0000     	0.0000      	Open  	;
 203             	1066            	1067            	14.6201     	75.0000     	97.0000     	0.0000      	Open  	;
 204             	1068            	1069            	8.1908      	75.0000     	97.0000     	0.0000      	Open  	;
 205             	159             	160             	8.5776      	85.0000     	122.0000    	0.0000      	Open  	;
 206             	791             	792             	0.8086      	75.0000     	97.0000     	0.0000      	Open  	;
 207             	204             	205             	15.6105     	60.0000     	122.0000    	0.0000      	Open  	;
 208             	174             	175             	17.5604     	100.0000    	97.0000     	0.0000      	Open  	;
 209             	207             	208             	19.4685     	60.0000     	122.0000    	0.0000      	Open  	;
 210             	190             	191             	22.9123     	60.0000     	122.0000    	0.0000      	Open  	;
 211             	189             	190             	6.9661      	60.0000     	122.0000    	0.0000      	Open  	;
 212             	187             	188             	19.8537     	85.0000     	122.0000    	0.0000      	Open  	;
 213             	186             	187             	19.2580     	85.0000     	122.0000    	0.0000      	Open  	;
 214             	185             	186             	17.6380     	85.0000     	122.0000    	0.0000      	Open  	;
 215             	184             	185             	15.2293     	85.0000     	122.0000    	0.0000      	Open  	;
 216             	172             	173             	15.4264     	100.0000    	97.0000     	0.0000      	Open  	;
 217             	188             	1084            	9.6806      	85.0000     	122.0000    	0.0000      	Open  	;
 218             	157             	1080            	24.7437     	85.0000     	122.0000    	0.0000      	Open  	;
 219             	209             	210             	22.8103     	60.0000     	122.0000    	0.0000      	Open  	;
 220             	208             	209             	21.4351     	60.0000     	122.0000    	0.0000      	Open  	;
 221             	203             	204             	17.6174     	60.0000     	122.0000    	0.0000      	Open  	;
 222             	183             	184             	4.1941      	85.0000     	122.0000    	0.0000      	Open  	;
 223             	1085            	1086            	17.3243     	85.0000     	122.0000    	0.0000      	Open  	;
 224             	1086            	1087            	21.6173     	85.0000     	122.0000    	0.0000      	Open  	;
 225             	159             	183             	4.1941      	85.0000     	122.0000    	0.0000      	Open  	;
 226             	1084            	1085            	21.8273     	85.0000     	122.0000    	0.0000      	Open  	;
 227             	171             	172             	22.6188     	100.0000    	97.0000     	0.0000      	Open  	;
 228             	173             	174             	17.1237     	100.0000    	97.0000     	0.0000      	Open  	;
 229             	169             	170             	15.6812     	100.0000    	97.0000     	0.0000      	Open  	;
 230             	1080            	1081            	24.7437     	85.0000     	122.0000    	0.0000      	Open  	;
 231             	199             	203             	7.6353      	60.0000     	122.0000    	0.0000      	Open  	;
 232             	205             	206             	22.9883     	60.0000     	122.0000    	0.0000      	Open  	;
 233             	206             	207             	23.8984     	60.0000     	122.0000    	0.0000      	Open  	;
 234             	202             	189             	26.5210     	85.0000     	122.0000    	0.0000      	Open  	;
 235             	201             	202             	18.1403     	85.0000     	122.0000    	0.0000      	Open  	;
 236             	200             	201             	3.4497      	85.0000     	122.0000    	0.0000      	Open  	;
 237             	198             	199             	18.1611     	60.0000     	122.0000    	0.0000      	Open  	;
 238             	191             	192             	19.2549     	60.0000     	122.0000    	0.0000      	Open  	;
 239             	1081            	1082            	7.0771      	85.0000     	122.0000    	0.0000      	Open  	;
 240             	196             	197             	15.8545     	60.0000     	122.0000    	0.0000      	Open  	;
 241             	195             	196             	18.3733     	60.0000     	122.0000    	0.0000      	Open  	;
 242             	194             	195             	18.6269     	60.0000     	122.0000    	0.0000      	Open  	;
 243             	193             	194             	19.7230     	60.0000     	122.0000    	0.0000      	Open  	;
 244             	192             	193             	18.8539     	60.0000     	122.0000    	0.0000      	Open  	;
 245             	1082            	1083            	7.0771      	85.0000     	122.0000    	0.0000      	Open  	;
 246             	1083            	189             	6.8067      	85.0000     	122.0000    	0.0000      	Open  	;
 247             	197             	198             	23.7101     	60.0000     	122.0000    	0.0000      	Open  	;
 248             	2035            	2036            	5.9025      	63.0000     	137.0000    	0.0000      	Open  	;
 249             	896             	907             	2.0793      	60.0000     	132.0000    	0.0000      	Open  	;
 250             	2435            	2436            	4.7221      	600.0000    	79.0000     	0.0000      	Open  	;
 251             	2437            	2438            	78.0885     	600.0000    	79.0000     	0.0000      	Open  	;
 252             	2438            	2439            	56.7531     	600.0000    	79.0000     	0.0000      	Open  	;
 253             	2439            	2440            	14.7720     	600.0000    	79.0000     	0.0000      	Open  	;
 254             	2440            	2441            	15.4084     	600.0000    	79.0000     	0.0000      	Open  	;
 255             	2436            	2437            	4.7139      	600.0000    	79.0000     	0.0000      	Open  	;
 256             	2442            	PM.VRP.SPW.010  	5.2514      	600.0000    	79.0000     	0.0000      	Open  	;
 257             	2445            	2731            	7.7131      	600.0000    	79.0000     	0.0000      	Open  	;
 258             	2498            	2499            	77.4000     	60.0000     	132.0000    	0.0000      	Open  	;
 259             	2463            	2444            	31.9232     	600.0000    	79.0000     	0.0000      	Open  	;
 260             	2462            	2463            	73.9385     	600.0000    	79.0000     	0.0000      	Open  	;
 262             	2461            	2460            	8.2807      	300.0000    	68.0000     	0.0000      	Open  	;
 263             	2460            	2446            	4.2636      	300.0000    	68.0000     	0.0000      	Open  	;
 264             	2441            	2442            	0.4151      	600.0000    	79.0000     	0.0000      	Open  	;
 265             	2731            	2461            	3.0619      	300.0000    	68.0000     	0.0000      	Open  	;
 266             	2444            	2445            	29.4498     	600.0000    	79.0000     	0.0000      	Open  	;
 267             	333             	774             	1.5803      	50.0000     	62.0000     	0.0000      	Open  	;
 268             	327             	2049            	11.3939     	75.0000     	62.0000     	0.0000      	Open  	;
 269             	81              	326             	50.1688     	75.0000     	62.0000     	0.0000      	Open  	;
 270             	696             	697             	1.3198      	75.0000     	132.0000    	0.0000      	Open  	;
 271             	779             	340             	1.0941      	50.0000     	95.0000     	0.0000      	Open  	;
 272             	778             	779             	2.8658      	50.0000     	95.0000     	0.0000      	Open  	;
 273             	23              	301             	20.7381     	50.0000     	62.0000     	0.0000      	Open  	;
 274             	1993            	777             	2.7412      	50.0000     	62.0000     	0.0000      	Open  	;
 275             	341             	2333            	0.9992      	50.0000     	95.0000     	0.0000      	Open  	;
 276             	2334            	302             	70.6859     	50.0000     	62.0000     	0.0000      	Open  	;
 277             	1493            	1494            	0.6325      	100.0000    	95.0000     	0.0000      	Open  	;
 278             	24              	778             	68.5384     	50.0000     	62.0000     	0.0000      	Open  	;
 279             	697             	698             	1.3611      	75.0000     	132.0000    	0.0000      	Open  	;
 280             	317             	772             	1.5853      	50.0000     	62.0000     	0.0000      	Open  	;
 281             	772             	773             	2.3717      	50.0000     	62.0000     	0.0000      	Open  	;
 282             	475             	339             	69.5767     	50.0000     	62.0000     	0.0000      	Open  	;
 283             	336             	335             	1.4756      	50.0000     	95.0000     	0.0000      	Open  	;
 284             	777             	776             	70.0009     	50.0000     	62.0000     	0.0000      	Open  	;
 285             	774             	775             	1.9009      	50.0000     	62.0000     	0.0000      	Open  	;
 286             	773             	757             	69.3541     	50.0000     	62.0000     	0.0000      	Open  	;
 287             	2333            	2334            	2.9620      	50.0000     	95.0000     	0.0000      	Open  	;
 288             	2791            	2792            	41.8100     	300.0000    	100.0000    	0.0000      	Open  	;
 289             	1485            	1486            	18.6992     	300.0000    	91.0000     	0.0000      	Open  	;
 290             	2792            	2793            	13.1801     	300.0000    	100.0000    	0.0000      	Open  	;
 291             	2793            	2794            	40.9989     	300.0000    	100.0000    	0.0000      	Open  	;
 292             	2794            	2795            	13.5852     	300.0000    	100.0000    	0.0000      	Open  	;
 293             	2795            	2796            	38.3584     	300.0000    	100.0000    	0.0000      	Open  	;
 294             	2796            	2797            	19.4284     	300.0000    	100.0000    	0.0000      	Open  	;
 295             	2797            	2798            	14.0647     	300.0000    	100.0000    	0.0000      	Open  	;
 296             	2799            	2800            	18.7178     	300.0000    	91.0000     	0.0000      	Open  	;
 297             	2800            	2789            	21.5738     	300.0000    	91.0000     	0.0000      	Open  	;
 298             	2790            	2791            	17.9325     	300.0000    	91.0000     	0.0000      	Open  	;
 299             	1485            	1486            	18.6992     	300.0000    	91.0000     	0.0000      	Open  	;
 300             	1484            	1485            	10.0622     	300.0000    	91.0000     	0.0000      	Open  	;
 301             	1483            	1484            	8.4164      	300.0000    	91.0000     	0.0000      	Open  	;
 302             	1482            	1483            	20.7806     	300.0000    	91.0000     	0.0000      	Open  	;
 303             	1481            	1482            	20.3468     	300.0000    	91.0000     	0.0000      	Open  	;
 304             	91              	1481            	12.4008     	300.0000    	91.0000     	0.0000      	Open  	;
 305             	91              	1481            	12.4008     	300.0000    	91.0000     	0.0000      	Open  	;
 306             	1481            	1482            	20.3468     	300.0000    	91.0000     	0.0000      	Open  	;
 307             	740             	741             	0.8317      	50.0000     	95.0000     	0.0000      	Open  	;
 308             	741             	742             	1.4321      	50.0000     	95.0000     	0.0000      	Open  	;
 309             	742             	698             	70.3664     	50.0000     	132.0000    	0.0000      	Open  	;
 310             	1482            	1483            	20.7806     	300.0000    	91.0000     	0.0000      	Open  	;
 311             	1483            	1484            	8.4164      	300.0000    	91.0000     	0.0000      	Open  	;
 312             	1484            	1485            	10.0622     	300.0000    	91.0000     	0.0000      	Open  	;
 313             	474             	475             	2.7981      	50.0000     	62.0000     	0.0000      	Open  	;
 314             	756             	757             	3.1191      	75.0000     	62.0000     	0.0000      	Open  	;
 315             	1487            	1488            	0.7257      	100.0000    	95.0000     	0.0000      	Open  	;
 316             	1479            	1480            	12.3710     	300.0000    	71.0000     	0.0000      	Open  	;
 317             	775             	776             	0.4777      	50.0000     	62.0000     	0.0000      	Open  	;
 318             	318             	794             	1.5804      	50.0000     	62.0000     	0.0000      	Open  	;
 319             	1486            	2799            	1.7227      	300.0000    	91.0000     	0.0000      	Open  	;
 320             	1486            	2799            	1.7227      	300.0000    	91.0000     	0.0000      	Open  	;
 321             	1480            	1486            	0.8079      	300.0000    	71.0000     	0.0000      	Open  	;
 322             	2466            	2467            	48.6705     	50.0000     	55.0000     	0.0000      	Open  	;
 323             	2467            	2468            	54.1646     	50.0000     	55.0000     	0.0000      	Open  	;
 324             	2468            	2469            	245.8980    	50.0000     	55.0000     	0.0000      	Open  	;
 325             	2469            	2470            	181.0274    	50.0000     	55.0000     	0.0000      	Open  	;
 326             	2471            	2472            	145.0342    	100.0000    	55.0000     	0.0000      	Open  	;
 327             	2472            	2473            	10.3837     	100.0000    	55.0000     	0.0000      	Open  	;
 328             	2473            	1306            	3.0063      	100.0000    	55.0000     	0.0000      	Open  	;
 329             	2472            	2474            	349.4764    	100.0000    	55.0000     	0.0000      	Open  	;
 330             	2468            	2475            	15.0755     	50.0000     	55.0000     	0.0000      	Open  	;
 331             	2475            	2476            	66.7175     	32.0000     	125.0000    	0.0000      	Open  	;
 332             	2798            	2843            	21.1002     	300.0000    	100.0000    	0.0000      	Open  	;
 333             	2476            	2477            	59.9762     	32.0000     	125.0000    	0.0000      	Open  	;
 334             	2478            	2479            	68.4909     	32.0000     	125.0000    	0.0000      	Open  	;
 335             	2479            	2480            	52.4444     	32.0000     	125.0000    	0.0000      	Open  	;
 336             	2481            	2470            	18.5773     	50.0000     	55.0000     	0.0000      	Open  	;
 337             	2470            	2482            	11.0486     	50.0000     	55.0000     	0.0000      	Open  	;
 338             	2483            	2484            	41.2135     	50.0000     	55.0000     	0.0000      	Open  	;
 339             	2484            	2474            	18.3668     	50.0000     	55.0000     	0.0000      	Open  	;
 340             	2482            	2483            	1.8784      	50.0000     	55.0000     	0.0000      	Open  	;
 341             	2474            	2485            	35.3736     	50.0000     	55.0000     	0.0000      	Open  	;
 342             	2486            	2085            	10.0446     	50.0000     	62.0000     	0.0000      	Closed	;
 343             	2485            	2486            	5.6123      	50.0000     	62.0000     	0.0000      	Open  	;
 344             	2487            	2488            	1.3601      	32.0000     	125.0000    	0.0000      	Open  	;
 345             	2488            	2489            	22.9330     	32.0000     	125.0000    	0.0000      	Open  	;
 346             	2489            	2490            	70.1452     	32.0000     	125.0000    	0.0000      	Open  	;
 347             	2477            	2478            	174.2868    	32.0000     	125.0000    	0.0000      	Open  	;
 348             	2480            	2481            	4.7462      	32.0000     	125.0000    	0.0000      	Open  	;
 349             	2843            	2844            	20.5355     	300.0000    	100.0000    	0.0000      	Open  	;
 350             	2845            	91              	7.9586      	300.0000    	100.0000    	0.0000      	Open  	;
 351             	23              	24              	3.0947      	75.0000     	62.0000     	0.0000      	Open  	;
 352             	1993            	23              	50.2996     	75.0000     	62.0000     	0.0000      	Open  	;
 353             	82              	328             	10.3089     	50.0000     	62.0000     	0.0000      	Open  	;
 354             	329             	330             	31.8286     	50.0000     	62.0000     	0.0000      	Open  	;
 355             	329             	933             	18.2610     	50.0000     	62.0000     	0.0000      	Open  	;
 356             	330             	934             	19.8447     	50.0000     	62.0000     	0.0000      	Open  	;
 357             	328             	935             	10.9680     	50.0000     	62.0000     	0.0000      	Open  	;
 358             	740             	334             	48.7712     	50.0000     	95.0000     	0.0000      	Open  	;
 359             	756             	1993            	51.9629     	75.0000     	62.0000     	0.0000      	Open  	;
 360             	696             	756             	53.2175     	75.0000     	62.0000     	0.0000      	Open  	;
 361             	474             	696             	54.2066     	75.0000     	62.0000     	0.0000      	Open  	;
 362             	81              	82              	2.8241      	75.0000     	62.0000     	0.0000      	Open  	;
 363             	91              	92              	14.0568     	160.0000    	135.0000    	0.0000      	Open  	;
 364             	2844            	2845            	21.4814     	300.0000    	100.0000    	0.0000      	Open  	;
 365             	332             	474             	44.7726     	75.0000     	62.0000     	0.0000      	Open  	;
 366             	331             	1994            	16.1839     	50.0000     	62.0000     	0.0000      	Open  	;
 367             	2365            	1493            	0.1538      	100.0000    	95.0000     	0.0000      	Open  	;
 368             	2798            	1487            	0.3408      	100.0000    	95.0000     	0.0000      	Open  	;
 369             	2854            	2790            	9.5518      	300.0000    	91.0000     	0.0000      	Open  	;
 370             	2853            	2854            	24.5048     	300.0000    	91.0000     	0.0000      	Open  	;
 371             	2852            	2853            	20.6592     	300.0000    	91.0000     	0.0000      	Open  	;
 372             	2851            	2852            	26.9098     	300.0000    	100.0000    	0.0000      	Open  	;
 373             	2850            	2851            	15.7622     	300.0000    	100.0000    	0.0000      	Open  	;
 374             	2849            	2850            	18.5143     	300.0000    	100.0000    	0.0000      	Open  	;
 375             	2848            	2849            	20.9426     	300.0000    	100.0000    	0.0000      	Open  	;
 376             	2847            	2848            	21.0401     	300.0000    	100.0000    	0.0000      	Open  	;
 377             	2846            	2847            	20.8217     	300.0000    	100.0000    	0.0000      	Open  	;
 378             	2365            	2846            	19.5974     	300.0000    	100.0000    	0.0000      	Open  	;
 379             	1994            	1995            	26.9328     	50.0000     	62.0000     	0.0000      	Open  	;
 380             	2487            	2480            	1.6061      	32.0000     	125.0000    	0.0000      	Open  	;
 381             	2466            	2471            	33.5663     	100.0000    	55.0000     	0.0000      	Open  	;
 382             	340             	341             	52.5440     	50.0000     	95.0000     	0.0000      	Open  	;
 383             	327             	316             	43.5163     	75.0000     	62.0000     	0.0000      	Open  	;
 384             	338             	339             	1.4042      	50.0000     	95.0000     	0.0000      	Open  	;
 385             	337             	338             	0.5777      	50.0000     	95.0000     	0.0000      	Open  	;
 386             	336             	337             	1.2010      	50.0000     	95.0000     	0.0000      	Open  	;
 387             	334             	335             	3.9580      	50.0000     	95.0000     	0.0000      	Open  	;
 388             	318             	333             	19.9804     	50.0000     	62.0000     	0.0000      	Open  	;
 389             	332             	81              	8.6752      	75.0000     	62.0000     	0.0000      	Open  	;
 390             	330             	331             	12.8064     	50.0000     	62.0000     	0.0000      	Open  	;
 391             	328             	329             	1.8308      	50.0000     	62.0000     	0.0000      	Open  	;
 392             	326             	327             	45.0472     	75.0000     	62.0000     	0.0000      	Open  	;
 393             	301             	321             	10.1540     	50.0000     	62.0000     	0.0000      	Open  	;
 394             	315             	316             	7.2488      	75.0000     	62.0000     	0.0000      	Open  	;
 395             	794             	795             	0.3816      	50.0000     	62.0000     	0.0000      	Open  	;
 396             	317             	318             	32.6886     	50.0000     	62.0000     	0.0000      	Open  	;
 397             	301             	302             	32.8685     	50.0000     	62.0000     	0.0000      	Open  	;
 398             	924             	925             	7.4121      	150.0000    	59.0000     	0.0000      	Open  	;
 399             	925             	926             	6.3922      	150.0000    	59.0000     	0.0000      	Open  	;
 400             	926             	927             	5.0448      	150.0000    	59.0000     	0.0000      	Open  	;
 401             	927             	928             	7.5799      	150.0000    	59.0000     	0.0000      	Open  	;
 402             	985             	986             	7.4621      	60.0000     	132.0000    	0.0000      	Open  	;
 403             	1490            	1491            	18.6319     	300.0000    	100.0000    	0.0000      	Open  	;
 404             	644             	72              	56.9068     	60.0000     	132.0000    	0.0000      	Open  	;
 405             	2261            	2262            	4.3155      	85.0000     	132.0000    	0.0000      	Open  	;
 406             	644             	937             	42.5738     	60.0000     	132.0000    	0.0000      	Open  	;
 407             	928             	929             	5.1605      	150.0000    	59.0000     	0.0000      	Open  	;
 408             	929             	930             	2.9130      	150.0000    	59.0000     	0.0000      	Open  	;
 409             	646             	936             	3.0062      	160.0000    	135.0000    	0.0000      	Open  	;
 410             	645             	744             	3.2152      	160.0000    	135.0000    	0.0000      	Open  	;
 411             	598             	969             	2.3329      	85.0000     	132.0000    	0.0000      	Open  	;
 412             	1491            	1492            	14.8179     	300.0000    	100.0000    	0.0000      	Open  	;
 413             	2264            	2265            	11.5075     	85.0000     	132.0000    	0.0000      	Open  	;
 414             	2046            	443             	12.2046     	85.0000     	132.0000    	0.0000      	Open  	;
 415             	2068            	733             	157.0036    	85.0000     	132.0000    	0.0000      	Open  	;
 416             	923             	924             	7.4781      	150.0000    	59.0000     	0.0000      	Open  	;
 417             	2251            	2252            	15.9761     	85.0000     	132.0000    	0.0000      	Open  	;
 418             	930             	931             	2.8668      	150.0000    	59.0000     	0.0000      	Open  	;
 419             	931             	801             	5.0526      	150.0000    	59.0000     	0.0000      	Open  	;
 420             	728             	932             	49.6488     	75.0000     	57.0000     	0.0000      	Open  	;
 421             	954             	1458            	4.1166      	110.0000    	132.0000    	0.0000      	Open  	;
 422             	922             	923             	8.8055      	150.0000    	59.0000     	0.0000      	Open  	;
 423             	2256            	901             	9.2361      	85.0000     	132.0000    	0.0000      	Open  	;
 424             	920             	921             	23.7390     	150.0000    	59.0000     	0.0000      	Open  	;
 425             	905             	906             	45.0958     	60.0000     	132.0000    	0.0000      	Open  	;
 426             	905             	907             	32.5498     	60.0000     	132.0000    	0.0000      	Open  	;
 427             	903             	905             	76.6962     	60.0000     	132.0000    	0.0000      	Open  	;
 428             	908             	903             	34.8808     	60.0000     	132.0000    	0.0000      	Open  	;
 429             	907             	909             	45.0162     	60.0000     	132.0000    	0.0000      	Open  	;
 430             	746             	910             	25.6199     	110.0000    	132.0000    	0.0000      	Open  	;
 431             	911             	912             	41.9246     	60.0000     	132.0000    	0.0000      	Open  	;
 432             	892             	911             	38.2971     	60.0000     	132.0000    	0.0000      	Open  	;
 433             	912             	913             	35.1775     	60.0000     	132.0000    	0.0000      	Open  	;
 434             	657             	912             	105.3200    	60.0000     	132.0000    	0.0000      	Open  	;
 435             	913             	89              	79.8675     	110.0000    	132.0000    	0.0000      	Open  	;
 436             	2262            	616             	3.9254      	85.0000     	132.0000    	0.0000      	Open  	;
 437             	84              	913             	41.2066     	110.0000    	132.0000    	0.0000      	Open  	;
 438             	413             	803             	31.6788     	150.0000    	59.0000     	0.0000      	Open  	;
 439             	455             	914             	19.1128     	85.0000     	132.0000    	0.0000      	Open  	;
 440             	914             	915             	3.7121      	85.0000     	132.0000    	0.0000      	Open  	;
 441             	915             	916             	10.0719     	85.0000     	132.0000    	0.0000      	Open  	;
 442             	916             	917             	8.9964      	85.0000     	132.0000    	0.0000      	Open  	;
 443             	2265            	2266            	9.6951      	85.0000     	132.0000    	0.0000      	Open  	;
 444             	1456            	944             	55.9859     	60.0000     	132.0000    	0.0000      	Open  	;
 445             	938             	568             	45.3652     	60.0000     	132.0000    	0.0000      	Open  	;
 446             	919             	920             	31.2354     	150.0000    	59.0000     	0.0000      	Open  	;
 447             	564             	1457            	4.1888      	85.0000     	132.0000    	0.0000      	Open  	;
 448             	569             	1451            	4.1810      	110.0000    	132.0000    	0.0000      	Open  	;
 449             	954             	469             	4.4257      	110.0000    	132.0000    	0.0000      	Open  	;
 450             	921             	922             	8.0423      	150.0000    	59.0000     	0.0000      	Open  	;
 451             	939             	940             	101.8840    	60.0000     	132.0000    	0.0000      	Open  	;
 452             	945             	943             	110.9098    	60.0000     	132.0000    	0.0000      	Open  	;
 453             	941             	939             	42.8811     	60.0000     	132.0000    	0.0000      	Open  	;
 454             	643             	951             	43.3478     	60.0000     	132.0000    	0.0000      	Open  	;
 455             	952             	572             	89.1466     	60.0000     	132.0000    	0.0000      	Open  	;
 456             	643             	75              	44.2152     	110.0000    	132.0000    	0.0000      	Open  	;
 457             	951             	950             	24.7112     	60.0000     	132.0000    	0.0000      	Open  	;
 458             	2263            	2264            	12.9330     	85.0000     	132.0000    	0.0000      	Open  	;
 459             	994             	995             	0.8316      	100.0000    	57.0000     	0.0000      	Open  	;
 460             	995             	996             	0.6058      	100.0000    	57.0000     	0.0000      	Open  	;
 461             	2260            	2261            	11.5985     	85.0000     	132.0000    	0.0000      	Open  	;
 462             	2259            	2260            	12.7328     	85.0000     	132.0000    	0.0000      	Open  	;
 463             	2258            	2259            	12.1905     	85.0000     	132.0000    	0.0000      	Open  	;
 464             	1417            	2258            	8.5026      	85.0000     	132.0000    	0.0000      	Open  	;
 465             	73              	470             	26.0923     	85.0000     	132.0000    	0.0000      	Open  	;
 466             	2257            	967             	100.2484    	85.0000     	132.0000    	0.0000      	Open  	;
 467             	2254            	2255            	39.2395     	60.0000     	132.0000    	0.0000      	Open  	;
 468             	2255            	15              	28.1507     	60.0000     	132.0000    	0.0000      	Open  	;
 469             	75              	945             	51.3988     	110.0000    	132.0000    	0.0000      	Open  	;
 470             	945             	949             	20.4781     	110.0000    	132.0000    	0.0000      	Open  	;
 471             	949             	942             	22.5961     	110.0000    	132.0000    	0.0000      	Open  	;
 472             	598             	967             	113.6813    	85.0000     	132.0000    	0.0000      	Open  	;
 473             	946             	306             	27.4000     	110.0000    	132.0000    	0.0000      	Open  	;
 474             	947             	307             	41.5673     	110.0000    	132.0000    	0.0000      	Open  	;
 475             	573             	947             	47.9661     	60.0000     	132.0000    	0.0000      	Open  	;
 476             	573             	946             	42.6068     	60.0000     	132.0000    	0.0000      	Open  	;
 477             	948             	946             	17.0030     	110.0000    	132.0000    	0.0000      	Open  	;
 478             	950             	949             	42.5891     	60.0000     	132.0000    	0.0000      	Open  	;
 479             	570             	73              	44.0825     	110.0000    	132.0000    	0.0000      	Open  	;
 480             	953             	570             	41.6664     	110.0000    	132.0000    	0.0000      	Open  	;
 481             	954             	569             	41.0445     	110.0000    	132.0000    	0.0000      	Open  	;
 482             	941             	942             	110.3947    	60.0000     	132.0000    	0.0000      	Open  	;
 483             	943             	941             	42.4198     	60.0000     	132.0000    	0.0000      	Open  	;
 484             	85              	966             	9.0922      	110.0000    	132.0000    	0.0000      	Open  	;
 485             	944             	943             	59.5592     	60.0000     	132.0000    	0.0000      	Open  	;
 486             	2045            	2046            	15.7151     	85.0000     	132.0000    	0.0000      	Open  	;
 487             	743             	948             	54.8289     	110.0000    	132.0000    	0.0000      	Open  	;
 488             	2044            	2045            	28.4923     	85.0000     	132.0000    	0.0000      	Open  	;
 489             	84              	961             	4.0124      	110.0000    	132.0000    	0.0000      	Open  	;
 490             	2043            	2044            	65.9456     	85.0000     	132.0000    	0.0000      	Open  	;
 491             	986             	987             	2.4519      	60.0000     	132.0000    	0.0000      	Open  	;
 492             	72              	745             	36.5164     	60.0000     	132.0000    	0.0000      	Open  	;
 493             	66              	956             	24.5918     	60.0000     	132.0000    	0.0000      	Open  	;
 494             	2252            	2253            	9.3085      	85.0000     	132.0000    	0.0000      	Open  	;
 495             	2253            	453             	21.6030     	85.0000     	132.0000    	0.0000      	Open  	;
 496             	304             	939             	34.4608     	60.0000     	132.0000    	0.0000      	Open  	;
 497             	676             	958             	39.1313     	110.0000    	132.0000    	0.0000      	Open  	;
 498             	958             	959             	38.8244     	110.0000    	132.0000    	0.0000      	Open  	;
 499             	646             	476             	41.2972     	160.0000    	135.0000    	0.0000      	Open  	;
 500             	1489            	1490            	2.3635      	300.0000    	86.0000     	0.0000      	Open  	;
 501             	468             	953             	48.3449     	60.0000     	132.0000    	0.0000      	Open  	;
 502             	578             	957             	69.0037     	60.0000     	132.0000    	0.0000      	Open  	;
 503             	957             	566             	37.3986     	60.0000     	132.0000    	0.0000      	Open  	;
 504             	607             	2254            	66.8764     	60.0000     	132.0000    	0.0000      	Open  	;
 505             	956             	955             	75.1442     	60.0000     	132.0000    	0.0000      	Open  	;
 506             	955             	566             	42.0698     	60.0000     	132.0000    	0.0000      	Open  	;
 507             	967             	968             	1.8678      	85.0000     	132.0000    	0.0000      	Open  	;
 508             	76              	1456            	52.5833     	60.0000     	132.0000    	0.0000      	Open  	;
 509             	1449            	2104            	56.3114     	110.0000    	132.0000    	0.0000      	Open  	;
 510             	743             	1454            	3.6615      	110.0000    	132.0000    	0.0000      	Open  	;
 511             	900             	596             	42.6691     	60.0000     	132.0000    	0.0000      	Open  	;
 512             	910             	85              	2.1808      	110.0000    	132.0000    	0.0000      	Open  	;
 513             	2151            	911             	113.1489    	60.0000     	132.0000    	0.0000      	Open  	;
 514             	582             	574             	0.1007      	60.0000     	132.0000    	0.0000      	Open  	;
 515             	2497            	582             	1.0075      	60.0000     	132.0000    	0.0000      	Open  	;
 516             	2152            	892             	123.9330    	60.0000     	132.0000    	0.0000      	Open  	;
 517             	2153            	2154            	90.1258     	60.0000     	132.0000    	0.0000      	Open  	;
 518             	2153            	2155            	28.4098     	60.0000     	132.0000    	0.0000      	Open  	;
 519             	2155            	2156            	21.1269     	60.0000     	132.0000    	0.0000      	Open  	;
 520             	620             	2157            	14.1345     	85.0000     	132.0000    	0.0000      	Open  	;
 521             	2151            	2152            	41.0595     	60.0000     	132.0000    	0.0000      	Open  	;
 522             	657             	2151            	42.5767     	60.0000     	132.0000    	0.0000      	Open  	;
 523             	2158            	2159            	6.0000      	60.0000     	132.0000    	0.0000      	Open  	;
 524             	2159            	2160            	33.0038     	60.0000     	132.0000    	0.0000      	Open  	;
 525             	2160            	2154            	11.0783     	60.0000     	132.0000    	0.0000      	Open  	;
 526             	2161            	2162            	4.0780      	60.0000     	132.0000    	0.0000      	Open  	;
 527             	2162            	2163            	10.7757     	60.0000     	132.0000    	0.0000      	Open  	;
 528             	2163            	2164            	11.0797     	60.0000     	132.0000    	0.0000      	Open  	;
 529             	2164            	2158            	6.5999      	60.0000     	132.0000    	0.0000      	Open  	;
 530             	880             	100             	24.3508     	60.0000     	132.0000    	0.0000      	Open  	;
 531             	2156            	2165            	17.9442     	60.0000     	132.0000    	0.0000      	Open  	;
 532             	904             	2148            	2.3516      	60.0000     	132.0000    	0.0000      	Open  	;
 533             	253             	985             	73.4914     	60.0000     	132.0000    	0.0000      	Open  	;
 534             	2224            	2225            	25.2047     	60.0000     	132.0000    	0.0000      	Open  	;
 535             	22              	2224            	22.1228     	60.0000     	132.0000    	0.0000      	Open  	;
 536             	2222            	2223            	32.6347     	60.0000     	132.0000    	0.0000      	Open  	;
 537             	2221            	2222            	35.5893     	60.0000     	132.0000    	0.0000      	Open  	;
 538             	2220            	2221            	32.7513     	60.0000     	132.0000    	0.0000      	Open  	;
 539             	2219            	2220            	31.0397     	60.0000     	132.0000    	0.0000      	Open  	;
 540             	2218            	2219            	10.8792     	60.0000     	132.0000    	0.0000      	Open  	;
 541             	730             	2218            	28.0287     	60.0000     	132.0000    	0.0000      	Open  	;
 542             	727             	2037            	103.4418    	60.0000     	132.0000    	0.0000      	Open  	;
 543             	2039            	619             	134.2119    	85.0000     	132.0000    	0.0000      	Open  	;
 544             	2040            	618             	147.4329    	85.0000     	132.0000    	0.0000      	Open  	;
 545             	2216            	447             	13.9431     	60.0000     	132.0000    	0.0000      	Open  	;
 546             	2215            	2216            	16.5332     	60.0000     	132.0000    	0.0000      	Open  	;
 547             	2361            	2362            	16.5178     	300.0000    	100.0000    	0.0000      	Open  	;
 548             	2362            	2363            	21.9013     	300.0000    	100.0000    	0.0000      	Open  	;
 549             	2363            	2364            	18.9912     	300.0000    	100.0000    	0.0000      	Open  	;
 550             	2364            	2365            	23.9524     	300.0000    	100.0000    	0.0000      	Open  	;
 551             	1453            	1455            	53.0527     	60.0000     	132.0000    	0.0000      	Open  	;
 552             	84              	985             	24.8342     	110.0000    	132.0000    	0.0000      	Open  	;
 553             	909             	2147            	16.5801     	60.0000     	132.0000    	0.0000      	Open  	;
 554             	2225            	2226            	20.0824     	60.0000     	132.0000    	0.0000      	Open  	;
 555             	2165            	2161            	40.2927     	60.0000     	132.0000    	0.0000      	Open  	;
 556             	2213            	2214            	15.5227     	60.0000     	132.0000    	0.0000      	Open  	;
 557             	2186            	2187            	59.4496     	85.0000     	132.0000    	0.0000      	Open  	;
 558             	2187            	2188            	50.6336     	85.0000     	132.0000    	0.0000      	Open  	;
 559             	2188            	2189            	44.7323     	85.0000     	132.0000    	0.0000      	Open  	;
 560             	2189            	2190            	31.1699     	85.0000     	132.0000    	0.0000      	Open  	;
 561             	2190            	2191            	23.4616     	85.0000     	132.0000    	0.0000      	Open  	;
 562             	2191            	2192            	30.0901     	85.0000     	132.0000    	0.0000      	Open  	;
 563             	2192            	2193            	25.1543     	85.0000     	132.0000    	0.0000      	Open  	;
 564             	2193            	8               	20.4531     	85.0000     	132.0000    	0.0000      	Open  	;
 565             	603             	451             	37.6219     	85.0000     	132.0000    	0.0000      	Open  	;
 566             	2194            	2195            	79.4515     	85.0000     	132.0000    	0.0000      	Open  	;
 567             	2195            	2196            	95.1424     	85.0000     	132.0000    	0.0000      	Open  	;
 568             	2196            	2197            	60.3736     	85.0000     	132.0000    	0.0000      	Open  	;
 569             	2197            	2198            	35.0925     	85.0000     	132.0000    	0.0000      	Open  	;
 570             	2198            	2199            	25.8139     	85.0000     	132.0000    	0.0000      	Open  	;
 571             	2199            	2200            	4.5414      	85.0000     	132.0000    	0.0000      	Open  	;
 572             	2200            	7               	13.5671     	85.0000     	132.0000    	0.0000      	Open  	;
 573             	2201            	2202            	27.6897     	60.0000     	132.0000    	0.0000      	Open  	;
 574             	2202            	2203            	24.7770     	60.0000     	132.0000    	0.0000      	Open  	;
 575             	2203            	2204            	23.4938     	60.0000     	132.0000    	0.0000      	Open  	;
 576             	10              	258             	209.0289    	85.0000     	132.0000    	0.0000      	Open  	;
 577             	2214            	2215            	22.6200     	60.0000     	132.0000    	0.0000      	Open  	;
 578             	2184            	2185            	4.2334      	60.0000     	132.0000    	0.0000      	Open  	;
 579             	2411            	92              	26.1802     	160.0000    	135.0000    	0.0000      	Open  	;
 580             	2212            	2213            	26.4178     	60.0000     	132.0000    	0.0000      	Open  	;
 581             	2041            	2170            	124.5128    	85.0000     	132.0000    	0.0000      	Open  	;
 582             	2170            	620             	0.3338      	85.0000     	132.0000    	0.0000      	Open  	;
 583             	401             	617             	103.5433    	60.0000     	132.0000    	0.0000      	Open  	;
 584             	2211            	835             	25.6784     	60.0000     	132.0000    	0.0000      	Open  	;
 585             	2210            	2211            	17.5657     	60.0000     	132.0000    	0.0000      	Open  	;
 586             	2209            	2210            	20.5528     	60.0000     	132.0000    	0.0000      	Open  	;
 587             	2208            	2209            	23.5095     	60.0000     	132.0000    	0.0000      	Open  	;
 588             	2207            	2208            	30.2262     	60.0000     	132.0000    	0.0000      	Open  	;
 589             	2206            	2207            	29.6960     	60.0000     	132.0000    	0.0000      	Open  	;
 590             	2205            	448             	18.7156     	60.0000     	132.0000    	0.0000      	Open  	;
 591             	2204            	2205            	18.3306     	60.0000     	132.0000    	0.0000      	Open  	;
 592             	472             	2178            	32.5347     	60.0000     	132.0000    	0.0000      	Open  	;
 593             	2178            	2179            	19.5981     	60.0000     	132.0000    	0.0000      	Open  	;
 594             	2179            	2180            	16.6365     	60.0000     	132.0000    	0.0000      	Open  	;
 595             	2180            	2181            	16.4504     	60.0000     	132.0000    	0.0000      	Open  	;
 596             	2181            	2182            	16.0394     	60.0000     	132.0000    	0.0000      	Open  	;
 597             	2182            	2183            	13.1564     	60.0000     	132.0000    	0.0000      	Open  	;
 598             	2411            	PM.VRP.CND.002  	5.2879      	160.0000    	135.0000    	0.0000      	Open  	;
 599             	2183            	2184            	8.3781      	60.0000     	132.0000    	0.0000      	Open  	;
 600             	936             	1455            	142.4350    	60.0000     	132.0000    	0.0000      	Open  	;
 601             	2226            	2227            	42.9223     	60.0000     	132.0000    	0.0000      	Open  	;
 602             	2228            	2229            	23.9450     	60.0000     	132.0000    	0.0000      	Open  	;
 603             	1426            	1427            	17.5961     	300.0000    	86.0000     	0.0000      	Open  	;
 604             	1425            	1426            	10.8289     	300.0000    	86.0000     	0.0000      	Open  	;
 605             	1424            	1425            	6.5761      	300.0000    	86.0000     	0.0000      	Open  	;
 606             	1423            	1424            	22.0334     	300.0000    	86.0000     	0.0000      	Open  	;
 607             	1422            	1423            	17.3310     	300.0000    	86.0000     	0.0000      	Open  	;
 608             	441             	1422            	10.6501     	300.0000    	86.0000     	0.0000      	Open  	;
 609             	902             	1421            	43.5128     	85.0000     	132.0000    	0.0000      	Open  	;
 610             	1419            	1420            	206.1382    	85.0000     	132.0000    	0.0000      	Open  	;
 611             	1417            	1418            	2.6731      	85.0000     	132.0000    	0.0000      	Open  	;
 612             	2250            	2251            	21.0658     	85.0000     	132.0000    	0.0000      	Open  	;
 613             	2249            	2250            	15.9322     	85.0000     	132.0000    	0.0000      	Open  	;
 614             	2248            	2249            	20.4878     	85.0000     	132.0000    	0.0000      	Open  	;
 615             	2246            	2247            	66.8858     	85.0000     	132.0000    	0.0000      	Open  	;
 616             	2245            	2246            	37.2255     	85.0000     	132.0000    	0.0000      	Open  	;
 617             	889             	2351            	3.0888      	60.0000     	132.0000    	0.0000      	Open  	;
 618             	266             	889             	11.5611     	60.0000     	132.0000    	0.0000      	Open  	;
 619             	2033            	732             	53.2834     	60.0000     	132.0000    	0.0000      	Open  	;
 620             	887             	2352            	14.9826     	60.0000     	132.0000    	0.0000      	Open  	;
 621             	938             	2096            	34.8788     	60.0000     	132.0000    	0.0000      	Open  	;
 622             	1427            	1428            	25.1484     	300.0000    	86.0000     	0.0000      	Open  	;
 623             	2096            	948             	19.6362     	60.0000     	132.0000    	0.0000      	Open  	;
 624             	1429            	1430            	0.4698      	200.0000    	61.0000     	0.0000      	Open  	;
 625             	1432            	1433            	8.2185      	200.0000    	81.0000     	0.0000      	Open  	;
 626             	1452            	1453            	0.9159      	85.0000     	132.0000    	0.0000      	Open  	;
 627             	743             	1452            	3.1008      	85.0000     	132.0000    	0.0000      	Open  	;
 628             	571             	1451            	87.7706     	60.0000     	132.0000    	0.0000      	Open  	;
 629             	1449            	1450            	4.7061      	110.0000    	132.0000    	0.0000      	Open  	;
 630             	958             	531             	3.4217      	110.0000    	132.0000    	0.0000      	Open  	;
 631             	676             	1448            	3.3016      	110.0000    	132.0000    	0.0000      	Open  	;
 632             	676             	1447            	2.6988      	110.0000    	132.0000    	0.0000      	Open  	;
 633             	PM.VRP.CND.004  	1446            	7.1999      	160.0000    	59.0000     	0.0000      	Open  	;
 634             	1444            	280             	31.3260     	200.0000    	81.0000     	0.0000      	Open  	;
 635             	1443            	1444            	1.0392      	200.0000    	81.0000     	0.0000      	Open  	;
 636             	1442            	1443            	1.0392      	200.0000    	81.0000     	0.0000      	Open  	;
 637             	1428            	1441            	0.5215      	150.0000    	59.0000     	0.0000      	Open  	;
 638             	1439            	1440            	1.8100      	200.0000    	81.0000     	0.0000      	Open  	;
 639             	1438            	1439            	0.7926      	200.0000    	81.0000     	0.0000      	Open  	;
 640             	1437            	1438            	2.6026      	200.0000    	81.0000     	0.0000      	Open  	;
 641             	1436            	1437            	27.6831     	200.0000    	81.0000     	0.0000      	Open  	;
 642             	1435            	1436            	17.0885     	200.0000    	81.0000     	0.0000      	Open  	;
 643             	1434            	1435            	16.3886     	200.0000    	81.0000     	0.0000      	Open  	;
 644             	1433            	1434            	12.3377     	200.0000    	81.0000     	0.0000      	Open  	;
 645             	1431            	1432            	2.4197      	200.0000    	81.0000     	0.0000      	Open  	;
 646             	419             	2228            	19.9334     	60.0000     	132.0000    	0.0000      	Open  	;
 647             	732             	938             	35.0271     	60.0000     	132.0000    	0.0000      	Open  	;
 648             	259             	894             	15.7984     	85.0000     	132.0000    	0.0000      	Open  	;
 649             	953             	1450            	55.3626     	60.0000     	132.0000    	0.0000      	Open  	;
 650             	2242            	2243            	23.3597     	60.0000     	132.0000    	0.0000      	Open  	;
 651             	2154            	438             	36.1517     	60.0000     	132.0000    	0.0000      	Open  	;
 652             	2033            	836             	7.5668      	60.0000     	132.0000    	0.0000      	Open  	;
 653             	565             	66              	18.1094     	60.0000     	132.0000    	0.0000      	Open  	;
 654             	2352            	894             	2.9053      	85.0000     	132.0000    	0.0000      	Open  	;
 655             	2241            	2242            	22.6564     	60.0000     	132.0000    	0.0000      	Open  	;
 656             	2240            	2241            	34.2456     	60.0000     	132.0000    	0.0000      	Open  	;
 657             	421             	2240            	37.4716     	60.0000     	132.0000    	0.0000      	Open  	;
 658             	2238            	2239            	39.9190     	85.0000     	132.0000    	0.0000      	Open  	;
 659             	2237            	2238            	27.2541     	85.0000     	132.0000    	0.0000      	Open  	;
 660             	2236            	2237            	14.6030     	85.0000     	132.0000    	0.0000      	Open  	;
 661             	412             	2236            	22.5425     	85.0000     	132.0000    	0.0000      	Open  	;
 662             	2234            	2235            	4.8872      	60.0000     	132.0000    	0.0000      	Open  	;
 663             	2233            	2234            	6.5774      	60.0000     	132.0000    	0.0000      	Open  	;
 664             	2232            	2233            	24.5716     	60.0000     	132.0000    	0.0000      	Open  	;
 665             	2231            	2232            	22.7453     	60.0000     	132.0000    	0.0000      	Open  	;
 666             	2230            	2231            	15.9677     	60.0000     	132.0000    	0.0000      	Open  	;
 667             	2229            	2230            	17.7300     	60.0000     	132.0000    	0.0000      	Open  	;
 668             	1457            	952             	36.5543     	60.0000     	132.0000    	0.0000      	Open  	;
 669             	2097            	2098            	4.4051      	60.0000     	132.0000    	0.0000      	Open  	;
 670             	1447            	956             	46.1859     	60.0000     	132.0000    	0.0000      	Open  	;
 671             	645             	2104            	10.8089     	110.0000    	132.0000    	0.0000      	Open  	;
 672             	86              	261             	9.3974      	85.0000     	132.0000    	0.0000      	Open  	;
 673             	909             	908             	26.2962     	60.0000     	132.0000    	0.0000      	Open  	;
 674             	94              	12              	1.2710      	85.0000     	132.0000    	0.0000      	Open  	;
 675             	2244            	2245            	17.3274     	85.0000     	132.0000    	0.0000      	Open  	;
 676             	403             	2244            	14.4251     	85.0000     	132.0000    	0.0000      	Open  	;
 677             	2104            	2105            	39.9115     	60.0000     	132.0000    	0.0000      	Open  	;
 678             	2105            	2106            	40.0999     	60.0000     	132.0000    	0.0000      	Open  	;
 679             	2106            	2107            	40.0413     	60.0000     	132.0000    	0.0000      	Open  	;
 680             	2107            	2097            	22.0556     	60.0000     	132.0000    	0.0000      	Open  	;
 681             	2097            	2108            	8.5923      	60.0000     	132.0000    	0.0000      	Open  	;
 682             	903             	904             	41.7498     	60.0000     	132.0000    	0.0000      	Open  	;
 683             	959             	1449            	9.2108      	110.0000    	132.0000    	0.0000      	Open  	;
 684             	305             	947             	6.5194      	110.0000    	132.0000    	0.0000      	Open  	;
 685             	942             	305             	34.0470     	110.0000    	132.0000    	0.0000      	Open  	;
 686             	470             	1454            	37.9395     	85.0000     	132.0000    	0.0000      	Open  	;
 687             	1458            	1448            	53.1751     	60.0000     	132.0000    	0.0000      	Open  	;
 688             	572             	471             	36.3517     	60.0000     	132.0000    	0.0000      	Open  	;
 689             	944             	940             	42.5937     	60.0000     	132.0000    	0.0000      	Open  	;
 690             	952             	951             	33.5527     	60.0000     	132.0000    	0.0000      	Open  	;
 691             	75              	2109            	4.2838      	110.0000    	132.0000    	0.0000      	Open  	;
 692             	254             	902             	1.1456      	85.0000     	132.0000    	0.0000      	Open  	;
 693             	917             	918             	154.5611    	85.0000     	132.0000    	0.0000      	Open  	;
 694             	901             	900             	26.6366     	85.0000     	132.0000    	0.0000      	Open  	;
 695             	350             	351             	1.3634      	150.0000    	59.0000     	0.0000      	Open  	;
 696             	352             	353             	32.8881     	150.0000    	59.0000     	0.0000      	Open  	;
 697             	353             	354             	29.9814     	150.0000    	59.0000     	0.0000      	Open  	;
 698             	354             	355             	25.7481     	150.0000    	59.0000     	0.0000      	Open  	;
 699             	96              	4               	37.8382     	150.0000    	59.0000     	0.0000      	Open  	;
 700             	356             	357             	2.6871      	150.0000    	59.0000     	0.0000      	Open  	;
 701             	358             	359             	1.3231      	150.0000    	59.0000     	0.0000      	Open  	;
 702             	359             	79              	1.3568      	150.0000    	59.0000     	0.0000      	Open  	;
 703             	9               	349             	24.1238     	150.0000    	59.0000     	0.0000      	Open  	;
 704             	6               	9               	54.1347     	150.0000    	59.0000     	0.0000      	Open  	;
 705             	4               	6               	41.3029     	150.0000    	59.0000     	0.0000      	Open  	;
 706             	349             	350             	29.4944     	150.0000    	59.0000     	0.0000      	Open  	;
 707             	360             	14              	27.7319     	150.0000    	59.0000     	0.0000      	Open  	;
 709             	2288            	2823            	2.0689      	160.0000    	59.0000     	0.0000      	Open  	;
 711             	1446            	2361            	3.5423      	300.0000    	95.0000     	0.0000      	Open  	;
 712             	1492            	2361            	7.6050      	300.0000    	100.0000    	0.0000      	Open  	;
 713             	351             	396             	4.9752      	150.0000    	59.0000     	0.0000      	Open  	;
 714             	87              	397             	188.6065    	60.0000     	132.0000    	0.0000      	Open  	;
 715             	400             	401             	2.6425      	150.0000    	59.0000     	0.0000      	Open  	;
 716             	62              	402             	0.9280      	300.0000    	66.0000     	0.0000      	Open  	;
 717             	361             	403             	3.3682      	150.0000    	135.0000    	0.0000      	Open  	;
 718             	404             	405             	47.5753     	60.0000     	132.0000    	0.0000      	Open  	;
 719             	361             	360             	11.8777     	150.0000    	59.0000     	0.0000      	Open  	;
 720             	21              	406             	3.0713      	60.0000     	132.0000    	0.0000      	Open  	;
 721             	2212            	2201            	33.1050     	60.0000     	132.0000    	0.0000      	Open  	;
 722             	429             	428             	32.4232     	60.0000     	132.0000    	0.0000      	Open  	;
 723             	279             	280             	1.5000      	75.0000     	57.0000     	0.0000      	Open  	;
 724             	281             	282             	14.5272     	85.0000     	132.0000    	0.0000      	Open  	;
 725             	282             	283             	12.7296     	85.0000     	132.0000    	0.0000      	Open  	;
 726             	283             	284             	15.9960     	85.0000     	132.0000    	0.0000      	Open  	;
 727             	284             	285             	15.4070     	85.0000     	132.0000    	0.0000      	Open  	;
 728             	285             	286             	15.1230     	85.0000     	132.0000    	0.0000      	Open  	;
 729             	286             	287             	8.1956      	85.0000     	132.0000    	0.0000      	Open  	;
 730             	287             	288             	27.1346     	85.0000     	132.0000    	0.0000      	Open  	;
 731             	288             	289             	11.9311     	85.0000     	132.0000    	0.0000      	Open  	;
 732             	289             	290             	13.1611     	85.0000     	132.0000    	0.0000      	Open  	;
 733             	290             	291             	36.6463     	85.0000     	132.0000    	0.0000      	Open  	;
 734             	422             	855             	32.3722     	60.0000     	132.0000    	0.0000      	Open  	;
 735             	292             	293             	114.3170    	60.0000     	132.0000    	0.0000      	Open  	;
 736             	295             	296             	7.1460      	85.0000     	132.0000    	0.0000      	Open  	;
 737             	296             	297             	6.3881      	85.0000     	132.0000    	0.0000      	Open  	;
 738             	297             	298             	9.9899      	85.0000     	132.0000    	0.0000      	Open  	;
 739             	298             	299             	14.6768     	85.0000     	132.0000    	0.0000      	Open  	;
 740             	299             	300             	80.1837     	85.0000     	132.0000    	0.0000      	Open  	;
 741             	303             	304             	53.2126     	60.0000     	132.0000    	0.0000      	Open  	;
 742             	303             	305             	100.4146    	60.0000     	132.0000    	0.0000      	Open  	;
 743             	306             	307             	20.9727     	110.0000    	132.0000    	0.0000      	Open  	;
 744             	906             	904             	83.7697     	60.0000     	132.0000    	0.0000      	Open  	;
 745             	656             	252             	43.6680     	60.0000     	132.0000    	0.0000      	Open  	;
 746             	433             	461             	4.4891      	60.0000     	132.0000    	0.0000      	Open  	;
 747             	294             	295             	11.7024     	85.0000     	132.0000    	0.0000      	Open  	;
 748             	99              	279             	2.2728      	75.0000     	57.0000     	0.0000      	Open  	;
 749             	407             	408             	95.0044     	60.0000     	132.0000    	0.0000      	Open  	;
 750             	410             	411             	1.3073      	60.0000     	132.0000    	0.0000      	Open  	;
 751             	454             	455             	3.0733      	60.0000     	132.0000    	0.0000      	Open  	;
 752             	454             	292             	2.6626      	60.0000     	132.0000    	0.0000      	Open  	;
 753             	413             	456             	2.6876      	60.0000     	132.0000    	0.0000      	Open  	;
 754             	457             	458             	102.8378    	60.0000     	132.0000    	0.0000      	Open  	;
 755             	459             	460             	101.9631    	60.0000     	132.0000    	0.0000      	Open  	;
 756             	461             	462             	32.3339     	60.0000     	132.0000    	0.0000      	Open  	;
 758             	433             	465             	1.2397      	60.0000     	132.0000    	0.0000      	Open  	;
 759             	465             	466             	1.2476      	60.0000     	132.0000    	0.0000      	Open  	;
 760             	280             	97              	23.6903     	200.0000    	81.0000     	0.0000      	Open  	;
 761             	468             	469             	39.6307     	60.0000     	132.0000    	0.0000      	Open  	;
 762             	452             	453             	2.4948      	60.0000     	132.0000    	0.0000      	Open  	;
 763             	470             	471             	4.3028      	60.0000     	132.0000    	0.0000      	Open  	;
 764             	473             	407             	2.6118      	150.0000    	59.0000     	0.0000      	Open  	;
 765             	473             	294             	2.6250      	150.0000    	59.0000     	0.0000      	Open  	;
 766             	476             	477             	3.4954      	160.0000    	59.0000     	0.0000      	Open  	;
 767             	2813            	PM.VRP.CND.003  	5.9111      	200.0000    	81.0000     	0.0000      	Open  	;
 768             	87              	266             	90.7548     	60.0000     	132.0000    	0.0000      	Open  	;
 769             	1430            	1440            	0.4698      	200.0000    	61.0000     	0.0000      	Open  	;
 770             	2812            	2803            	4.6198      	200.0000    	81.0000     	0.0000      	Open  	;
 771             	1440            	2812            	4.6198      	200.0000    	81.0000     	0.0000      	Open  	;
 772             	1441            	2738            	0.5215      	150.0000    	59.0000     	0.0000      	Open  	;
 773             	1428            	1431            	0.8534      	200.0000    	81.0000     	0.0000      	Open  	;
 774             	2811            	441             	6.4588      	300.0000    	86.0000     	0.0000      	Open  	;
 775             	452             	472             	3.1832      	60.0000     	132.0000    	0.0000      	Open  	;
 776             	408             	409             	96.7762     	60.0000     	132.0000    	0.0000      	Open  	;
 777             	449             	451             	2.6501      	60.0000     	132.0000    	0.0000      	Open  	;
 778             	356             	448             	2.6038      	60.0000     	132.0000    	0.0000      	Open  	;
 779             	411             	412             	2.7124      	60.0000     	132.0000    	0.0000      	Open  	;
 780             	413             	414             	8.7212      	60.0000     	132.0000    	0.0000      	Open  	;
 781             	415             	416             	69.1579     	60.0000     	132.0000    	0.0000      	Open  	;
 782             	417             	418             	3.1828      	60.0000     	132.0000    	0.0000      	Open  	;
 783             	418             	419             	2.4435      	60.0000     	132.0000    	0.0000      	Open  	;
 784             	267             	271             	50.8441     	60.0000     	132.0000    	0.0000      	Open  	;
 785             	410             	420             	2.0288      	60.0000     	132.0000    	0.0000      	Open  	;
 786             	420             	421             	2.8828      	60.0000     	132.0000    	0.0000      	Open  	;
 787             	422             	423             	19.6988     	60.0000     	132.0000    	0.0000      	Open  	;
 788             	423             	424             	16.1618     	60.0000     	132.0000    	0.0000      	Open  	;
 789             	424             	425             	14.3147     	60.0000     	132.0000    	0.0000      	Open  	;
 790             	449             	450             	2.7821      	60.0000     	132.0000    	0.0000      	Open  	;
 791             	425             	426             	25.9221     	60.0000     	132.0000    	0.0000      	Open  	;
 792             	429             	430             	132.0343    	60.0000     	132.0000    	0.0000      	Open  	;
 793             	431             	432             	133.7765    	60.0000     	132.0000    	0.0000      	Open  	;
 794             	433             	434             	2.3588      	60.0000     	132.0000    	0.0000      	Open  	;
 795             	435             	436             	88.9490     	60.0000     	132.0000    	0.0000      	Open  	;
 796             	437             	357             	94.6785     	60.0000     	132.0000    	0.0000      	Open  	;
 797             	438             	439             	4.3955      	60.0000     	132.0000    	0.0000      	Open  	;
 798             	400             	440             	2.6708      	150.0000    	59.0000     	0.0000      	Open  	;
 799             	441             	442             	3.2873      	300.0000    	66.0000     	0.0000      	Open  	;
 800             	14              	443             	2.8764      	150.0000    	59.0000     	0.0000      	Open  	;
 801             	722             	352             	37.7933     	150.0000    	135.0000    	0.0000      	Open  	;
 802             	446             	447             	2.7049      	60.0000     	132.0000    	0.0000      	Open  	;
 803             	427             	428             	145.1900    	60.0000     	132.0000    	0.0000      	Open  	;
 804             	2810            	2811            	20.4235     	300.0000    	86.0000     	0.0000      	Open  	;
 805             	98              	278             	92.2109     	110.0000    	132.0000    	0.0000      	Open  	;
 806             	271             	277             	44.1863     	60.0000     	132.0000    	0.0000      	Open  	;
 807             	832             	1973            	35.3660     	150.0000    	59.0000     	0.0000      	Open  	;
 808             	828             	724             	32.0953     	150.0000    	59.0000     	0.0000      	Open  	;
 809             	1973            	833             	50.6837     	150.0000    	59.0000     	0.0000      	Open  	;
 810             	833             	726             	33.4514     	150.0000    	59.0000     	0.0000      	Open  	;
 811             	724             	459             	3.0875      	150.0000    	59.0000     	0.0000      	Open  	;
 812             	828             	457             	2.8432      	150.0000    	59.0000     	0.0000      	Open  	;
 813             	731             	937             	93.9936     	60.0000     	132.0000    	0.0000      	Open  	;
 814             	51              	52              	0.6778      	300.0000    	86.0000     	0.0000      	Open  	;
 815             	52              	53              	21.1700     	300.0000    	86.0000     	0.0000      	Open  	;
 816             	53              	54              	20.8646     	300.0000    	86.0000     	0.0000      	Open  	;
 817             	54              	55              	18.5609     	300.0000    	86.0000     	0.0000      	Open  	;
 818             	78              	1974            	1.3291      	60.0000     	132.0000    	0.0000      	Open  	;
 819             	55              	56              	16.3848     	300.0000    	86.0000     	0.0000      	Open  	;
 820             	57              	58              	17.1114     	300.0000    	86.0000     	0.0000      	Open  	;
 821             	58              	59              	19.4500     	300.0000    	86.0000     	0.0000      	Open  	;
 822             	59              	60              	22.6543     	300.0000    	86.0000     	0.0000      	Open  	;
 823             	60              	61              	26.4049     	300.0000    	86.0000     	0.0000      	Open  	;
 824             	61              	62              	3.4371      	300.0000    	86.0000     	0.0000      	Open  	;
 825             	66              	67              	9.1776      	60.0000     	132.0000    	0.0000      	Open  	;
 826             	67              	68              	0.4627      	60.0000     	132.0000    	0.0000      	Open  	;
 827             	71              	72              	24.1671     	60.0000     	132.0000    	0.0000      	Open  	;
 828             	73              	74              	3.5348      	85.0000     	132.0000    	0.0000      	Open  	;
 829             	75              	76              	2.7890      	60.0000     	132.0000    	0.0000      	Open  	;
 830             	79              	80              	95.1653     	60.0000     	132.0000    	0.0000      	Open  	;
 831             	56              	57              	33.1679     	300.0000    	86.0000     	0.0000      	Open  	;
 832             	83              	84              	2.2354      	60.0000     	132.0000    	0.0000      	Open  	;
 833             	1974            	897             	51.3484     	60.0000     	132.0000    	0.0000      	Open  	;
 834             	37              	38              	8.0054      	85.0000     	132.0000    	0.0000      	Open  	;
 835             	452             	21              	35.7980     	150.0000    	59.0000     	0.0000      	Open  	;
 836             	3               	4               	4.2217      	85.0000     	132.0000    	0.0000      	Open  	;
 837             	4               	5               	3.2563      	85.0000     	132.0000    	0.0000      	Open  	;
 838             	6               	7               	3.9364      	85.0000     	132.0000    	0.0000      	Open  	;
 839             	8               	9               	3.4586      	85.0000     	132.0000    	0.0000      	Open  	;
 840             	9               	10              	2.6228      	85.0000     	132.0000    	0.0000      	Open  	;
 841             	11              	6               	3.4015      	85.0000     	132.0000    	0.0000      	Open  	;
 842             	12              	13              	24.6240     	85.0000     	132.0000    	0.0000      	Open  	;
 843             	14              	15              	2.7481      	150.0000    	59.0000     	0.0000      	Open  	;
 844             	734             	832             	61.2730     	150.0000    	59.0000     	0.0000      	Open  	;
 845             	803             	1418            	7.3421      	150.0000    	59.0000     	0.0000      	Open  	;
 846             	611             	615             	113.2362    	60.0000     	132.0000    	0.0000      	Open  	;
 847             	826             	80              	32.8317     	60.0000     	132.0000    	0.0000      	Open  	;
 848             	21              	22              	2.6791      	60.0000     	132.0000    	0.0000      	Open  	;
 849             	721             	446             	21.1583     	150.0000    	59.0000     	0.0000      	Open  	;
 850             	446             	356             	31.5073     	150.0000    	59.0000     	0.0000      	Open  	;
 851             	1979            	1980            	3.6442      	110.0000    	132.0000    	0.0000      	Open  	;
 852             	1978            	434             	18.9159     	60.0000     	132.0000    	0.0000      	Open  	;
 853             	1977            	1978            	40.3224     	60.0000     	132.0000    	0.0000      	Open  	;
 854             	1976            	1977            	31.9051     	60.0000     	132.0000    	0.0000      	Open  	;
 855             	1975            	1976            	49.9217     	60.0000     	132.0000    	0.0000      	Open  	;
 856             	462             	611             	14.4386     	60.0000     	132.0000    	0.0000      	Open  	;
 857             	35              	36              	16.1264     	85.0000     	132.0000    	0.0000      	Open  	;
 858             	36              	37              	41.0958     	85.0000     	132.0000    	0.0000      	Open  	;
 859             	723             	580             	47.7073     	60.0000     	132.0000    	0.0000      	Open  	;
 860             	277             	274             	35.9844     	60.0000     	132.0000    	0.0000      	Open  	;
 861             	85              	86              	3.3908      	110.0000    	132.0000    	0.0000      	Open  	;
 862             	89              	90              	1.7459      	110.0000    	132.0000    	0.0000      	Open  	;
 863             	2840            	2841            	1.2501      	300.0000    	86.0000     	0.0000      	Open  	;
 864             	439             	2840            	6.5944      	300.0000    	86.0000     	0.0000      	Open  	;
 865             	14              	2283            	3.3812      	150.0000    	59.0000     	0.0000      	Open  	;
 866             	955             	959             	48.9215     	60.0000     	132.0000    	0.0000      	Open  	;
 867             	254             	829             	1.6067      	85.0000     	132.0000    	0.0000      	Open  	;
 868             	2283            	1979            	26.2304     	110.0000    	132.0000    	0.0000      	Open  	;
 869             	2206            	2223            	32.4831     	60.0000     	132.0000    	0.0000      	Open  	;
 870             	252             	253             	48.9281     	60.0000     	132.0000    	0.0000      	Open  	;
 871             	254             	255             	1.0749      	85.0000     	132.0000    	0.0000      	Open  	;
 872             	255             	256             	15.4890     	85.0000     	132.0000    	0.0000      	Open  	;
 873             	256             	257             	5.3291      	85.0000     	132.0000    	0.0000      	Open  	;
 874             	2841            	2842            	0.0578      	300.0000    	86.0000     	0.0000      	Open  	;
 875             	257             	258             	50.0291     	85.0000     	132.0000    	0.0000      	Open  	;
 876             	261             	262             	18.6047     	110.0000    	132.0000    	0.0000      	Open  	;
 877             	89              	263             	13.7952     	110.0000    	132.0000    	0.0000      	Open  	;
 878             	264             	265             	50.0049     	60.0000     	132.0000    	0.0000      	Open  	;
 879             	102             	266             	9.0330      	60.0000     	132.0000    	0.0000      	Open  	;
 880             	267             	268             	3.3434      	60.0000     	132.0000    	0.0000      	Open  	;
 881             	269             	270             	10.7540     	60.0000     	132.0000    	0.0000      	Open  	;
 882             	271             	269             	23.9946     	60.0000     	132.0000    	0.0000      	Open  	;
 883             	272             	273             	90.9978     	60.0000     	132.0000    	0.0000      	Open  	;
 884             	274             	275             	38.4629     	60.0000     	132.0000    	0.0000      	Open  	;
 885             	275             	276             	53.3067     	60.0000     	132.0000    	0.0000      	Open  	;
 886             	276             	272             	59.4161     	60.0000     	132.0000    	0.0000      	Open  	;
 887             	259             	260             	15.7785     	85.0000     	132.0000    	0.0000      	Open  	;
 888             	87              	88              	4.1522      	60.0000     	132.0000    	0.0000      	Open  	;
 889             	2840            	2841            	1.2501      	300.0000    	86.0000     	0.0000      	Open  	;
 890             	2842            	51              	0.6073      	300.0000    	86.0000     	0.0000      	Open  	;
 891             	93              	94              	26.9579     	75.0000     	57.0000     	0.0000      	Open  	;
 892             	95              	96              	1.6391      	150.0000    	59.0000     	0.0000      	Open  	;
 893             	97              	98              	2.4504      	150.0000    	59.0000     	0.0000      	Open  	;
 894             	99              	93              	2.7598      	75.0000     	57.0000     	0.0000      	Open  	;
 895             	100             	101             	13.8729     	60.0000     	132.0000    	0.0000      	Open  	;
 896             	101             	102             	23.7082     	60.0000     	132.0000    	0.0000      	Open  	;
 897             	901             	1965            	2.6571      	85.0000     	132.0000    	0.0000      	Open  	;
 898             	21              	747             	14.0855     	150.0000    	59.0000     	0.0000      	Open  	;
 899             	2290            	820             	3.0074      	150.0000    	59.0000     	0.0000      	Open  	;
 900             	361             	2290            	2.2643      	150.0000    	59.0000     	0.0000      	Open  	;
 901             	811             	2289            	31.9924     	75.0000     	57.0000     	0.0000      	Open  	;
 902             	2841            	2842            	0.0578      	300.0000    	86.0000     	0.0000      	Open  	;
 903             	747             	417             	31.4771     	150.0000    	59.0000     	0.0000      	Open  	;
 904             	2842            	51              	0.6073      	300.0000    	86.0000     	0.0000      	Open  	;
 905             	439             	2840            	6.5944      	300.0000    	86.0000     	0.0000      	Open  	;
 906             	2861            	2858            	0.7816      	200.0000    	81.0000     	0.0000      	Open  	;
 909             	2859            	1489            	0.0715      	200.0000    	81.0000     	0.0000      	Open  	;
 910             	2858            	2859            	0.3727      	200.0000    	81.0000     	0.0000      	Open  	;
 911             	2856            	PM.VRP.CND.001  	1.7570      	300.0000    	86.0000     	0.0000      	Open  	;
 912             	2855            	2856            	6.6927      	300.0000    	86.0000     	0.0000      	Open  	;
 913             	1520            	2855            	9.7788      	300.0000    	86.0000     	0.0000      	Open  	;
 914             	2392            	1492            	0.5719      	160.0000    	95.0000     	0.0000      	Open  	;
 915             	476             	2288            	14.2458     	160.0000    	59.0000     	0.0000      	Open  	;
 916             	62              	2810            	18.4622     	300.0000    	86.0000     	0.0000      	Open  	;
 917             	2035            	2813            	18.4104     	200.0000    	81.0000     	0.0000      	Open  	;
 918             	2809            	2035            	2.6864      	200.0000    	81.0000     	0.0000      	Open  	;
 919             	721             	796             	1.5489      	150.0000    	59.0000     	0.0000      	Open  	;
 920             	729             	797             	1.7133      	150.0000    	59.0000     	0.0000      	Open  	;
 921             	607             	825             	39.8724     	60.0000     	132.0000    	0.0000      	Open  	;
 922             	349             	800             	2.1909      	150.0000    	59.0000     	0.0000      	Open  	;
 923             	801             	802             	1.8376      	150.0000    	59.0000     	0.0000      	Open  	;
 924             	803             	804             	1.6211      	150.0000    	59.0000     	0.0000      	Open  	;
 925             	722             	415             	2.6628      	150.0000    	135.0000    	0.0000      	Open  	;
 927             	452             	807             	72.4978     	150.0000    	59.0000     	0.0000      	Open  	;
 928             	722             	851             	2.5835      	150.0000    	135.0000    	0.0000      	Open  	;
 929             	13              	810             	23.5250     	85.0000     	132.0000    	0.0000      	Open  	;
 930             	810             	811             	24.1621     	75.0000     	57.0000     	0.0000      	Open  	;
 931             	734             	793             	1.2331      	150.0000    	59.0000     	0.0000      	Open  	;
 932             	812             	813             	32.9667     	60.0000     	132.0000    	0.0000      	Open  	;
 933             	814             	815             	13.1918     	60.0000     	132.0000    	0.0000      	Open  	;
 934             	815             	816             	12.7592     	60.0000     	132.0000    	0.0000      	Open  	;
 935             	816             	817             	11.6155     	60.0000     	132.0000    	0.0000      	Open  	;
 936             	817             	818             	8.3675      	60.0000     	132.0000    	0.0000      	Open  	;
 937             	818             	819             	3.4611      	60.0000     	132.0000    	0.0000      	Open  	;
 938             	819             	720             	8.9398      	60.0000     	132.0000    	0.0000      	Open  	;
 939             	820             	714             	4.5882      	60.0000     	132.0000    	0.0000      	Open  	;
 940             	714             	821             	19.5801     	60.0000     	132.0000    	0.0000      	Open  	;
 941             	821             	822             	21.3665     	60.0000     	132.0000    	0.0000      	Open  	;
 942             	822             	823             	26.2271     	60.0000     	132.0000    	0.0000      	Open  	;
 943             	823             	824             	24.1350     	60.0000     	132.0000    	0.0000      	Open  	;
 944             	824             	825             	48.9445     	60.0000     	132.0000    	0.0000      	Open  	;
 945             	813             	814             	17.0809     	60.0000     	132.0000    	0.0000      	Open  	;
 946             	826             	827             	95.3357     	60.0000     	132.0000    	0.0000      	Open  	;
 947             	677             	790             	4.4361      	85.0000     	132.0000    	0.0000      	Open  	;
 948             	397             	2256            	1.5324      	85.0000     	132.0000    	0.0000      	Open  	;
 949             	454             	473             	41.1621     	150.0000    	59.0000     	0.0000      	Open  	;
 950             	724             	725             	3.0184      	150.0000    	59.0000     	0.0000      	Open  	;
 951             	726             	727             	3.1706      	150.0000    	59.0000     	0.0000      	Open  	;
 952             	442             	728             	18.5420     	75.0000     	57.0000     	0.0000      	Open  	;
 953             	726             	729             	15.5604     	150.0000    	59.0000     	0.0000      	Open  	;
 954             	723             	730             	2.5874      	150.0000    	59.0000     	0.0000      	Open  	;
 955             	356             	358             	48.0401     	150.0000    	59.0000     	0.0000      	Open  	;
 956             	731             	732             	8.9508      	60.0000     	132.0000    	0.0000      	Open  	;
 957             	440             	733             	17.4372     	85.0000     	132.0000    	0.0000      	Open  	;
 958             	734             	735             	20.8866     	150.0000    	59.0000     	0.0000      	Open  	;
 959             	396             	268             	4.1127      	85.0000     	132.0000    	0.0000      	Open  	;
 960             	738             	739             	15.3521     	85.0000     	132.0000    	0.0000      	Open  	;
 961             	2185            	2227            	34.8250     	60.0000     	132.0000    	0.0000      	Open  	;
 962             	17              	738             	53.0004     	85.0000     	132.0000    	0.0000      	Open  	;
 963             	745             	303             	60.1464     	60.0000     	132.0000    	0.0000      	Open  	;
 964             	673             	252             	18.4266     	60.0000     	132.0000    	0.0000      	Open  	;
 965             	747             	748             	2.1487      	150.0000    	59.0000     	0.0000      	Open  	;
 966             	807             	1429            	9.9317      	150.0000    	59.0000     	0.0000      	Open  	;
 967             	2738            	919             	13.9528     	150.0000    	59.0000     	0.0000      	Open  	;
 968             	352             	404             	2.8043      	60.0000     	132.0000    	0.0000      	Open  	;
 969             	315             	2392            	6.5433      	160.0000    	59.0000     	0.0000      	Open  	;
 970             	812             	2239            	36.3208     	85.0000     	132.0000    	0.0000      	Open  	;
 971             	636             	2186            	54.7212     	85.0000     	132.0000    	0.0000      	Open  	;
 972             	2043            	2247            	40.4417     	85.0000     	132.0000    	0.0000      	Open  	;
 973             	2194            	2257            	39.4802     	85.0000     	132.0000    	0.0000      	Open  	;
 974             	2235            	2243            	33.3833     	60.0000     	132.0000    	0.0000      	Open  	;
 975             	743             	744             	142.2094    	110.0000    	132.0000    	0.0000      	Open  	;
 976             	473             	413             	38.8925     	150.0000    	59.0000     	0.0000      	Open  	;
 977             	729             	828             	33.3517     	150.0000    	59.0000     	0.0000      	Open  	;
 978             	828             	831             	3.1504      	150.0000    	59.0000     	0.0000      	Open  	;
 979             	400             	454             	41.4799     	150.0000    	59.0000     	0.0000      	Open  	;
 980             	728             	2042            	29.4669     	75.0000     	57.0000     	0.0000      	Open  	;
 981             	878             	879             	25.7660     	60.0000     	132.0000    	0.0000      	Open  	;
 982             	879             	880             	24.3017     	60.0000     	132.0000    	0.0000      	Open  	;
 983             	881             	878             	40.9012     	60.0000     	132.0000    	0.0000      	Open  	;
 984             	882             	883             	14.0494     	60.0000     	132.0000    	0.0000      	Open  	;
 985             	883             	884             	43.3712     	60.0000     	132.0000    	0.0000      	Open  	;
 986             	884             	881             	119.0410    	60.0000     	132.0000    	0.0000      	Open  	;
 987             	519             	885             	21.0701     	60.0000     	132.0000    	0.0000      	Open  	;
 988             	885             	882             	4.9941      	60.0000     	132.0000    	0.0000      	Open  	;
 989             	270             	886             	0.1628      	60.0000     	132.0000    	0.0000      	Open  	;
 990             	886             	518             	46.9459     	60.0000     	132.0000    	0.0000      	Open  	;
 991             	400             	801             	17.1685     	150.0000    	59.0000     	0.0000      	Open  	;
 992             	887             	888             	12.3724     	60.0000     	132.0000    	0.0000      	Open  	;
 993             	604             	258             	54.5986     	85.0000     	132.0000    	0.0000      	Open  	;
 994             	90              	891             	1.2951      	60.0000     	132.0000    	0.0000      	Open  	;
 995             	891             	892             	33.0106     	60.0000     	132.0000    	0.0000      	Open  	;
 996             	656             	893             	127.5819    	60.0000     	132.0000    	0.0000      	Open  	;
 997             	893             	83              	1.3390      	60.0000     	132.0000    	0.0000      	Open  	;
 998             	261             	259             	30.0598     	85.0000     	132.0000    	0.0000      	Open  	;
 999             	894             	895             	59.0410     	85.0000     	132.0000    	0.0000      	Open  	;
 1000            	895             	896             	1.2954      	85.0000     	132.0000    	0.0000      	Open  	;
 1001            	897             	887             	25.8235     	60.0000     	132.0000    	0.0000      	Open  	;
 1002            	898             	596             	99.1147     	60.0000     	132.0000    	0.0000      	Open  	;
 1003            	899             	898             	42.3247     	60.0000     	132.0000    	0.0000      	Open  	;
 1004            	900             	899             	97.7770     	60.0000     	132.0000    	0.0000      	Open  	;
 1005            	889             	890             	15.0024     	60.0000     	132.0000    	0.0000      	Open  	;
 1006            	829             	830             	3.9586      	85.0000     	132.0000    	0.0000      	Open  	;
 1007            	726             	431             	2.5963      	150.0000    	59.0000     	0.0000      	Open  	;
 1008            	1973            	2040            	3.3993      	150.0000    	59.0000     	0.0000      	Open  	;
 1009            	832             	427             	3.4130      	150.0000    	59.0000     	0.0000      	Open  	;
 1010            	833             	834             	2.6008      	150.0000    	59.0000     	0.0000      	Open  	;
 1011            	358             	835             	2.4993      	150.0000    	59.0000     	0.0000      	Open  	;
 1012            	723             	827             	3.0371      	150.0000    	59.0000     	0.0000      	Open  	;
 1013            	477             	836             	142.4490    	60.0000     	132.0000    	0.0000      	Open  	;
 1014            	831             	2272            	103.2611    	60.0000     	132.0000    	0.0000      	Open  	;
 1015            	35              	839             	65.6616     	85.0000     	132.0000    	0.0000      	Open  	;
 1016            	450             	2256            	62.6289     	85.0000     	132.0000    	0.0000      	Open  	;
 1017            	834             	846             	111.3117    	60.0000     	132.0000    	0.0000      	Open  	;
 1018            	725             	688             	104.6307    	60.0000     	132.0000    	0.0000      	Open  	;
 1019            	409             	692             	40.6451     	60.0000     	132.0000    	0.0000      	Open  	;
 1020            	851             	852             	22.1638     	60.0000     	132.0000    	0.0000      	Open  	;
 1021            	833             	2041            	2.7689      	150.0000    	59.0000     	0.0000      	Open  	;
 1022            	852             	853             	11.6894     	60.0000     	132.0000    	0.0000      	Open  	;
 1023            	854             	855             	31.1989     	60.0000     	132.0000    	0.0000      	Open  	;
 1024            	2270            	2271            	18.8461     	85.0000     	132.0000    	0.0000      	Open  	;
 1025            	735             	402             	8.9803      	150.0000    	59.0000     	0.0000      	Open  	;
 1026            	355             	2031            	7.9900      	150.0000    	59.0000     	0.0000      	Open  	;
 1027            	2031            	1479            	61.8448     	150.0000    	59.0000     	0.0000      	Open  	;
 1028            	2269            	2270            	15.7757     	85.0000     	132.0000    	0.0000      	Open  	;
 1029            	2268            	2269            	16.0560     	85.0000     	132.0000    	0.0000      	Open  	;
 1030            	1455            	2033            	33.7778     	60.0000     	132.0000    	0.0000      	Open  	;
 1031            	2267            	2268            	14.7076     	85.0000     	132.0000    	0.0000      	Open  	;
 1032            	2037            	2038            	32.5439     	60.0000     	132.0000    	0.0000      	Open  	;
 1033            	2266            	2267            	11.2420     	85.0000     	132.0000    	0.0000      	Open  	;
 1034            	832             	2039            	3.0733      	150.0000    	59.0000     	0.0000      	Open  	;
 1035            	853             	854             	14.5079     	60.0000     	132.0000    	0.0000      	Open  	;
 1036            	1418            	2263            	2.5375      	85.0000     	132.0000    	0.0000      	Open  	;
 1037            	2391            	467             	19.9106     	160.0000    	135.0000    	0.0000      	Open  	;
 1038            	358             	723             	32.2290     	150.0000    	59.0000     	0.0000      	Open  	;
 1039            	572             	573             	30.0962     	60.0000     	132.0000    	0.0000      	Open  	;
 1040            	574             	575             	13.9987     	60.0000     	132.0000    	0.0000      	Open  	;
 1041            	576             	577             	61.5673     	60.0000     	132.0000    	0.0000      	Open  	;
 1042            	437             	436             	33.0057     	60.0000     	132.0000    	0.0000      	Open  	;
 1043            	578             	565             	36.2864     	60.0000     	132.0000    	0.0000      	Open  	;
 1044            	579             	580             	98.2180     	60.0000     	132.0000    	0.0000      	Open  	;
 1045            	581             	579             	29.8715     	60.0000     	132.0000    	0.0000      	Open  	;
 1046            	581             	582             	92.3495     	60.0000     	132.0000    	0.0000      	Open  	;
 1047            	576             	575             	55.4477     	60.0000     	132.0000    	0.0000      	Open  	;
 1048            	596             	597             	5.6384      	60.0000     	132.0000    	0.0000      	Open  	;
 1049            	598             	599             	31.1153     	85.0000     	132.0000    	0.0000      	Open  	;
 1050            	599             	600             	8.8351      	85.0000     	132.0000    	0.0000      	Open  	;
 1051            	570             	571             	5.0397      	110.0000    	132.0000    	0.0000      	Open  	;
 1052            	600             	601             	18.6716     	85.0000     	132.0000    	0.0000      	Open  	;
 1053            	602             	3               	18.8769     	85.0000     	132.0000    	0.0000      	Open  	;
 1054            	5               	603             	208.7154    	85.0000     	132.0000    	0.0000      	Open  	;
 1055            	604             	11              	207.3337    	85.0000     	132.0000    	0.0000      	Open  	;
 1056            	607             	608             	2.1300      	60.0000     	132.0000    	0.0000      	Open  	;
 1057            	609             	610             	113.1598    	32.0000     	135.0000    	0.0000      	Open  	;
 1058            	611             	612             	0.0827      	60.0000     	132.0000    	0.0000      	Open  	;
 1059            	612             	609             	6.5868      	60.0000     	132.0000    	0.0000      	Open  	;
 1060            	615             	610             	6.5534      	60.0000     	132.0000    	0.0000      	Open  	;
 1061            	405             	416             	31.8719     	60.0000     	132.0000    	0.0000      	Open  	;
 1062            	616             	291             	42.7645     	85.0000     	132.0000    	0.0000      	Open  	;
 1063            	617             	293             	40.5994     	60.0000     	132.0000    	0.0000      	Open  	;
 1064            	618             	619             	31.7445     	85.0000     	132.0000    	0.0000      	Open  	;
 1065            	601             	602             	11.4419     	85.0000     	132.0000    	0.0000      	Open  	;
 1066            	432             	620             	32.6946     	85.0000     	132.0000    	0.0000      	Open  	;
 1067            	569             	567             	45.5414     	110.0000    	132.0000    	0.0000      	Open  	;
 1068            	567             	564             	37.5744     	85.0000     	132.0000    	0.0000      	Open  	;
 1069            	994             	2809            	19.1951     	200.0000    	81.0000     	0.0000      	Open  	;
 1070            	2808            	1442            	0.1381      	80.0000     	77.0000     	0.0000      	Open  	;
 1072            	2806            	994             	4.1832      	200.0000    	81.0000     	0.0000      	Open  	;
 1073            	2805            	2806            	4.1832      	200.0000    	81.0000     	0.0000      	Open  	;
 1074            	2804            	2805            	0.8025      	200.0000    	81.0000     	0.0000      	Open  	;
 1075            	2803            	2804            	0.8025      	200.0000    	81.0000     	0.0000      	Open  	;
 1076            	1421            	88              	1.1217      	85.0000     	132.0000    	0.0000      	Open  	;
 1077            	1420            	256             	2.8099      	85.0000     	132.0000    	0.0000      	Open  	;
 1078            	2331            	38              	58.5132     	85.0000     	132.0000    	0.0000      	Open  	;
 1079            	2789            	439             	13.2677     	300.0000    	86.0000     	0.0000      	Open  	;
 1080            	518             	519             	12.3791     	60.0000     	132.0000    	0.0000      	Open  	;
 1081            	568             	306             	55.6974     	60.0000     	132.0000    	0.0000      	Open  	;
 1082            	531             	468             	56.3566     	60.0000     	132.0000    	0.0000      	Open  	;
 1083            	456             	534             	20.2910     	85.0000     	132.0000    	0.0000      	Open  	;
 1084            	534             	535             	8.3822      	85.0000     	132.0000    	0.0000      	Open  	;
 1085            	535             	536             	9.1807      	85.0000     	132.0000    	0.0000      	Open  	;
 1086            	536             	537             	14.0067     	85.0000     	132.0000    	0.0000      	Open  	;
 1087            	537             	538             	13.0523     	85.0000     	132.0000    	0.0000      	Open  	;
 1088            	538             	539             	86.9201     	85.0000     	132.0000    	0.0000      	Open  	;
 1089            	603             	604             	40.1419     	85.0000     	132.0000    	0.0000      	Open  	;
 1090            	466             	542             	80.9687     	60.0000     	132.0000    	0.0000      	Open  	;
 1091            	2789            	439             	13.2677     	300.0000    	86.0000     	0.0000      	Open  	;
 1092            	615             	1975            	39.6006     	60.0000     	132.0000    	0.0000      	Open  	;
 1093            	74              	564             	60.0290     	85.0000     	132.0000    	0.0000      	Open  	;
 1094            	565             	566             	71.6588     	60.0000     	132.0000    	0.0000      	Open  	;
 1095            	738             	2331            	48.4826     	85.0000     	132.0000    	0.0000      	Open  	;
 1096            	268             	626             	0.1786      	85.0000     	132.0000    	0.0000      	Open  	;
 1097            	460             	458             	31.6435     	85.0000     	132.0000    	0.0000      	Open  	;
 1098            	449             	278             	117.3170    	110.0000    	132.0000    	0.0000      	Open  	;
 1099            	645             	646             	56.9362     	160.0000    	135.0000    	0.0000      	Open  	;
 1100            	1979            	433             	9.3254      	110.0000    	132.0000    	0.0000      	Open  	;
 1101            	691             	692             	155.8557    	60.0000     	132.0000    	0.0000      	Open  	;
 1102            	1973            	430             	3.0375      	150.0000    	59.0000     	0.0000      	Open  	;
 1103            	656             	657             	42.6026     	60.0000     	132.0000    	0.0000      	Open  	;
 1104            	626             	627             	14.3226     	85.0000     	132.0000    	0.0000      	Open  	;
 1105            	406             	658             	16.6266     	85.0000     	132.0000    	0.0000      	Open  	;
 1106            	658             	659             	18.1825     	85.0000     	132.0000    	0.0000      	Open  	;
 1107            	659             	660             	19.3692     	85.0000     	132.0000    	0.0000      	Open  	;
 1108            	660             	661             	41.2201     	85.0000     	132.0000    	0.0000      	Open  	;
 1109            	2248            	661             	34.2921     	85.0000     	132.0000    	0.0000      	Open  	;
 1110            	918             	2068            	39.8992     	85.0000     	132.0000    	0.0000      	Open  	;
 1111            	673             	264             	8.8969      	60.0000     	132.0000    	0.0000      	Open  	;
 1112            	539             	300             	39.4422     	85.0000     	132.0000    	0.0000      	Open  	;
 1113            	676             	677             	8.6000      	110.0000    	132.0000    	0.0000      	Open  	;
 1114            	307             	71              	3.1624      	110.0000    	132.0000    	0.0000      	Open  	;
 1115            	351             	1419            	2.8316      	150.0000    	59.0000     	0.0000      	Open  	;
 1116            	352             	426             	2.8151      	60.0000     	132.0000    	0.0000      	Open  	;
 1117            	688             	689             	32.1292     	60.0000     	132.0000    	0.0000      	Open  	;
 1118            	97              	95              	0.9575      	150.0000    	59.0000     	0.0000      	Open  	;
 1119            	714             	715             	0.3001      	150.0000    	59.0000     	0.0000      	Open  	;
 1120            	690             	691             	25.1166     	60.0000     	132.0000    	0.0000      	Open  	;
 1121            	715             	716             	12.1859     	150.0000    	59.0000     	0.0000      	Open  	;
 1122            	627             	628             	19.6661     	85.0000     	132.0000    	0.0000      	Open  	;
 1123            	628             	629             	8.2661      	85.0000     	132.0000    	0.0000      	Open  	;
 1124            	629             	630             	13.8912     	85.0000     	132.0000    	0.0000      	Open  	;
 1125            	630             	631             	15.5271     	85.0000     	132.0000    	0.0000      	Open  	;
 1126            	631             	632             	14.3480     	85.0000     	132.0000    	0.0000      	Open  	;
 1127            	632             	633             	22.9231     	85.0000     	132.0000    	0.0000      	Open  	;
 1128            	633             	634             	24.1655     	85.0000     	132.0000    	0.0000      	Open  	;
 1129            	634             	635             	21.9912     	85.0000     	132.0000    	0.0000      	Open  	;
 1130            	721             	722             	31.4922     	150.0000    	59.0000     	0.0000      	Open  	;
 1131            	414             	690             	13.9919     	60.0000     	132.0000    	0.0000      	Open  	;
 1132            	635             	636             	139.8236    	85.0000     	132.0000    	0.0000      	Open  	;
 1133            	446             	435             	2.9204      	150.0000    	59.0000     	0.0000      	Open  	;
 1134            	417             	410             	34.2893     	150.0000    	59.0000     	0.0000      	Open  	;
 1135            	719             	720             	1.8257      	150.0000    	59.0000     	0.0000      	Open  	;
 1136            	417             	719             	3.0330      	150.0000    	59.0000     	0.0000      	Open  	;
 1137            	718             	361             	19.2150     	150.0000    	59.0000     	0.0000      	Open  	;
 1138            	568             	644             	48.2233     	60.0000     	132.0000    	0.0000      	Open  	;
 1139            	717             	718             	10.6990     	150.0000    	59.0000     	0.0000      	Open  	;
 1140            	410             	717             	12.7458     	150.0000    	59.0000     	0.0000      	Open  	;
 1141            	567             	643             	73.6283     	110.0000    	132.0000    	0.0000      	Open  	;
 1142            	2376            	2377            	54.4736     	85.0000     	132.0000    	0.0000      	Open  	;
 1143            	2375            	2376            	45.7136     	85.0000     	132.0000    	0.0000      	Open  	;
 1144            	2377            	2378            	43.8001     	85.0000     	132.0000    	0.0000      	Open  	;
 1145            	67              	2375            	2.8239      	85.0000     	132.0000    	0.0000      	Open  	;
 1146            	2374            	67              	3.1130      	85.0000     	132.0000    	0.0000      	Open  	;
 1147            	2373            	2374            	42.9253     	85.0000     	132.0000    	0.0000      	Open  	;
 1148            	790             	2373            	26.6462     	85.0000     	132.0000    	0.0000      	Open  	;
 1149            	2371            	2372            	66.8382     	60.0000     	132.0000    	0.0000      	Open  	;
 1150            	2370            	2371            	35.3776     	60.0000     	132.0000    	0.0000      	Open  	;
 1151            	68              	2370            	12.7888     	60.0000     	132.0000    	0.0000      	Open  	;
 1152            	2368            	2369            	152.9622    	85.0000     	132.0000    	0.0000      	Open  	;
 1153            	2367            	2368            	100.0000    	85.0000     	132.0000    	0.0000      	Open  	;
 1154            	2366            	2367            	79.4429     	85.0000     	132.0000    	0.0000      	Open  	;
 1155            	2102            	2366            	20.5586     	85.0000     	132.0000    	0.0000      	Open  	;
 1156            	2379            	2103            	73.7854     	85.0000     	132.0000    	0.0000      	Open  	;
 1157            	993             	342             	4.0082      	100.0000    	53.0000     	0.0000      	Open  	;
 1158            	993             	2353            	5.2001      	100.0000    	53.0000     	0.0000      	Open  	;
 1159            	2378            	2379            	9.7436      	85.0000     	132.0000    	0.0000      	Open  	;
 1160            	850             	2293            	3.1463      	100.0000    	53.0000     	0.0000      	Open  	;
 1161            	26              	27              	1.2232      	110.0000    	132.0000    	0.0000      	Open  	;
 1162            	970             	971             	2.1133      	110.0000    	132.0000    	0.0000      	Open  	;
 1163            	808             	809             	17.5101     	80.0000     	53.0000     	0.0000      	Open  	;
 1164            	343             	845             	53.6970     	110.0000    	132.0000    	0.0000      	Open  	;
 1165            	25              	26              	0.4310      	110.0000    	132.0000    	0.0000      	Open  	;
 1166            	323             	324             	8.0462      	100.0000    	53.0000     	0.0000      	Open  	;
 1167            	324             	325             	11.5437     	100.0000    	53.0000     	0.0000      	Open  	;
 1168            	342             	343             	4.4114      	100.0000    	53.0000     	0.0000      	Open  	;
 1169            	322             	323             	130.4107    	100.0000    	53.0000     	0.0000      	Open  	;
 1170            	849             	850             	4.1046      	100.0000    	53.0000     	0.0000      	Open  	;
 1171            	532             	533             	1.6421      	110.0000    	132.0000    	0.0000      	Open  	;
 1172            	2103            	2101            	43.3468     	85.0000     	132.0000    	0.0000      	Open  	;
 1173            	540             	541             	2.2970      	110.0000    	132.0000    	0.0000      	Open  	;
 1174            	849             	993             	13.1385     	100.0000    	53.0000     	0.0000      	Open  	;
 1175            	2100            	2101            	27.7469     	85.0000     	132.0000    	0.0000      	Open  	;
 1176            	2166            	2167            	62.6829     	110.0000    	132.0000    	0.0000      	Open  	;
 1177            	2167            	2168            	60.4447     	110.0000    	132.0000    	0.0000      	Open  	;
 1178            	2168            	2169            	59.1721     	110.0000    	132.0000    	0.0000      	Open  	;
 1179            	2169            	532             	46.4030     	110.0000    	132.0000    	0.0000      	Open  	;
 1180            	540             	970             	88.0039     	110.0000    	132.0000    	0.0000      	Open  	;
 1181            	970             	2171            	11.9985     	110.0000    	132.0000    	0.0000      	Open  	;
 1182            	325             	2172            	22.1922     	110.0000    	132.0000    	0.0000      	Open  	;
 1183            	2172            	2166            	53.8105     	110.0000    	132.0000    	0.0000      	Open  	;
 1184            	2099            	2100            	24.9344     	85.0000     	132.0000    	0.0000      	Open  	;
 1185            	809             	2099            	33.7367     	85.0000     	132.0000    	0.0000      	Open  	;
 1186            	845             	322             	94.6278     	110.0000    	132.0000    	0.0000      	Open  	;
 1187            	2102            	808             	65.4926     	85.0000     	132.0000    	0.0000      	Open  	;
 1188            	532             	540             	113.5964    	100.0000    	53.0000     	0.0000      	Open  	;
 1189            	2017            	2018            	14.9441     	85.0000     	122.0000    	0.0000      	Open  	;
 1190            	1413            	1378            	130.9288    	85.0000     	132.0000    	0.0000      	Open  	;
 1191            	2019            	2020            	11.7019     	85.0000     	122.0000    	0.0000      	Open  	;
 1192            	2020            	2021            	11.7017     	85.0000     	122.0000    	0.0000      	Open  	;
 1193            	2021            	1297            	11.7019     	85.0000     	122.0000    	0.0000      	Open  	;
 1194            	2018            	2019            	14.6278     	85.0000     	122.0000    	0.0000      	Open  	;
 1195            	1983            	1985            	42.4889     	60.0000     	132.0000    	0.0000      	Open  	;
 1196            	2047            	2177            	13.9356     	60.0000     	132.0000    	0.0000      	Open  	;
 1197            	1984            	621             	78.2306     	60.0000     	132.0000    	0.0000      	Open  	;
 1198            	463             	625             	34.2778     	110.0000    	132.0000    	0.0000      	Open  	;
 1199            	2015            	2016            	17.0503     	85.0000     	122.0000    	0.0000      	Open  	;
 1200            	2014            	2015            	17.0504     	85.0000     	122.0000    	0.0000      	Open  	;
 1201            	1248            	2014            	17.0503     	85.0000     	122.0000    	0.0000      	Open  	;
 1202            	1277            	1296            	6.1432      	85.0000     	122.0000    	0.0000      	Open  	;
 1203            	1338            	2022            	4.9017      	60.0000     	132.0000    	0.0000      	Open  	;
 1204            	464             	622             	78.8451     	60.0000     	132.0000    	0.0000      	Open  	;
 1205            	1244            	2013            	5.7072      	85.0000     	122.0000    	0.0000      	Open  	;
 1206            	2016            	2017            	14.6279     	85.0000     	122.0000    	0.0000      	Open  	;
 1207            	712             	785             	20.9942     	150.0000    	52.0000     	0.0000      	Open  	;
 1208            	848             	2048            	39.6972     	60.0000     	132.0000    	0.0000      	Open  	;
 1209            	2023            	762             	61.5361     	60.0000     	132.0000    	0.0000      	Open  	;
 1210            	1143            	1141            	49.0736     	110.0000    	132.0000    	0.0000      	Open  	;
 1211            	1141            	1139            	46.4559     	85.0000     	132.0000    	0.0000      	Open  	;
 1212            	2053            	1140            	94.5161     	60.0000     	132.0000    	0.0000      	Open  	;
 1213            	546             	2053            	4.2674      	60.0000     	132.0000    	0.0000      	Open  	;
 1214            	2052            	1506            	16.4072     	110.0000    	132.0000    	0.0000      	Open  	;
 1215            	1512            	2051            	55.1198     	110.0000    	132.0000    	0.0000      	Open  	;
 1216            	2051            	1143            	22.4334     	110.0000    	132.0000    	0.0000      	Open  	;
 1217            	239             	1998            	8.8995      	85.0000     	122.0000    	0.0000      	Open  	;
 1218            	2050            	1197            	30.6798     	60.0000     	132.0000    	0.0000      	Open  	;
 1219            	668             	1173            	18.4505     	32.0000     	135.0000    	0.0000      	Open  	;
 1220            	1990            	1991            	119.5186    	60.0000     	132.0000    	0.0000      	Open  	;
 1221            	614             	847             	57.7142     	85.0000     	132.0000    	0.0000      	Open  	;
 1222            	605             	1989            	45.3868     	60.0000     	132.0000    	0.0000      	Open  	;
 1223            	1157            	529             	204.0776    	85.0000     	132.0000    	0.0000      	Open  	;
 1224            	2047            	2048            	20.3776     	60.0000     	132.0000    	0.0000      	Open  	;
 1225            	1079            	2034            	29.0870     	100.0000    	75.0000     	0.0000      	Open  	;
 1226            	1575            	39              	83.7867     	300.0000    	78.0000     	0.0000      	Open  	;
 1227            	1992            	2032            	4.1472      	85.0000     	132.0000    	0.0000      	Open  	;
 1228            	1211            	637             	11.9052     	60.0000     	132.0000    	0.0000      	Open  	;
 1229            	551             	2030            	1.2593      	110.0000    	50.0000     	0.0000      	Open  	;
 1230            	19              	2032            	10.2881     	85.0000     	132.0000    	0.0000      	Open  	;
 1231            	2028            	2029            	38.8851     	85.0000     	132.0000    	0.0000      	Open  	;
 1232            	1981            	1989            	39.0104     	60.0000     	132.0000    	0.0000      	Open  	;
 1233            	115             	2028            	50.8834     	85.0000     	132.0000    	0.0000      	Open  	;
 1234            	1515            	135             	2.4741      	85.0000     	132.0000    	0.0000      	Open  	;
 1235            	2026            	2027            	42.0957     	110.0000    	132.0000    	0.0000      	Open  	;
 1236            	2025            	1198            	41.7023     	60.0000     	132.0000    	0.0000      	Open  	;
 1237            	2024            	1228            	48.9192     	110.0000    	132.0000    	0.0000      	Open  	;
 1238            	1209            	558             	2.9351      	60.0000     	132.0000    	0.0000      	Open  	;
 1239            	873             	2012            	4.5047      	200.0000    	135.0000    	0.0000      	Open  	;
 1240            	2010            	1638            	3.6098      	85.0000     	132.0000    	0.0000      	Open  	;
 1241            	782             	2011            	2.4598      	85.0000     	50.0000     	0.0000      	Open  	;
 1242            	2285            	155             	2.4603      	60.0000     	122.0000    	0.0000      	Open  	;
 1243            	1925            	2006            	1.6052      	85.0000     	122.0000    	0.0000      	Open  	;
 1244            	1844            	2286            	45.5579     	150.0000    	125.0000    	0.0000      	Open  	;
 1245            	1932            	2005            	4.0585      	85.0000     	122.0000    	0.0000      	Open  	;
 1246            	1581            	2287            	2.2500      	100.0000    	50.0000     	0.0000      	Open  	;
 1247            	2003            	2004            	2.4383      	85.0000     	132.0000    	0.0000      	Open  	;
 1248            	383             	1947            	5.1454      	300.0000    	55.0000     	0.0000      	Open  	;
 1249            	1921            	2003            	1.4530      	85.0000     	132.0000    	0.0000      	Open  	;
 1250            	2001            	2002            	3.6949      	85.0000     	122.0000    	0.0000      	Open  	;
 1251            	1028            	2000            	25.0876     	85.0000     	122.0000    	0.0000      	Open  	;
 1252            	1998            	1999            	265.3400    	85.0000     	122.0000    	0.0000      	Open  	;
 1253            	1996            	1997            	38.4256     	75.0000     	65.0000     	0.0000      	Open  	;
 1254            	467             	1992            	2.5109      	160.0000    	135.0000    	0.0000      	Open  	;
 1255            	20              	1991            	30.8472     	60.0000     	132.0000    	0.0000      	Open  	;
 1256            	2291            	1944            	72.3100     	300.0000    	55.0000     	0.0000      	Open  	;
 1257            	1943            	1817            	5.3192      	300.0000    	55.0000     	0.0000      	Open  	;
 1258            	1817            	502             	13.1589     	300.0000    	55.0000     	0.0000      	Open  	;
 1259            	2292            	1945            	136.0221    	200.0000    	55.0000     	0.0000      	Open  	;
 1260            	2292            	1004            	53.1250     	200.0000    	55.0000     	0.0000      	Open  	;
 1261            	1461            	376             	6.3632      	250.0000    	65.0000     	0.0000      	Open  	;
 1262            	1991            	445             	40.3996     	60.0000     	132.0000    	0.0000      	Open  	;
 1263            	236             	1522            	58.4992     	110.0000    	112.0000    	0.0000      	Open  	;
 1264            	250             	248             	32.1810     	100.0000    	50.0000     	0.0000      	Open  	;
 1265            	562             	640             	3.4667      	60.0000     	132.0000    	0.0000      	Open  	;
 1266            	1176            	1202            	13.3637     	85.0000     	132.0000    	0.0000      	Open  	;
 1267            	2284            	1936            	2.4583      	85.0000     	122.0000    	0.0000      	Open  	;
 1268            	1756            	1758            	7.3041      	85.0000     	132.0000    	0.0000      	Open  	;
 1269            	2001            	1025            	24.5677     	85.0000     	122.0000    	0.0000      	Open  	;
 1270            	1691            	2007            	5.2861      	100.0000    	55.0000     	0.0000      	Open  	;
 1271            	704             	2011            	0.6218      	85.0000     	132.0000    	0.0000      	Open  	;
 1272            	2052            	2054            	18.7933     	110.0000    	132.0000    	0.0000      	Open  	;
 1273            	2273            	1948            	1.4752      	250.0000    	55.0000     	0.0000      	Open  	;
 1274            	387             	707             	13.6164     	250.0000    	55.0000     	0.0000      	Open  	;
 1275            	2274            	1149            	1.4991      	110.0000    	132.0000    	0.0000      	Open  	;
 1276            	1149            	555             	32.2048     	110.0000    	132.0000    	0.0000      	Open  	;
 1277            	1228            	2275            	18.3205     	110.0000    	132.0000    	0.0000      	Open  	;
 1278            	1224            	1230            	15.4948     	60.0000     	132.0000    	0.0000      	Open  	;
 1279            	126             	1231            	3.4562      	60.0000     	132.0000    	0.0000      	Open  	;
 1280            	1227            	840             	98.0490     	85.0000     	132.0000    	0.0000      	Open  	;
 1281            	2276            	978             	2.4602      	85.0000     	122.0000    	0.0000      	Open  	;
 1282            	789             	2277            	19.9914     	60.0000     	132.0000    	0.0000      	Open  	;
 1283            	767             	1328            	11.2967     	85.0000     	132.0000    	0.0000      	Open  	;
 1284            	2278            	2279            	14.4070     	85.0000     	122.0000    	0.0000      	Open  	;
 1285            	2280            	2281            	15.2754     	300.0000    	75.0000     	0.0000      	Open  	;
 1286            	1966            	2282            	31.9959     	32.0000     	135.0000    	0.0000      	Open  	;
 1287            	1846            	991             	1.8142      	85.0000     	122.0000    	0.0000      	Open  	;
 1288            	2009            	1848            	9.4320      	85.0000     	122.0000    	0.0000      	Open  	;
 1289            	1655            	1848            	38.8136     	250.0000    	125.0000    	0.0000      	Open  	;
 1290            	1847            	2008            	4.0103      	100.0000    	55.0000     	0.0000      	Open  	;
 1291            	1695            	1699            	83.2065     	200.0000    	120.0000    	0.0000      	Open  	;
 1292            	1697            	1694            	12.8979     	200.0000    	120.0000    	0.0000      	Open  	;
 1293            	1254            	1278            	9.6648      	85.0000     	122.0000    	0.0000      	Open  	;
 1294            	1284            	1268            	6.1524      	85.0000     	122.0000    	0.0000      	Open  	;
 1295            	2092            	2078            	7.4773      	85.0000     	122.0000    	0.0000      	Open  	;
 1296            	1340            	1332            	23.6308     	60.0000     	132.0000    	0.0000      	Open  	;
 1297            	528             	1220            	85.5935     	60.0000     	132.0000    	0.0000      	Open  	;
 1298            	1504            	2054            	41.4855     	110.0000    	132.0000    	0.0000      	Open  	;
 1299            	1207            	2064            	49.9200     	60.0000     	132.0000    	0.0000      	Open  	;
 1300            	2055            	2057            	13.2365     	85.0000     	132.0000    	0.0000      	Open  	;
 1301            	2130            	2131            	135.9435    	85.0000     	122.0000    	0.0000      	Open  	;
 1302            	1024            	1017            	39.2288     	60.0000     	122.0000    	0.0000      	Open  	;
 1303            	1022            	2129            	14.1768     	60.0000     	122.0000    	0.0000      	Open  	;
 1304            	216             	2128            	13.8101     	85.0000     	122.0000    	0.0000      	Open  	;
 1305            	2126            	2127            	14.1974     	60.0000     	122.0000    	0.0000      	Open  	;
 1306            	1014            	2125            	15.6512     	85.0000     	122.0000    	0.0000      	Open  	;
 1307            	2124            	2123            	75.8997     	32.0000     	125.0000    	0.0000      	Open  	;
 1308            	2123            	2120            	55.5728     	32.0000     	125.0000    	0.0000      	Open  	;
 1309            	1047            	2122            	61.7948     	32.0000     	125.0000    	0.0000      	Open  	;
 1310            	2095            	2121            	236.1990    	60.0000     	132.0000    	0.0000      	Open  	;
 1311            	1327            	1639            	17.7666     	85.0000     	132.0000    	0.0000      	Open  	;
 1312            	1325            	1644            	68.0979     	60.0000     	132.0000    	0.0000      	Open  	;
 1313            	2120            	2118            	60.8583     	32.0000     	125.0000    	0.0000      	Open  	;
 1314            	2118            	2119            	98.6590     	32.0000     	125.0000    	0.0000      	Open  	;
 1315            	2118            	2117            	91.3394     	32.0000     	125.0000    	0.0000      	Open  	;
 1316            	2117            	2116            	76.0972     	32.0000     	125.0000    	0.0000      	Open  	;
 1317            	2116            	2114            	124.1115    	60.0000     	122.0000    	0.0000      	Open  	;
 1318            	2114            	2115            	87.4142     	60.0000     	122.0000    	0.0000      	Open  	;
 1319            	2112            	2113            	6.7989      	32.0000     	135.0000    	0.0000      	Open  	;
 1320            	1322            	1642            	35.8329     	60.0000     	132.0000    	0.0000      	Open  	;
 1321            	1317            	871             	4.6228      	85.0000     	132.0000    	0.0000      	Open  	;
 1322            	1315            	1641            	32.9068     	60.0000     	132.0000    	0.0000      	Open  	;
 1323            	1313            	872             	7.2596      	85.0000     	132.0000    	0.0000      	Open  	;
 1324            	1311            	871             	2.5371      	85.0000     	132.0000    	0.0000      	Open  	;
 1325            	1639            	1308            	33.2869     	60.0000     	132.0000    	0.0000      	Open  	;
 1326            	522             	1037            	11.8291     	85.0000     	122.0000    	0.0000      	Open  	;
 1327            	1970            	2111            	17.5974     	32.0000     	135.0000    	0.0000      	Open  	;
 1328            	365             	2130            	79.0544     	85.0000     	122.0000    	0.0000      	Open  	;
 1329            	2132            	2133            	1.1682      	85.0000     	122.0000    	0.0000      	Open  	;
 1330            	2217            	2173            	4.3859      	60.0000     	132.0000    	0.0000      	Open  	;
 1331            	1987            	2217            	61.5016     	60.0000     	132.0000    	0.0000      	Open  	;
 1332            	2175            	2176            	90.2883     	60.0000     	132.0000    	0.0000      	Open  	;
 1333            	2149            	2048            	92.2041     	60.0000     	132.0000    	0.0000      	Open  	;
 1334            	2173            	2174            	12.5997     	60.0000     	132.0000    	0.0000      	Open  	;
 1335            	746             	77              	18.5180     	110.0000    	132.0000    	0.0000      	Open  	;
 1336            	77              	398             	36.3253     	110.0000    	132.0000    	0.0000      	Open  	;
 1337            	2150            	25              	0.9998      	110.0000    	132.0000    	0.0000      	Open  	;
 1338            	0               	2149            	42.0988     	60.0000     	132.0000    	0.0000      	Open  	;
 1339            	2146            	1988            	37.9195     	60.0000     	132.0000    	0.0000      	Open  	;
 1340            	2145            	2146            	1.6606      	60.0000     	132.0000    	0.0000      	Open  	;
 1341            	399             	2145            	1.3377      	60.0000     	132.0000    	0.0000      	Open  	;
 1342            	847             	0               	90.7434     	85.0000     	132.0000    	0.0000      	Open  	;
 1343            	2144            	2143            	103.6447    	85.0000     	132.0000    	0.0000      	Open  	;
 1344            	985             	2144            	6.3315      	85.0000     	132.0000    	0.0000      	Open  	;
 1345            	1324            	1643            	64.1726     	60.0000     	132.0000    	0.0000      	Open  	;
 1346            	2143            	2               	35.4713     	85.0000     	132.0000    	0.0000      	Open  	;
 1347            	2137            	2067            	3.2008      	60.0000     	132.0000    	0.0000      	Open  	;
 1348            	2142            	662             	3.2517      	32.0000     	125.0000    	0.0000      	Open  	;
 1349            	593             	2142            	3.2924      	32.0000     	125.0000    	0.0000      	Open  	;
 1350            	595             	2141            	60.0001     	32.0000     	125.0000    	0.0000      	Open  	;
 1351            	2141            	2136            	30.0000     	32.0000     	125.0000    	0.0000      	Open  	;
 1352            	1038            	1019            	11.8565     	85.0000     	122.0000    	0.0000      	Open  	;
 1353            	2140            	1999            	151.8663    	85.0000     	122.0000    	0.0000      	Open  	;
 1354            	2138            	2139            	63.6632     	60.0000     	132.0000    	0.0000      	Open  	;
 1355            	2137            	2138            	112.4469    	60.0000     	132.0000    	0.0000      	Open  	;
 1356            	2136            	237             	16.1422     	32.0000     	125.0000    	0.0000      	Open  	;
 1357            	2131            	1023            	31.7549     	85.0000     	122.0000    	0.0000      	Open  	;
 1358            	1030            	2135            	11.8798     	85.0000     	122.0000    	0.0000      	Open  	;
 1359            	2133            	2134            	25.1643     	85.0000     	122.0000    	0.0000      	Open  	;
 1360            	981             	118             	1.3357      	110.0000    	132.0000    	0.0000      	Open  	;
 1361            	2055            	2056            	79.3700     	110.0000    	132.0000    	0.0000      	Open  	;
 1362            	2110            	613             	34.3010     	85.0000     	132.0000    	0.0000      	Open  	;
 1363            	50              	2094            	63.1543     	60.0000     	132.0000    	0.0000      	Open  	;
 1364            	2071            	1364            	20.1014     	60.0000     	122.0000    	0.0000      	Open  	;
 1365            	1363            	2079            	27.8182     	60.0000     	122.0000    	0.0000      	Open  	;
 1366            	2077            	2078            	4.9652      	85.0000     	122.0000    	0.0000      	Open  	;
 1367            	2075            	2076            	77.9331     	60.0000     	122.0000    	0.0000      	Open  	;
 1368            	2074            	482             	0.5595      	85.0000     	132.0000    	0.0000      	Open  	;
 1369            	675             	2073            	23.3981     	85.0000     	132.0000    	0.0000      	Open  	;
 1370            	2073            	2072            	19.7950     	85.0000     	132.0000    	0.0000      	Open  	;
 1371            	1265            	1267            	6.3782      	85.0000     	122.0000    	0.0000      	Open  	;
 1372            	2072            	1335            	6.4060      	85.0000     	132.0000    	0.0000      	Open  	;
 1373            	1281            	1282            	54.1850     	85.0000     	132.0000    	0.0000      	Open  	;
 1374            	1261            	1281            	8.6492      	85.0000     	132.0000    	0.0000      	Open  	;
 1375            	2071            	1265            	52.4739     	85.0000     	122.0000    	0.0000      	Open  	;
 1376            	2070            	1240            	5.0024      	60.0000     	122.0000    	0.0000      	Open  	;
 1377            	2069            	1241            	5.2977      	60.0000     	122.0000    	0.0000      	Open  	;
 1378            	2057            	1207            	40.3693     	85.0000     	132.0000    	0.0000      	Open  	;
 1379            	1166            	563             	58.6402     	110.0000    	132.0000    	0.0000      	Open  	;
 1380            	2066            	2067            	10.5741     	60.0000     	132.0000    	0.0000      	Open  	;
 1381            	129             	133             	103.6032    	110.0000    	132.0000    	0.0000      	Open  	;
 1382            	1515            	132             	200.4018    	85.0000     	132.0000    	0.0000      	Open  	;
 1383            	666             	2055            	62.6370     	110.0000    	132.0000    	0.0000      	Open  	;
 1384            	1208            	2059            	10.3348     	60.0000     	132.0000    	0.0000      	Open  	;
 1385            	444             	613             	4.0486      	60.0000     	132.0000    	0.0000      	Open  	;
 1386            	2064            	2065            	12.8889     	60.0000     	132.0000    	0.0000      	Open  	;
 1387            	2062            	2063            	8.5958      	60.0000     	132.0000    	0.0000      	Open  	;
 1388            	2060            	2061            	0.5100      	60.0000     	132.0000    	0.0000      	Open  	;
 1389            	2059            	2060            	19.3289     	60.0000     	132.0000    	0.0000      	Open  	;
 1390            	2058            	787             	44.1643     	110.0000    	132.0000    	0.0000      	Open  	;
 1391            	2080            	2081            	3.0941      	85.0000     	132.0000    	0.0000      	Open  	;
 1392            	1372            	2073            	43.5238     	85.0000     	132.0000    	0.0000      	Open  	;
 1393            	1329            	2082            	100.6701    	85.0000     	132.0000    	0.0000      	Open  	;
 1394            	2079            	2071            	6.7770      	85.0000     	122.0000    	0.0000      	Open  	;
 1395            	2094            	2095            	61.4306     	60.0000     	132.0000    	0.0000      	Open  	;
 1396            	681             	1410            	8.0196      	85.0000     	132.0000    	0.0000      	Open  	;
 1397            	1380            	1360            	23.8486     	85.0000     	122.0000    	0.0000      	Open  	;
 1398            	2082            	1408            	20.6354     	85.0000     	132.0000    	0.0000      	Open  	;
 1399            	1321            	2093            	12.9405     	85.0000     	132.0000    	0.0000      	Open  	;
 1400            	2093            	1318            	7.0600      	85.0000     	132.0000    	0.0000      	Open  	;
 1401            	1406            	1307            	19.7800     	85.0000     	132.0000    	0.0000      	Open  	;
 1402            	1382            	2092            	35.9237     	85.0000     	122.0000    	0.0000      	Open  	;
 1403            	1383            	2077            	10.7086     	85.0000     	122.0000    	0.0000      	Open  	;
 1404            	1383            	2075            	10.5866     	60.0000     	122.0000    	0.0000      	Open  	;
 1405            	1406            	2074            	10.7399     	85.0000     	132.0000    	0.0000      	Open  	;
 1406            	1388            	2089            	5.0032      	60.0000     	132.0000    	0.0000      	Open  	;
 1407            	1326            	1355            	51.0690     	85.0000     	132.0000    	0.0000      	Open  	;
 1408            	2110            	16              	21.3336     	85.0000     	132.0000    	0.0000      	Open  	;
 1409            	2091            	1468            	7.8904      	85.0000     	132.0000    	0.0000      	Closed	;
 1410            	1381            	1253            	29.5014     	85.0000     	122.0000    	0.0000      	Open  	;
 1411            	1391            	1920            	42.1578     	85.0000     	132.0000    	0.0000      	Open  	;
 1412            	2089            	1387            	78.1653     	60.0000     	132.0000    	0.0000      	Open  	;
 1413            	2088            	1371            	0.6488      	85.0000     	132.0000    	0.0000      	Open  	;
 1414            	1309            	1355            	90.3362     	60.0000     	132.0000    	0.0000      	Open  	;
 1415            	2087            	1323            	0.9034      	60.0000     	132.0000    	0.0000      	Open  	;
 1416            	678             	2087            	51.5694     	60.0000     	132.0000    	0.0000      	Open  	;
 1417            	2086            	1338            	186.1934    	60.0000     	132.0000    	0.0000      	Open  	;
 1418            	2085            	1340            	67.2924     	60.0000     	132.0000    	0.0000      	Open  	;
 1419            	2084            	2080            	47.3057     	85.0000     	132.0000    	0.0000      	Open  	;
 1420            	2078            	2083            	89.4978     	85.0000     	122.0000    	0.0000      	Open  	;
 1421            	2083            	2076            	11.1160     	85.0000     	122.0000    	0.0000      	Open  	;
 1422            	2076            	2079            	51.3763     	85.0000     	122.0000    	0.0000      	Open  	;
 1423            	1388            	2090            	7.9642      	60.0000     	132.0000    	0.0000      	Open  	;
 1424            	0               	1               	1.9991      	60.0000     	132.0000    	0.0000      	Open  	;
 1425            	2574            	2575            	55.1922     	85.0000     	132.0000    	0.0000      	Open  	;
 1426            	2295            	2296            	3.3593      	32.0000     	125.0000    	0.0000      	Open  	;
 1427            	2639            	2640            	20.1641     	60.0000     	132.0000    	0.0000      	Open  	;
 1428            	2638            	2639            	21.3211     	60.0000     	132.0000    	0.0000      	Open  	;
 1429            	2637            	2638            	18.0808     	60.0000     	132.0000    	0.0000      	Open  	;
 1430            	2636            	2637            	21.0169     	60.0000     	132.0000    	0.0000      	Open  	;
 1431            	2635            	2636            	21.8524     	60.0000     	132.0000    	0.0000      	Open  	;
 1432            	2634            	2635            	20.0735     	60.0000     	132.0000    	0.0000      	Open  	;
 1433            	2633            	2634            	22.6459     	60.0000     	132.0000    	0.0000      	Open  	;
 1434            	2632            	2633            	20.3508     	60.0000     	132.0000    	0.0000      	Open  	;
 1435            	2631            	2632            	22.2007     	60.0000     	132.0000    	0.0000      	Open  	;
 1436            	2630            	2631            	20.8811     	60.0000     	132.0000    	0.0000      	Open  	;
 1437            	2629            	2630            	20.6614     	60.0000     	132.0000    	0.0000      	Open  	;
 1438            	2628            	2629            	20.6035     	60.0000     	132.0000    	0.0000      	Open  	;
 1439            	2627            	2628            	19.2783     	60.0000     	132.0000    	0.0000      	Open  	;
 1440            	2626            	2627            	21.0866     	60.0000     	132.0000    	0.0000      	Open  	;
 1441            	2625            	2626            	21.4659     	60.0000     	132.0000    	0.0000      	Open  	;
 1442            	2624            	2625            	19.9174     	60.0000     	132.0000    	0.0000      	Open  	;
 1443            	2623            	2624            	21.5982     	60.0000     	132.0000    	0.0000      	Open  	;
 1444            	2622            	2623            	23.0898     	60.0000     	132.0000    	0.0000      	Open  	;
 1445            	2621            	2622            	20.0366     	60.0000     	132.0000    	0.0000      	Open  	;
 1446            	2620            	2621            	20.4488     	60.0000     	132.0000    	0.0000      	Open  	;
 1447            	2619            	2620            	18.4239     	60.0000     	132.0000    	0.0000      	Open  	;
 1448            	2618            	2619            	21.3509     	60.0000     	132.0000    	0.0000      	Open  	;
 1449            	2617            	2618            	21.5646     	60.0000     	132.0000    	0.0000      	Open  	;
 1450            	2616            	2617            	20.2069     	60.0000     	132.0000    	0.0000      	Open  	;
 1451            	2615            	2616            	21.1021     	60.0000     	132.0000    	0.0000      	Open  	;
 1452            	2614            	2615            	20.9126     	60.0000     	132.0000    	0.0000      	Open  	;
 1453            	2613            	2614            	21.2376     	60.0000     	132.0000    	0.0000      	Open  	;
 1454            	2640            	2641            	21.1713     	60.0000     	132.0000    	0.0000      	Open  	;
 1455            	2612            	2613            	20.3908     	60.0000     	132.0000    	0.0000      	Open  	;
 1456            	2641            	2642            	20.4041     	60.0000     	132.0000    	0.0000      	Open  	;
 1457            	2643            	2644            	19.3167     	60.0000     	132.0000    	0.0000      	Open  	;
 1458            	2670            	2671            	29.6581     	85.0000     	132.0000    	0.0000      	Open  	;
 1459            	2669            	2670            	22.9338     	85.0000     	132.0000    	0.0000      	Open  	;
 1460            	2668            	2669            	20.5701     	85.0000     	132.0000    	0.0000      	Open  	;
 1461            	2656            	2668            	21.8799     	85.0000     	132.0000    	0.0000      	Open  	;
 1462            	2667            	2656            	17.1000     	85.0000     	132.0000    	0.0000      	Open  	;
 1463            	2666            	2667            	21.2384     	85.0000     	132.0000    	0.0000      	Open  	;
 1464            	2655            	2666            	22.7053     	85.0000     	132.0000    	0.0000      	Open  	;
 1465            	2664            	2665            	23.3038     	60.0000     	132.0000    	0.0000      	Open  	;
 1466            	2663            	2664            	20.4171     	60.0000     	132.0000    	0.0000      	Open  	;
 1467            	2662            	2663            	21.0973     	60.0000     	132.0000    	0.0000      	Open  	;
 1468            	2661            	2662            	18.3270     	60.0000     	132.0000    	0.0000      	Open  	;
 1469            	2660            	2661            	20.2534     	60.0000     	132.0000    	0.0000      	Open  	;
 1470            	2659            	2660            	21.3667     	60.0000     	132.0000    	0.0000      	Open  	;
 1471            	2658            	2659            	19.5141     	60.0000     	132.0000    	0.0000      	Open  	;
 1472            	2657            	2658            	21.8486     	60.0000     	132.0000    	0.0000      	Open  	;
 1473            	2656            	2657            	0.8804      	60.0000     	132.0000    	0.0000      	Open  	;
 1474            	2654            	2655            	21.2437     	60.0000     	132.0000    	0.0000      	Open  	;
 1475            	2653            	2654            	21.3305     	60.0000     	132.0000    	0.0000      	Open  	;
 1476            	2652            	2653            	21.5432     	60.0000     	132.0000    	0.0000      	Open  	;
 1477            	2651            	2652            	21.4166     	60.0000     	132.0000    	0.0000      	Open  	;
 1478            	2650            	2651            	20.2373     	60.0000     	132.0000    	0.0000      	Open  	;
 1479            	2649            	2650            	22.0362     	60.0000     	132.0000    	0.0000      	Open  	;
 1480            	2648            	2649            	21.8680     	60.0000     	132.0000    	0.0000      	Open  	;
 1481            	2647            	2648            	21.6273     	60.0000     	132.0000    	0.0000      	Open  	;
 1482            	2646            	2647            	21.8919     	60.0000     	132.0000    	0.0000      	Open  	;
 1483            	2645            	2646            	16.8099     	60.0000     	132.0000    	0.0000      	Open  	;
 1484            	2644            	2645            	20.6076     	60.0000     	132.0000    	0.0000      	Open  	;
 1485            	2642            	2643            	21.4781     	60.0000     	132.0000    	0.0000      	Open  	;
 1486            	2671            	2311            	2.0357      	85.0000     	132.0000    	0.0000      	Open  	;
 1487            	2611            	2612            	21.3483     	60.0000     	132.0000    	0.0000      	Open  	;
 1488            	2609            	2610            	20.5463     	60.0000     	132.0000    	0.0000      	Open  	;
 1489            	2577            	2578            	5.6320      	85.0000     	132.0000    	0.0000      	Open  	;
 1490            	2576            	2577            	23.5403     	85.0000     	132.0000    	0.0000      	Open  	;
 1491            	2575            	2576            	19.2784     	85.0000     	132.0000    	0.0000      	Open  	;
 1492            	1989            	445             	118.7871    	60.0000     	132.0000    	0.0000      	Open  	;
 1493            	2573            	2574            	18.6223     	85.0000     	132.0000    	0.0000      	Open  	;
 1494            	2572            	2573            	14.7312     	85.0000     	132.0000    	0.0000      	Open  	;
 1495            	2571            	2572            	14.1800     	85.0000     	132.0000    	0.0000      	Open  	;
 1496            	2570            	2571            	14.2761     	85.0000     	132.0000    	0.0000      	Open  	;
 1497            	2569            	2570            	12.1584     	85.0000     	132.0000    	0.0000      	Open  	;
 1498            	2568            	2569            	13.9700     	85.0000     	132.0000    	0.0000      	Open  	;
 1499            	2567            	2568            	6.5460      	85.0000     	132.0000    	0.0000      	Open  	;
 1500            	2566            	2567            	6.1526      	85.0000     	132.0000    	0.0000      	Open  	;
 1501            	2565            	2566            	15.5098     	85.0000     	132.0000    	0.0000      	Open  	;
 1502            	2564            	2565            	15.8734     	85.0000     	132.0000    	0.0000      	Open  	;
 1503            	2563            	2564            	14.8117     	85.0000     	132.0000    	0.0000      	Open  	;
 1504            	2562            	2563            	14.8725     	85.0000     	132.0000    	0.0000      	Open  	;
 1505            	2561            	2562            	23.8432     	85.0000     	132.0000    	0.0000      	Open  	;
 1506            	2560            	2561            	18.3236     	85.0000     	132.0000    	0.0000      	Open  	;
 1507            	2559            	2560            	20.0329     	85.0000     	132.0000    	0.0000      	Open  	;
 1508            	2558            	2559            	21.5542     	85.0000     	132.0000    	0.0000      	Open  	;
 1509            	2557            	2558            	19.4236     	85.0000     	132.0000    	0.0000      	Open  	;
 1510            	2556            	2557            	19.1546     	85.0000     	132.0000    	0.0000      	Open  	;
 1511            	2555            	2556            	19.8641     	85.0000     	132.0000    	0.0000      	Open  	;
 1512            	2554            	2555            	23.3524     	85.0000     	132.0000    	0.0000      	Open  	;
 1513            	2553            	2554            	20.6780     	85.0000     	132.0000    	0.0000      	Open  	;
 1514            	2552            	2553            	8.5651      	85.0000     	132.0000    	0.0000      	Open  	;
 1515            	2551            	2552            	0.7976      	85.0000     	132.0000    	0.0000      	Open  	;
 1516            	2578            	2579            	22.4311     	85.0000     	132.0000    	0.0000      	Open  	;
 1517            	2610            	2611            	19.7233     	60.0000     	132.0000    	0.0000      	Open  	;
 1518            	2579            	2580            	20.1454     	85.0000     	132.0000    	0.0000      	Open  	;
 1519            	2581            	2582            	20.6579     	85.0000     	132.0000    	0.0000      	Open  	;
 1520            	2608            	2609            	21.1364     	60.0000     	132.0000    	0.0000      	Open  	;
 1521            	2607            	2608            	20.6903     	60.0000     	132.0000    	0.0000      	Open  	;
 1522            	2606            	2607            	21.6908     	60.0000     	132.0000    	0.0000      	Open  	;
 1523            	2605            	2606            	20.4811     	60.0000     	132.0000    	0.0000      	Open  	;
 1524            	2604            	2605            	19.2041     	60.0000     	132.0000    	0.0000      	Open  	;
 1525            	2603            	2604            	21.3952     	60.0000     	132.0000    	0.0000      	Open  	;
 1526            	2602            	2603            	20.5759     	60.0000     	132.0000    	0.0000      	Open  	;
 1527            	2601            	2602            	21.4232     	60.0000     	132.0000    	0.0000      	Open  	;
 1528            	2600            	2601            	20.8539     	60.0000     	132.0000    	0.0000      	Open  	;
 1529            	2559            	2600            	6.3608      	60.0000     	132.0000    	0.0000      	Open  	;
 1530            	2598            	2599            	43.6901     	85.0000     	132.0000    	0.0000      	Open  	;
 1531            	2597            	2598            	21.7281     	85.0000     	132.0000    	0.0000      	Open  	;
 1532            	2596            	2597            	22.9647     	85.0000     	132.0000    	0.0000      	Open  	;
 1533            	2595            	2596            	23.5020     	85.0000     	132.0000    	0.0000      	Open  	;
 1534            	2594            	2595            	22.5511     	85.0000     	132.0000    	0.0000      	Open  	;
 1535            	2593            	2594            	17.9049     	85.0000     	132.0000    	0.0000      	Open  	;
 1536            	2592            	2593            	26.9932     	85.0000     	132.0000    	0.0000      	Open  	;
 1537            	2591            	2592            	21.1592     	85.0000     	132.0000    	0.0000      	Open  	;
 1538            	2590            	2591            	18.6540     	85.0000     	132.0000    	0.0000      	Open  	;
 1539            	2589            	2590            	22.7265     	85.0000     	132.0000    	0.0000      	Open  	;
 1540            	2588            	2589            	17.1571     	85.0000     	132.0000    	0.0000      	Open  	;
 1541            	2587            	2588            	26.4218     	85.0000     	132.0000    	0.0000      	Open  	;
 1542            	2586            	2587            	18.8237     	85.0000     	132.0000    	0.0000      	Open  	;
 1543            	2585            	2586            	19.5482     	85.0000     	132.0000    	0.0000      	Open  	;
 1544            	2584            	2585            	22.2510     	85.0000     	132.0000    	0.0000      	Open  	;
 1545            	2583            	2584            	18.5996     	85.0000     	132.0000    	0.0000      	Open  	;
 1546            	2582            	2583            	22.3913     	85.0000     	132.0000    	0.0000      	Open  	;
 1547            	2580            	2581            	21.0617     	85.0000     	132.0000    	0.0000      	Open  	;
 1548            	2311            	2672            	20.4138     	85.0000     	132.0000    	0.0000      	Open  	;
 1549            	2672            	2673            	29.2479     	85.0000     	132.0000    	0.0000      	Open  	;
 1550            	2673            	2674            	27.1088     	85.0000     	132.0000    	0.0000      	Open  	;
 1555            	1511            	131             	0.8004      	110.0000    	132.0000    	0.0000      	Open  	;
 1556            	2763            	849             	26.4974     	300.0000    	78.0000     	0.0000      	Open  	;
 1557            	1462            	1459            	6.7644      	250.0000    	55.0000     	0.0000      	Open  	;
 1558            	1464            	1460            	10.5052     	250.0000    	65.0000     	0.0000      	Open  	;
 1559            	2839            	2732            	18.8300     	500.0000    	76.0000     	0.0000      	Open  	;
 1560            	2822            	2839            	11.7076     	500.0000    	76.0000     	0.0000      	Open  	;
 1561            	2548            	2546            	7.5000      	300.0000    	75.0000     	0.0000      	Open  	;
 1562            	2838            	2837            	0.1471      	60.0000     	122.0000    	0.0000      	Open  	;
 1563            	2545            	2838            	4.7030      	60.0000     	122.0000    	0.0000      	Open  	;
 1564            	489             	2822            	28.9699     	500.0000    	76.0000     	0.0000      	Open  	;
 1565            	2360            	152             	3.9062      	150.0000    	125.0000    	0.0000      	Open  	;
 1566            	2731            	1595            	10.4353     	600.0000    	80.0000     	0.0000      	Open  	;
 1567            	2543            	2544            	1.5000      	60.0000     	122.0000    	0.0000      	Open  	;
 1568            	1102            	1100            	7.8567      	85.0000     	132.0000    	0.0000      	Open  	;
 1569            	984             	2316            	0.8924      	85.0000     	132.0000    	0.0000      	Closed	;
 1570            	1100            	2764            	56.2185     	85.0000     	132.0000    	0.0000      	Open  	;
 1571            	2762            	2763            	13.4342     	300.0000    	78.0000     	0.0000      	Open  	;
 1572            	2761            	2762            	12.9393     	300.0000    	78.0000     	0.0000      	Open  	;
 1573            	2760            	2761            	1.4659      	300.0000    	78.0000     	0.0000      	Open  	;
 1574            	2759            	2760            	3.2224      	300.0000    	78.0000     	0.0000      	Open  	;
 1575            	46              	2757            	8.0031      	300.0000    	78.0000     	0.0000      	Open  	;
 1576            	2758            	2759            	7.0772      	300.0000    	78.0000     	0.0000      	Open  	;
 1577            	2757            	2758            	1.9894      	300.0000    	78.0000     	0.0000      	Open  	;
 1580            	2734            	493             	0.7790      	200.0000    	64.0000     	0.0000      	Open  	;
 1581            	2869            	1529            	2.1998      	250.0000    	55.0000     	0.0000      	Open  	;
 1582            	2885            	2886            	1.4925      	63.0000     	130.0000    	0.0000      	Open  	;
 1583            	2884            	2885            	1.8957      	63.0000     	130.0000    	0.0000      	Open  	;
 1584            	2883            	2884            	21.5805     	63.0000     	130.0000    	0.0000      	Open  	;
 1585            	2882            	2883            	34.6248     	63.0000     	130.0000    	0.0000      	Open  	;
 1586            	2881            	2882            	30.2248     	63.0000     	130.0000    	0.0000      	Open  	;
 1587            	2880            	2881            	41.5913     	63.0000     	130.0000    	0.0000      	Open  	;
 1588            	2879            	2880            	3.9764      	63.0000     	130.0000    	0.0000      	Open  	;
 1589            	2413            	2879            	15.7861     	63.0000     	130.0000    	0.0000      	Open  	;
 1590            	2410            	2175            	6.7800      	60.0000     	132.0000    	0.0000      	Open  	;
 1591            	2401            	69              	4.7237      	100.0000    	50.0000     	0.0000      	Open  	;
 1592            	2402            	2403            	3.3755      	110.0000    	132.0000    	0.0000      	Open  	;
 1593            	2401            	2877            	3.8990      	110.0000    	132.0000    	0.0000      	Open  	;
 1594            	2878            	2402            	31.5144     	110.0000    	132.0000    	0.0000      	Open  	;
 1595            	2877            	2878            	22.9951     	110.0000    	132.0000    	0.0000      	Open  	;
 1596            	1951            	2869            	8.1797      	250.0000    	55.0000     	0.0000      	Open  	;
 1597            	1528            	1040            	2.8412      	300.0000    	68.0000     	0.0000      	Open  	;
 1598            	1552            	2400            	0.5744      	200.0000    	54.0000     	0.0000      	Open  	;
 1599            	1579            	373             	8.7336      	300.0000    	78.0000     	0.0000      	Open  	;
 1600            	2876            	1565            	19.5648     	300.0000    	78.0000     	0.0000      	Open  	;
 1601            	2875            	2876            	19.9282     	300.0000    	78.0000     	0.0000      	Open  	;
 1602            	2874            	2875            	33.6821     	300.0000    	78.0000     	0.0000      	Open  	;
 1603            	2873            	2874            	0.0935      	300.0000    	78.0000     	0.0000      	Open  	;
 1604            	2872            	2873            	0.1320      	300.0000    	78.0000     	0.0000      	Open  	;
 1605            	2871            	2872            	6.9412      	300.0000    	78.0000     	0.0000      	Open  	;
 VZ1.SAT.NBN.014 	VZ1.SAT.NBN.014 	2871            	4.9071      	300.0000    	58.0000     	0.0000      	Open  	;
 1607            	2737            	VZ1.SAT.NBN.014 	14.6512     	300.0000    	78.0000     	0.0000      	Open  	;
 1608            	1564            	2737            	19.2277     	300.0000    	78.0000     	0.0000      	Open  	;
 1609            	493             	1524            	0.8059      	300.0000    	68.0000     	0.0000      	Open  	;
 1610            	1474            	PM.VRP.NBN.001  	0.3436      	200.0000    	54.0000     	0.0000      	Open  	;
 1611            	2737            	736             	1.3567      	100.0000    	50.0000     	0.0000      	Open  	;
 1612            	2736            	1576            	22.0015     	300.0000    	78.0000     	0.0000      	Open  	;
 1613            	2699            	2700            	21.7960     	60.0000     	132.0000    	0.0000      	Open  	;
 1614            	2698            	2699            	17.8262     	60.0000     	132.0000    	0.0000      	Open  	;
 1615            	2697            	2698            	23.9404     	60.0000     	132.0000    	0.0000      	Open  	;
 1616            	2696            	2697            	17.9543     	60.0000     	132.0000    	0.0000      	Open  	;
 1617            	2695            	2696            	20.9077     	60.0000     	132.0000    	0.0000      	Open  	;
 1618            	2694            	2695            	20.4106     	60.0000     	132.0000    	0.0000      	Open  	;
 1619            	2693            	2694            	21.5741     	60.0000     	132.0000    	0.0000      	Open  	;
 1620            	2692            	2693            	21.7134     	60.0000     	132.0000    	0.0000      	Open  	;
 1621            	2691            	2692            	20.6338     	60.0000     	132.0000    	0.0000      	Open  	;
 1622            	2690            	2691            	25.6972     	60.0000     	132.0000    	0.0000      	Open  	;
 1623            	2689            	2690            	17.2698     	60.0000     	132.0000    	0.0000      	Open  	;
 1624            	2688            	2689            	25.6317     	60.0000     	132.0000    	0.0000      	Open  	;
 1625            	2687            	2688            	19.1247     	60.0000     	132.0000    	0.0000      	Open  	;
 1626            	2686            	2687            	19.1649     	60.0000     	132.0000    	0.0000      	Open  	;
 1627            	2685            	2686            	19.9376     	60.0000     	132.0000    	0.0000      	Open  	;
 1628            	2684            	2685            	20.8777     	60.0000     	132.0000    	0.0000      	Open  	;
 1629            	2683            	2684            	21.1809     	60.0000     	132.0000    	0.0000      	Open  	;
 1630            	2682            	2683            	20.9969     	60.0000     	132.0000    	0.0000      	Open  	;
 1631            	2681            	2682            	21.5583     	60.0000     	132.0000    	0.0000      	Open  	;
 1632            	2680            	2681            	34.1972     	60.0000     	132.0000    	0.0000      	Open  	;
 1633            	2679            	2680            	22.0949     	60.0000     	132.0000    	0.0000      	Open  	;
 1634            	2678            	2679            	21.8106     	60.0000     	132.0000    	0.0000      	Open  	;
 1635            	2655            	2677            	3.2357      	60.0000     	132.0000    	0.0000      	Open  	;
 1636            	2677            	2678            	19.0973     	60.0000     	132.0000    	0.0000      	Open  	;
 1637            	2599            	2674            	132.1889    	85.0000     	132.0000    	0.0000      	Open  	;
 1638            	2675            	2676            	0.4240      	85.0000     	132.0000    	0.0000      	Open  	;
 1639            	2673            	2675            	1.0687      	85.0000     	132.0000    	0.0000      	Open  	;
 1640            	2700            	2701            	9.2987      	60.0000     	132.0000    	0.0000      	Open  	;
 1641            	2701            	2702            	16.4623     	60.0000     	132.0000    	0.0000      	Open  	;
 1642            	2702            	2703            	18.7324     	60.0000     	132.0000    	0.0000      	Open  	;
 1643            	2703            	2704            	18.9182     	60.0000     	132.0000    	0.0000      	Open  	;
 1644            	2735            	2736            	21.8152     	300.0000    	78.0000     	0.0000      	Open  	;
 1645            	1552            	2735            	14.6261     	300.0000    	78.0000     	0.0000      	Open  	;
 1646            	1529            	2734            	0.5638      	250.0000    	66.0000     	0.0000      	Closed	;
 1647            	2340            	2733            	4.8529      	200.0000    	55.0000     	0.0000      	Open  	;
 1648            	2386            	1478            	8.4147      	300.0000    	55.0000     	0.0000      	Open  	;
 1649            	2732            	1602            	10.0560     	500.0000    	76.0000     	0.0000      	Open  	;
 1650            	1601            	2380            	1.3591      	150.0000    	55.0000     	0.0000      	Open  	;
 1654            	2721            	2722            	2.6659      	60.0000     	132.0000    	0.0000      	Open  	;
 1655            	2720            	2721            	1.4250      	60.0000     	132.0000    	0.0000      	Open  	;
 1656            	2719            	2720            	17.3843     	60.0000     	132.0000    	0.0000      	Open  	;
 1657            	2550            	2551            	1.6317      	85.0000     	132.0000    	0.0000      	Open  	;
 1658            	2718            	2719            	21.2151     	60.0000     	132.0000    	0.0000      	Open  	;
 1659            	2716            	2717            	18.7220     	60.0000     	132.0000    	0.0000      	Open  	;
 1660            	2715            	2716            	20.3373     	60.0000     	132.0000    	0.0000      	Open  	;
 1661            	2714            	2715            	16.0792     	60.0000     	132.0000    	0.0000      	Open  	;
 1662            	2713            	2714            	13.2995     	60.0000     	132.0000    	0.0000      	Open  	;
 1663            	2712            	2713            	19.7899     	60.0000     	132.0000    	0.0000      	Open  	;
 1664            	2700            	2712            	25.4915     	60.0000     	132.0000    	0.0000      	Open  	;
 1665            	2710            	2711            	16.1839     	60.0000     	132.0000    	0.0000      	Open  	;
 1666            	2709            	2710            	16.5108     	60.0000     	132.0000    	0.0000      	Open  	;
 1667            	2708            	2709            	16.0573     	60.0000     	132.0000    	0.0000      	Open  	;
 1668            	2707            	2708            	17.7911     	60.0000     	132.0000    	0.0000      	Open  	;
 1669            	2706            	2707            	15.4706     	60.0000     	132.0000    	0.0000      	Open  	;
 1670            	2705            	2706            	19.1293     	60.0000     	132.0000    	0.0000      	Open  	;
 1671            	2704            	2705            	17.0097     	60.0000     	132.0000    	0.0000      	Open  	;
 1672            	2717            	2718            	21.9079     	60.0000     	132.0000    	0.0000      	Open  	;
 VZ1.DMC.API.001 	2548            	PM.VRP.GUA.014  	16.1778     	85.0000     	132.0000    	0.0000      	Open  	;
 1675            	2544            	2545            	0.1484      	60.0000     	122.0000    	0.0000      	Open  	;
 1676            	2345            	1014            	2.9772      	85.0000     	122.0000    	0.0000      	Open  	;
 1677            	1020            	2345            	46.6289     	85.0000     	122.0000    	0.0000      	Open  	;
 1678            	2344            	2273            	18.2325     	250.0000    	55.0000     	0.0000      	Open  	;
 1679            	1930            	1931            	1.6592      	85.0000     	132.0000    	0.0000      	Open  	;
 1680            	1403            	1402            	4.0008      	60.0000     	132.0000    	0.0000      	Open  	;
 1681            	1369            	1404            	4.0008      	85.0000     	132.0000    	0.0000      	Open  	;
 1682            	1280            	107             	3.0026      	85.0000     	132.0000    	0.0000      	Open  	;
 1683            	111             	109             	15.7428     	200.0000    	135.0000    	0.0000      	Open  	;
 1684            	875             	1379            	12.5987     	150.0000    	125.0000    	0.0000      	Open  	;
 1685            	1386            	1413            	19.6433     	85.0000     	132.0000    	0.0000      	Open  	;
 1686            	520             	525             	27.3295     	60.0000     	122.0000    	0.0000      	Open  	;
 1687            	522             	520             	32.1048     	60.0000     	122.0000    	0.0000      	Open  	;
 1688            	524             	1007            	4.7964      	85.0000     	122.0000    	0.0000      	Open  	;
 1689            	136             	1011            	48.8267     	85.0000     	122.0000    	0.0000      	Open  	;
 1690            	2011            	766             	1.1576      	85.0000     	50.0000     	0.0000      	Open  	;
 1691            	1940            	2343            	227.3082    	110.0000    	122.0000    	0.0000      	Open  	;
 1692            	1040            	2340            	10.0577     	200.0000    	55.0000     	0.0000      	Open  	;
 1693            	2339            	711             	44.6517     	200.0000    	54.0000     	0.0000      	Open  	;
 1694            	2338            	2339            	41.4959     	200.0000    	54.0000     	0.0000      	Open  	;
 1695            	250             	2337            	1.1421      	100.0000    	50.0000     	0.0000      	Open  	;
 1696            	41              	47              	0.4495      	100.0000    	50.0000     	0.0000      	Open  	;
 1697            	2284            	1933            	4.1379      	110.0000    	122.0000    	0.0000      	Open  	;
 1698            	2336            	106             	122.2445    	150.0000    	125.0000    	0.0000      	Open  	;
 1699            	641             	2336            	112.1233    	150.0000    	125.0000    	0.0000      	Open  	;
 1700            	2335            	1500            	8.8095      	60.0000     	132.0000    	0.0000      	Open  	;
 1701            	394             	2292            	3.3645      	100.0000    	55.0000     	0.0000      	Open  	;
 1702            	348             	345             	38.5009     	100.0000    	50.0000     	0.0000      	Open  	;
 1703            	1020            	2134            	2.4474      	85.0000     	122.0000    	0.0000      	Open  	;
 1704            	2298            	977             	124.4382    	60.0000     	132.0000    	0.0000      	Open  	;
 1705            	1015            	1021            	14.1883     	85.0000     	122.0000    	0.0000      	Open  	;
 1706            	2346            	1022            	12.5147     	60.0000     	122.0000    	0.0000      	Open  	;
 1707            	2312            	366             	99.2048     	100.0000    	75.0000     	0.0000      	Open  	;
 1708            	2048            	605             	12.2211     	60.0000     	132.0000    	0.0000      	Open  	;
 1709            	2176            	2047            	20.1974     	60.0000     	132.0000    	0.0000      	Open  	;
 1710            	2173            	621             	4.3859      	60.0000     	132.0000    	0.0000      	Open  	;
 1711            	2065            	2062            	2.7752      	60.0000     	132.0000    	0.0000      	Open  	;
 1712            	118             	2056            	1.3308      	110.0000    	132.0000    	0.0000      	Open  	;
 1713            	2350            	1177            	12.3300     	85.0000     	132.0000    	0.0000      	Open  	;
 1714            	1180            	2350            	46.9543     	85.0000     	132.0000    	0.0000      	Open  	;
 1715            	1229            	2050            	13.9745     	60.0000     	132.0000    	0.0000      	Open  	;
 1716            	1233            	2318            	11.7790     	150.0000    	52.0000     	0.0000      	Open  	;
 1717            	562             	543             	0.9724      	110.0000    	132.0000    	0.0000      	Open  	;
 1718            	1506            	1512            	0.7989      	110.0000    	132.0000    	0.0000      	Open  	;
 1719            	1805            	384             	34.9110     	200.0000    	55.0000     	0.0000      	Open  	;
 1720            	1883            	1804            	13.5038     	85.0000     	122.0000    	0.0000      	Open  	;
 1721            	1104            	123             	2.4353      	85.0000     	122.0000    	0.0000      	Open  	;
 1722            	1996            	498             	102.6507    	250.0000    	65.0000     	0.0000      	Open  	;
 1723            	511             	1996            	51.7593     	250.0000    	65.0000     	0.0000      	Open  	;
 1724            	1796            	1103            	39.8486     	85.0000     	122.0000    	0.0000      	Open  	;
 1725            	1797            	1784            	2.4492      	85.0000     	122.0000    	0.0000      	Open  	;
 1726            	1862            	1809            	2.9984      	85.0000     	122.0000    	0.0000      	Open  	;
 1727            	1851            	1781            	2.8053      	60.0000     	122.0000    	0.0000      	Open  	;
 1728            	1726            	1724            	2.0155      	85.0000     	122.0000    	0.0000      	Open  	;
 1729            	1925            	1937            	1.3495      	85.0000     	122.0000    	0.0000      	Open  	;
 1730            	1012            	1027            	47.4313     	85.0000     	122.0000    	0.0000      	Open  	;
 1731            	2347            	1012            	55.0430     	85.0000     	122.0000    	0.0000      	Open  	;
 1732            	1025            	1028            	19.5409     	85.0000     	122.0000    	0.0000      	Open  	;
 1733            	1030            	2001            	25.5128     	85.0000     	122.0000    	0.0000      	Open  	;
 1734            	1021            	2346            	58.6217     	60.0000     	122.0000    	0.0000      	Open  	;
 1735            	1972            	2280            	58.6066     	300.0000    	75.0000     	0.0000      	Open  	;
 1736            	363             	2332            	2.7439      	300.0000    	65.0000     	0.0000      	Open  	;
 1737            	1373            	873             	286.5880    	200.0000    	135.0000    	0.0000      	Open  	;
 1738            	2275            	2027            	2.7177      	110.0000    	132.0000    	0.0000      	Open  	;
 1739            	1188            	1172            	10.4603     	85.0000     	132.0000    	0.0000      	Open  	;
 1740            	1232            	2301            	14.0695     	110.0000    	132.0000    	0.0000      	Open  	;
 1741            	1232            	2023            	3.9594      	60.0000     	132.0000    	0.0000      	Open  	;
 1742            	1232            	2026            	3.1558      	110.0000    	132.0000    	0.0000      	Open  	;
 1743            	1147            	1201            	6.1104      	60.0000     	132.0000    	0.0000      	Open  	;
 1744            	2309            	2310            	35.2094     	32.0000     	125.0000    	0.0000      	Open  	;
 1745            	2308            	2309            	29.5880     	32.0000     	125.0000    	0.0000      	Open  	;
 1746            	2307            	2308            	3.9899      	32.0000     	125.0000    	0.0000      	Open  	;
 1747            	2306            	2307            	2.3642      	32.0000     	125.0000    	0.0000      	Open  	;
 1748            	976             	1252            	11.7591     	60.0000     	122.0000    	0.0000      	Open  	;
 1749            	1341            	2084            	10.3663     	85.0000     	132.0000    	0.0000      	Open  	;
 1750            	687             	2305            	5.0000      	85.0000     	122.0000    	0.0000      	Open  	;
 1752            	2013            	1277            	18.9635     	85.0000     	122.0000    	0.0000      	Open  	;
 1753            	1940            	2005            	2.4598      	110.0000    	122.0000    	0.0000      	Open  	;
 1754            	2004            	1930            	5.8708      	85.0000     	132.0000    	0.0000      	Open  	;
 1755            	2302            	2303            	2.4632      	60.0000     	132.0000    	0.0000      	Open  	;
 1756            	1193            	1203            	4.4528      	60.0000     	132.0000    	0.0000      	Open  	;
 1757            	2301            	557             	115.5261    	110.0000    	132.0000    	0.0000      	Open  	;
 1758            	1196            	2025            	3.9601      	60.0000     	132.0000    	0.0000      	Open  	;
 1759            	1297            	2300            	2.4598      	85.0000     	122.0000    	0.0000      	Open  	;
 1760            	2299            	2132            	3.6786      	85.0000     	122.0000    	0.0000      	Open  	;
 1761            	1409            	2091            	9.8389      	85.0000     	132.0000    	0.0000      	Open  	;
 1762            	1825            	990             	3.2963      	110.0000    	112.0000    	0.0000      	Open  	;
 1763            	2298            	2275            	3.1603      	60.0000     	132.0000    	0.0000      	Open  	;
 1764            	2296            	2297            	2.4010      	32.0000     	125.0000    	0.0000      	Open  	;
 1765            	1645            	2302            	6.9618      	60.0000     	132.0000    	0.0000      	Open  	;
 1766            	1010            	2278            	6.5762      	85.0000     	122.0000    	0.0000      	Open  	;
 1767            	2311            	2066            	1.6958      	60.0000     	132.0000    	0.0000      	Open  	;
 1768            	517             	2312            	38.5516     	110.0000    	100.0000    	0.0000      	Open  	;
 1769            	2313            	2112            	21.5900     	32.0000     	135.0000    	0.0000      	Open  	;
 1770            	1970            	2330            	111.9991    	32.0000     	135.0000    	0.0000      	Open  	;
 1771            	2329            	1966            	23.5784     	32.0000     	135.0000    	0.0000      	Open  	;
 1772            	2328            	2329            	12.5789     	32.0000     	135.0000    	0.0000      	Open  	;
 1773            	2327            	2328            	2.8462      	32.0000     	135.0000    	0.0000      	Open  	;
 1774            	2326            	2327            	2.7281      	32.0000     	135.0000    	0.0000      	Open  	;
 1775            	2325            	2326            	10.1388     	32.0000     	135.0000    	0.0000      	Open  	;
 1776            	319             	2325            	20.4184     	32.0000     	135.0000    	0.0000      	Open  	;
 1777            	2324            	319             	12.3097     	32.0000     	135.0000    	0.0000      	Open  	;
 1778            	2323            	2324            	39.9930     	32.0000     	135.0000    	0.0000      	Open  	;
 1779            	2322            	2323            	19.9100     	32.0000     	135.0000    	0.0000      	Open  	;
 1780            	1554            	2322            	20.7170     	32.0000     	135.0000    	0.0000      	Open  	;
 1781            	2321            	2010            	8.0524      	85.0000     	132.0000    	0.0000      	Open  	;
 1782            	1695            	2354            	3.2820      	200.0000    	125.0000    	0.0000      	Open  	;
 1783            	2319            	2320            	7.9545      	200.0000    	135.0000    	0.0000      	Open  	;
 1784            	2276            	152             	5.0010      	85.0000     	122.0000    	0.0000      	Open  	;
 1785            	1186            	974             	31.3913     	85.0000     	132.0000    	0.0000      	Open  	;
 1786            	2058            	550             	10.0444     	110.0000    	132.0000    	0.0000      	Open  	;
 1787            	550             	665             	5.8940      	110.0000    	132.0000    	0.0000      	Open  	;
 1788            	2318            	671             	4.3097      	110.0000    	132.0000    	0.0000      	Open  	;
 1789            	1187            	1171            	29.5955     	110.0000    	132.0000    	0.0000      	Open  	;
 1790            	973             	2029            	10.5551     	85.0000     	132.0000    	0.0000      	Open  	;
 1791            	1199            	1222            	4.1696      	85.0000     	132.0000    	0.0000      	Open  	;
 1792            	2318            	2024            	7.2706      	110.0000    	132.0000    	0.0000      	Open  	;
 1793            	2316            	2317            	1.6977      	85.0000     	132.0000    	0.0000      	Open  	;
 1794            	2315            	320             	0.7048      	32.0000     	135.0000    	0.0000      	Open  	;
 1795            	2314            	2315            	2.4391      	32.0000     	135.0000    	0.0000      	Open  	;
 1796            	2313            	2314            	0.8124      	32.0000     	135.0000    	0.0000      	Open  	;
 1797            	2012            	2319            	4.8338      	200.0000    	135.0000    	0.0000      	Open  	;
 1798            	2294            	2295            	65.5857     	32.0000     	125.0000    	0.0000      	Open  	;
 1799            	1963            	1950            	0.1922      	200.0000    	55.0000     	0.0000      	Open  	;
 1800            	1909            	1913            	2.8007      	75.0000     	55.0000     	0.0000      	Open  	;
 1801            	2464            	PM.VRP.NBN.005  	45.6218     	200.0000    	55.0000     	0.0000      	Open  	;
 1802            	2399            	2464            	7.0106      	200.0000    	55.0000     	0.0000      	Open  	;
 1803            	2434            	243             	15.0000     	75.0000     	65.0000     	0.0000      	Open  	;
 1804            	2433            	2434            	125.3404    	75.0000     	65.0000     	0.0000      	Open  	;
 1805            	2432            	2433            	130.2942    	75.0000     	65.0000     	0.0000      	Open  	;
 1806            	2431            	2432            	60.5137     	75.0000     	65.0000     	0.0000      	Open  	;
 1807            	2430            	2431            	40.8642     	75.0000     	65.0000     	0.0000      	Open  	;
 1808            	2429            	2430            	37.4413     	75.0000     	65.0000     	0.0000      	Open  	;
 1809            	2428            	2429            	17.6820     	75.0000     	65.0000     	0.0000      	Open  	;
 1810            	2427            	2428            	20.2967     	75.0000     	65.0000     	0.0000      	Open  	;
 1811            	2426            	2427            	12.1571     	75.0000     	65.0000     	0.0000      	Open  	;
 1812            	2425            	2426            	15.0334     	75.0000     	65.0000     	0.0000      	Open  	;
 1813            	2424            	2425            	8.7864      	75.0000     	65.0000     	0.0000      	Open  	;
 1814            	1078            	2424            	10.5091     	75.0000     	65.0000     	0.0000      	Open  	;
 1815            	2423            	1078            	21.2849     	75.0000     	65.0000     	0.0000      	Open  	;
 1816            	2422            	2423            	17.7267     	75.0000     	65.0000     	0.0000      	Open  	;
 1817            	2421            	2422            	25.0019     	75.0000     	65.0000     	0.0000      	Open  	;
 1818            	2420            	2421            	18.0004     	75.0000     	65.0000     	0.0000      	Open  	;
 1819            	2419            	2420            	12.2700     	75.0000     	65.0000     	0.0000      	Open  	;
 1820            	2418            	2419            	16.9068     	75.0000     	65.0000     	0.0000      	Open  	;
 1821            	2417            	2418            	9.4340      	75.0000     	65.0000     	0.0000      	Open  	;
 1822            	2416            	2417            	32.4293     	75.0000     	65.0000     	0.0000      	Open  	;
 1823            	2415            	2416            	15.4333     	75.0000     	65.0000     	0.0000      	Open  	;
 1824            	2414            	2415            	13.7055     	75.0000     	65.0000     	0.0000      	Open  	;
 1825            	1034            	2414            	14.1145     	75.0000     	65.0000     	0.0000      	Open  	;
 1826            	2359            	153             	5.6013      	250.0000    	55.0000     	0.0000      	Open  	;
 1827            	1921            	2390            	0.1415      	300.0000    	58.0000     	0.0000      	Open  	;
 1828            	2086            	2085            	8.2592      	60.0000     	132.0000    	0.0000      	Open  	;
 1829            	1629            	2140            	314.2135    	60.0000     	122.0000    	0.0000      	Open  	;
 1830            	1306            	1287            	12.5465     	85.0000     	122.0000    	0.0000      	Open  	;
 1831            	200             	754             	0.6944      	85.0000     	55.0000     	0.0000      	Open  	;
 1832            	2542            	2543            	0.7465      	60.0000     	122.0000    	0.0000      	Open  	;
 1833            	2541            	2542            	2.5607      	60.0000     	122.0000    	0.0000      	Open  	;
 1834            	2540            	2541            	20.3083     	60.0000     	122.0000    	0.0000      	Open  	;
 1835            	2539            	2540            	21.8197     	60.0000     	122.0000    	0.0000      	Open  	;
 1836            	2538            	2539            	19.6515     	60.0000     	122.0000    	0.0000      	Open  	;
 1837            	2537            	2538            	20.1934     	60.0000     	122.0000    	0.0000      	Open  	;
 1838            	2536            	2537            	20.6673     	60.0000     	122.0000    	0.0000      	Open  	;
 1839            	2535            	2536            	21.7342     	60.0000     	122.0000    	0.0000      	Open  	;
 1840            	2534            	2535            	21.4175     	60.0000     	122.0000    	0.0000      	Open  	;
 1841            	2533            	2534            	19.8451     	60.0000     	122.0000    	0.0000      	Open  	;
 1842            	2532            	2533            	18.5243     	60.0000     	122.0000    	0.0000      	Open  	;
 1843            	2531            	2532            	19.0294     	60.0000     	122.0000    	0.0000      	Open  	;
 1844            	2530            	2531            	21.7553     	60.0000     	122.0000    	0.0000      	Open  	;
 1845            	2529            	2530            	20.3685     	60.0000     	122.0000    	0.0000      	Open  	;
 1846            	2528            	2529            	9.7463      	60.0000     	122.0000    	0.0000      	Open  	;
 1847            	2527            	2528            	12.3427     	60.0000     	122.0000    	0.0000      	Open  	;
 1848            	1846            	1812            	1.5631      	200.0000    	125.0000    	0.0000      	Open  	;
 1849            	1724            	1648            	2.0026      	85.0000     	122.0000    	0.0000      	Open  	;
 1850            	2505            	2503            	66.2196     	200.0000    	54.0000     	0.0000      	Open  	;
 1851            	2504            	2505            	52.3737     	200.0000    	54.0000     	0.0000      	Open  	;
 1852            	2382            	2504            	14.9476     	200.0000    	54.0000     	0.0000      	Open  	;
 1853            	370             	2496            	0.1002      	250.0000    	55.0000     	0.0000      	Open  	;
 1854            	2495            	2344            	14.7239     	250.0000    	55.0000     	0.0000      	Open  	;
 1855            	153             	2494            	7.2313      	250.0000    	55.0000     	0.0000      	Open  	;
 1856            	702             	2493            	1.7159      	200.0000    	54.0000     	0.0000      	Open  	;
 1857            	2492            	702             	65.9224     	200.0000    	54.0000     	0.0000      	Open  	;
 1858            	2491            	2492            	0.3771      	200.0000    	54.0000     	0.0000      	Open  	;
 1859            	2286            	669             	2.1787      	110.0000    	122.0000    	0.0000      	Open  	;
 1860            	2115            	2413            	84.4174     	60.0000     	122.0000    	0.0000      	Open  	;
 1861            	2149            	2410            	36.0889     	60.0000     	132.0000    	0.0000      	Open  	;
 1862            	1594            	877             	23.2000     	110.0000    	132.0000    	0.0000      	Open  	;
 1863            	1652            	2360            	95.9725     	150.0000    	125.0000    	0.0000      	Open  	;
 1864            	2346            	2126            	0.0010      	60.0000     	122.0000    	0.0000      	Open  	;
 1865            	1029            	2347            	0.4554      	85.0000     	122.0000    	0.0000      	Open  	;
 1866            	1933            	2344            	1.5468      	110.0000    	122.0000    	0.0000      	Open  	;
 1867            	1936            	1941            	7.6034      	85.0000     	122.0000    	0.0000      	Open  	;
 1868            	2343            	1933            	2.4606      	100.0000    	55.0000     	0.0000      	Open  	;
 1869            	2358            	2359            	1.1456      	250.0000    	55.0000     	0.0000      	Open  	;
 1870            	2357            	2358            	0.0029      	250.0000    	55.0000     	0.0000      	Open  	;
 1871            	508             	2357            	69.4302     	250.0000    	55.0000     	0.0000      	Open  	;
 1872            	1738            	978             	22.4117     	85.0000     	122.0000    	0.0000      	Open  	;
 1873            	1814            	1817            	0.2431      	85.0000     	122.0000    	0.0000      	Open  	;
 1874            	752             	501             	2.0052      	60.0000     	122.0000    	0.0000      	Open  	;
 1875            	1654            	1771            	9.6913      	250.0000    	55.0000     	0.0000      	Open  	;
 1876            	1771            	1946            	1.3325      	250.0000    	55.0000     	0.0000      	Open  	;
 1877            	1707            	706             	3.1086      	60.0000     	122.0000    	0.0000      	Open  	;
 1878            	1770            	1767            	2.5883      	60.0000     	122.0000    	0.0000      	Open  	;
 1879            	1767            	1766            	8.5052      	250.0000    	55.0000     	0.0000      	Open  	;
 1880            	705             	1767            	38.2360     	250.0000    	55.0000     	0.0000      	Open  	;
 1881            	1766            	503             	50.9490     	250.0000    	55.0000     	0.0000      	Open  	;
 1882            	1684            	504             	3.2729      	85.0000     	122.0000    	0.0000      	Open  	;
 1883            	1791            	1792            	0.0019      	85.0000     	122.0000    	0.0000      	Open  	;
 1884            	1793            	2355            	0.1017      	85.0000     	122.0000    	0.0000      	Open  	;
 1886            	1859            	1797            	0.0034      	60.0000     	122.0000    	0.0000      	Open  	;
 1887            	1955            	1794            	0.0616      	85.0000     	122.0000    	0.0000      	Open  	;
 1888            	2355            	1955            	1.1431      	85.0000     	122.0000    	0.0000      	Open  	;
 1889            	1916            	1915            	3.3319      	60.0000     	122.0000    	0.0000      	Open  	;
 1890            	1416            	1463            	12.9251     	100.0000    	100.0000    	0.0000      	Open  	;
 1891            	2380            	1476            	5.7219      	150.0000    	55.0000     	0.0000      	Open  	;
 1892            	386             	2381            	0.9385      	100.0000    	55.0000     	0.0000      	Open  	;
 1893            	1461            	2299            	2.1998      	250.0000    	65.0000     	0.0000      	Open  	;
 1894            	1588            	1589            	36.0019     	110.0000    	132.0000    	0.0000      	Open  	;
 1895            	2409            	1585            	126.1522    	110.0000    	132.0000    	0.0000      	Open  	;
 1896            	2408            	2409            	63.1054     	110.0000    	132.0000    	0.0000      	Open  	;
 1897            	2407            	2408            	43.2017     	110.0000    	132.0000    	0.0000      	Open  	;
 1898            	2150            	2407            	92.6029     	110.0000    	132.0000    	0.0000      	Open  	;
 1899            	2406            	2150            	92.5961     	110.0000    	132.0000    	0.0000      	Open  	;
 1900            	2405            	2406            	6.4160      	110.0000    	132.0000    	0.0000      	Open  	;
 1901            	2404            	2405            	75.7854     	110.0000    	132.0000    	0.0000      	Open  	;
 1902            	1584            	2404            	40.0009     	110.0000    	132.0000    	0.0000      	Open  	;
 1903            	2403            	1583            	44.0308     	110.0000    	132.0000    	0.0000      	Open  	;
 1904            	1582            	2402            	9.4261      	110.0000    	132.0000    	0.0000      	Open  	;
 1905            	2287            	2401            	8.1063      	100.0000    	50.0000     	0.0000      	Open  	;
 1906            	1580            	1465            	5.1750      	200.0000    	54.0000     	0.0000      	Open  	;
 1907            	1811            	378             	2.5776      	200.0000    	55.0000     	0.0000      	Open  	;
 1908            	2400            	1470            	1.8231      	200.0000    	54.0000     	0.0000      	Open  	;
 1909            	2398            	2382            	105.0705    	200.0000    	54.0000     	0.0000      	Open  	;
 1910            	1237            	2335            	24.1756     	60.0000     	132.0000    	0.0000      	Open  	;
 1911            	2394            	1860            	50.1966     	60.0000     	132.0000    	0.0000      	Open  	;
 1912            	2393            	2394            	118.6961    	60.0000     	132.0000    	0.0000      	Open  	;
 1913            	2335            	2393            	1.1812      	60.0000     	132.0000    	0.0000      	Open  	;
 1914            	1931            	2387            	18.0984     	200.0000    	54.0000     	0.0000      	Open  	;
 1915            	2390            	2389            	2.8665      	300.0000    	58.0000     	0.0000      	Open  	;
 1916            	2385            	2389            	12.0824     	300.0000    	55.0000     	0.0000      	Open  	;
 1917            	2387            	2388            	26.9183     	200.0000    	54.0000     	0.0000      	Open  	;
 1918            	2385            	2386            	76.0108     	300.0000    	55.0000     	0.0000      	Open  	;
 1919            	381             	500             	1.0648      	300.0000    	55.0000     	0.0000      	Open  	;
 1920            	1579            	2384            	6.8166      	300.0000    	58.0000     	0.0000      	Open  	;
 1921            	2382            	2383            	1.8264      	60.0000     	132.0000    	0.0000      	Open  	;
 1922            	1956            	2399            	4.0720      	200.0000    	55.0000     	0.0000      	Open  	;
 1923            	1989            	1990            	40.0829     	60.0000     	132.0000    	0.0000      	Open  	;
 1924            	1756            	1754            	51.7482     	85.0000     	132.0000    	0.0000      	Open  	;
 1925            	1986            	1987            	26.0984     	60.0000     	132.0000    	0.0000      	Open  	;
 1926            	1190            	1191            	24.4166     	60.0000     	132.0000    	0.0000      	Open  	;
 1927            	1191            	1154            	61.2814     	60.0000     	132.0000    	0.0000      	Open  	;
 1928            	1192            	1190            	18.6713     	60.0000     	132.0000    	0.0000      	Open  	;
 1929            	1193            	1192            	25.9328     	60.0000     	132.0000    	0.0000      	Open  	;
 1930            	1194            	1188            	61.6174     	110.0000    	132.0000    	0.0000      	Open  	;
 1931            	982             	1194            	42.1446     	110.0000    	132.0000    	0.0000      	Open  	;
 1932            	1195            	982             	22.5867     	60.0000     	132.0000    	0.0000      	Open  	;
 1933            	1158            	1189            	69.8177     	60.0000     	132.0000    	0.0000      	Open  	;
 1934            	1193            	1195            	20.6331     	60.0000     	132.0000    	0.0000      	Open  	;
 1935            	1196            	962             	14.7695     	110.0000    	132.0000    	0.0000      	Open  	;
 1936            	1197            	1198            	21.7894     	60.0000     	132.0000    	0.0000      	Open  	;
 1937            	1185            	1199            	14.4302     	85.0000     	132.0000    	0.0000      	Open  	;
 1938            	1200            	1201            	34.9799     	60.0000     	132.0000    	0.0000      	Open  	;
 1939            	1178            	1202            	31.1145     	85.0000     	132.0000    	0.0000      	Open  	;
 1940            	638             	1203            	62.6892     	60.0000     	132.0000    	0.0000      	Open  	;
 1941            	1198            	1204            	42.8407     	60.0000     	132.0000    	0.0000      	Open  	;
 1942            	672             	962             	20.4867     	110.0000    	132.0000    	0.0000      	Open  	;
 1943            	1205            	1196            	132.1477    	110.0000    	132.0000    	0.0000      	Open  	;
 1944            	1188            	964             	84.0127     	110.0000    	132.0000    	0.0000      	Open  	;
 1945            	973             	1170            	8.6957      	110.0000    	132.0000    	0.0000      	Open  	;
 1946            	1173            	1174            	47.0301     	32.0000     	135.0000    	0.0000      	Open  	;
 1947            	668             	1156            	7.0538      	85.0000     	132.0000    	0.0000      	Open  	;
 1948            	1147            	1175            	67.4561     	150.0000    	52.0000     	0.0000      	Open  	;
 1949            	973             	1176            	28.8636     	110.0000    	132.0000    	0.0000      	Open  	;
 1950            	1176            	1148            	35.9365     	150.0000    	52.0000     	0.0000      	Open  	;
 1951            	1177            	1178            	8.5501      	85.0000     	132.0000    	0.0000      	Open  	;
 1952            	1179            	1180            	185.4578    	85.0000     	132.0000    	0.0000      	Open  	;
 1953            	964             	1187            	7.4219      	110.0000    	132.0000    	0.0000      	Open  	;
 1954            	1162            	1179            	51.9401     	85.0000     	132.0000    	0.0000      	Open  	;
 1955            	988             	1181            	7.2421      	60.0000     	132.0000    	0.0000      	Open  	;
 1956            	1182            	988             	34.1983     	60.0000     	132.0000    	0.0000      	Open  	;
 1957            	1160            	1183            	32.8937     	85.0000     	132.0000    	0.0000      	Open  	;
 1958            	1183            	1182            	8.7363      	85.0000     	132.0000    	0.0000      	Open  	;
 1959            	862             	1182            	145.8601    	85.0000     	132.0000    	0.0000      	Open  	;
 1960            	1184            	1185            	164.2048    	85.0000     	132.0000    	0.0000      	Open  	;
 1961            	1186            	1184            	18.7514     	85.0000     	132.0000    	0.0000      	Open  	;
 1962            	1181            	1159            	24.1200     	60.0000     	132.0000    	0.0000      	Open  	;
 1963            	127             	1168            	3.4611      	60.0000     	132.0000    	0.0000      	Open  	;
 1964            	1206            	1205            	21.6978     	110.0000    	132.0000    	0.0000      	Open  	;
 1965            	1207            	1208            	33.9683     	60.0000     	132.0000    	0.0000      	Open  	;
 1966            	1225            	552             	13.2973     	60.0000     	132.0000    	0.0000      	Open  	;
 1967            	560             	1197            	66.0530     	60.0000     	132.0000    	0.0000      	Open  	;
 1968            	844             	1209            	24.8253     	110.0000    	132.0000    	0.0000      	Open  	;
 1969            	1222            	1227            	5.4580      	85.0000     	132.0000    	0.0000      	Open  	;
 1970            	1228            	1229            	3.4707      	60.0000     	132.0000    	0.0000      	Open  	;
 1971            	843             	1225            	9.7842      	60.0000     	132.0000    	0.0000      	Open  	;
 1972            	787             	1210            	97.4524     	110.0000    	132.0000    	0.0000      	Open  	;
 1973            	1225            	1226            	31.2934     	60.0000     	132.0000    	0.0000      	Open  	;
 1974            	765             	786             	88.8861     	110.0000    	50.0000     	0.0000      	Open  	;
 1975            	1214            	1231            	28.3641     	60.0000     	132.0000    	0.0000      	Open  	;
 1976            	543             	1232            	51.4233     	110.0000    	132.0000    	0.0000      	Open  	;
 1977            	761             	1233            	32.6039     	150.0000    	52.0000     	0.0000      	Open  	;
 1978            	784             	761             	53.7015     	150.0000    	52.0000     	0.0000      	Open  	;
 1979            	1234            	133             	45.9858     	85.0000     	132.0000    	0.0000      	Open  	;
 1980            	1235            	1236            	42.0022     	110.0000    	132.0000    	0.0000      	Open  	;
 1981            	1236            	1237            	117.7957    	110.0000    	132.0000    	0.0000      	Open  	;
 1982            	554             	1230            	23.6971     	60.0000     	132.0000    	0.0000      	Open  	;
 1983            	117             	1206            	51.0905     	110.0000    	132.0000    	0.0000      	Open  	;
 1984            	1224            	128             	15.3047     	110.0000    	50.0000     	0.0000      	Open  	;
 1985            	1223            	764             	29.5014     	110.0000    	50.0000     	0.0000      	Open  	;
 1986            	1209            	551             	51.7160     	110.0000    	50.0000     	0.0000      	Open  	;
 1987            	1210            	1211            	21.5972     	110.0000    	132.0000    	0.0000      	Open  	;
 1988            	125             	1211            	51.0659     	110.0000    	132.0000    	0.0000      	Open  	;
 1989            	1212            	1169            	40.5410     	60.0000     	132.0000    	0.0000      	Open  	;
 1990            	1213            	1214            	55.2621     	60.0000     	132.0000    	0.0000      	Open  	;
 1991            	1213            	1215            	20.6570     	60.0000     	132.0000    	0.0000      	Open  	;
 1992            	1212            	1213            	40.7469     	60.0000     	132.0000    	0.0000      	Open  	;
 1993            	1224            	1223            	29.5563     	110.0000    	50.0000     	0.0000      	Open  	;
 1994            	1216            	1212            	3.5089      	60.0000     	132.0000    	0.0000      	Open  	;
 1995            	1155            	1175            	5.6956      	150.0000    	52.0000     	0.0000      	Open  	;
 1996            	1218            	1219            	10.2092     	60.0000     	132.0000    	0.0000      	Open  	;
 1997            	1220            	1218            	8.4563      	60.0000     	132.0000    	0.0000      	Open  	;
 1998            	1221            	841             	50.5542     	150.0000    	52.0000     	0.0000      	Open  	;
 1999            	527             	1221            	25.5945     	150.0000    	52.0000     	0.0000      	Open  	;
 2000            	672             	1222            	18.7512     	85.0000     	132.0000    	0.0000      	Open  	;
 2001            	764             	664             	51.2429     	110.0000    	50.0000     	0.0000      	Open  	;
 2002            	1217            	1216            	19.4174     	60.0000     	132.0000    	0.0000      	Open  	;
 2003            	1158            	1172            	25.6169     	85.0000     	132.0000    	0.0000      	Open  	;
 2004            	1170            	1171            	2.6508      	110.0000    	132.0000    	0.0000      	Open  	;
 2005            	1168            	1169            	6.2189      	60.0000     	132.0000    	0.0000      	Open  	;
 2006            	1114            	1115            	8.6842      	85.0000     	122.0000    	0.0000      	Open  	;
 2007            	1115            	1116            	8.3683      	85.0000     	122.0000    	0.0000      	Open  	;
 2008            	1116            	1117            	8.3745      	85.0000     	122.0000    	0.0000      	Open  	;
 2009            	1117            	1118            	8.3747      	85.0000     	122.0000    	0.0000      	Open  	;
 2010            	1118            	1119            	11.3258     	85.0000     	122.0000    	0.0000      	Open  	;
 2011            	1119            	1120            	11.3027     	85.0000     	122.0000    	0.0000      	Open  	;
 2012            	1120            	1121            	11.3271     	85.0000     	122.0000    	0.0000      	Open  	;
 2013            	1113            	1114            	8.6842      	85.0000     	122.0000    	0.0000      	Open  	;
 2014            	1121            	1122            	12.1739     	85.0000     	122.0000    	0.0000      	Open  	;
 2015            	1123            	1124            	12.1790     	85.0000     	122.0000    	0.0000      	Open  	;
 2016            	1124            	1125            	7.0382      	85.0000     	122.0000    	0.0000      	Open  	;
 2017            	1125            	1126            	7.0319      	85.0000     	122.0000    	0.0000      	Open  	;
 2018            	1126            	1127            	7.0287      	85.0000     	122.0000    	0.0000      	Open  	;
 2019            	1127            	1128            	13.1970     	85.0000     	122.0000    	0.0000      	Open  	;
 2020            	1128            	1129            	13.1986     	85.0000     	122.0000    	0.0000      	Open  	;
 2021            	1129            	1130            	13.1976     	85.0000     	122.0000    	0.0000      	Open  	;
 2022            	1122            	1123            	12.1818     	85.0000     	122.0000    	0.0000      	Open  	;
 2023            	1130            	1131            	10.2330     	85.0000     	122.0000    	0.0000      	Open  	;
 2024            	123             	1113            	6.2489      	85.0000     	122.0000    	0.0000      	Open  	;
 2025            	1112            	1111            	20.3892     	85.0000     	122.0000    	0.0000      	Open  	;
 2026            	486             	139             	28.9999     	75.0000     	55.0000     	0.0000      	Open  	;
 2027            	771             	758             	8.1041      	75.0000     	55.0000     	0.0000      	Open  	;
 2028            	1056            	1057            	4.0836      	75.0000     	55.0000     	0.0000      	Open  	;
 2029            	1058            	164             	40.7816     	75.0000     	55.0000     	0.0000      	Open  	;
 2030            	1077            	1078            	11.9279     	85.0000     	100.0000    	0.0000      	Open  	;
 2031            	763             	1077            	11.2117     	75.0000     	65.0000     	0.0000      	Open  	;
 2032            	1079            	367             	178.5955    	100.0000    	75.0000     	0.0000      	Open  	;
 2033            	1104            	28              	20.8943     	85.0000     	122.0000    	0.0000      	Open  	;
 2034            	120             	1099            	5.3674      	60.0000     	132.0000    	0.0000      	Open  	;
 2035            	1101            	1102            	125.5781    	85.0000     	132.0000    	0.0000      	Open  	;
 2036            	1103            	1104            	24.3593     	85.0000     	122.0000    	0.0000      	Open  	;
 2037            	28              	1105            	71.3311     	60.0000     	122.0000    	0.0000      	Open  	;
 2038            	130             	1106            	69.4957     	60.0000     	132.0000    	0.0000      	Open  	;
 2039            	1107            	1108            	125.9912    	85.0000     	122.0000    	0.0000      	Open  	;
 2040            	590             	1109            	14.8671     	60.0000     	122.0000    	0.0000      	Open  	;
 2041            	1110            	1111            	10.8923     	60.0000     	122.0000    	0.0000      	Open  	;
 2042            	1099            	1100            	15.4547     	60.0000     	132.0000    	0.0000      	Open  	;
 2043            	1131            	1132            	10.2330     	85.0000     	122.0000    	0.0000      	Open  	;
 2044            	1132            	1133            	10.2330     	85.0000     	122.0000    	0.0000      	Open  	;
 2045            	1134            	1133            	8.9965      	85.0000     	122.0000    	0.0000      	Open  	;
 2046            	1152            	1153            	53.6577     	60.0000     	132.0000    	0.0000      	Open  	;
 2047            	1153            	1154            	20.5909     	60.0000     	132.0000    	0.0000      	Open  	;
 2048            	841             	1155            	3.6511      	150.0000    	52.0000     	0.0000      	Open  	;
 2049            	530             	527             	58.3296     	150.0000    	52.0000     	0.0000      	Open  	;
 2050            	1156            	1157            	39.2187     	85.0000     	132.0000    	0.0000      	Open  	;
 2051            	1158            	1154            	22.0848     	85.0000     	132.0000    	0.0000      	Open  	;
 2052            	1150            	1159            	10.5960     	60.0000     	132.0000    	0.0000      	Open  	;
 2053            	1151            	1152            	18.5905     	60.0000     	132.0000    	0.0000      	Open  	;
 2054            	1160            	1161            	33.6584     	85.0000     	132.0000    	0.0000      	Open  	;
 2055            	1160            	1163            	24.1338     	60.0000     	132.0000    	0.0000      	Open  	;
 2056            	1163            	1164            	2.4409      	60.0000     	132.0000    	0.0000      	Open  	;
 2057            	1164            	1165            	78.6210     	60.0000     	132.0000    	0.0000      	Open  	;
 2058            	712             	1166            	4.8617      	110.0000    	132.0000    	0.0000      	Open  	;
 2059            	1167            	667             	280.3181    	85.0000     	132.0000    	0.0000      	Open  	;
 2060            	784             	639             	4.9601      	60.0000     	132.0000    	0.0000      	Open  	;
 2061            	712             	783             	6.0661      	150.0000    	52.0000     	0.0000      	Open  	;
 2062            	1161            	1162            	10.2333     	85.0000     	132.0000    	0.0000      	Open  	;
 2063            	1150            	1151            	288.5712    	60.0000     	132.0000    	0.0000      	Open  	;
 2064            	842             	1149            	32.3710     	110.0000    	132.0000    	0.0000      	Open  	;
 2065            	1148            	1146            	23.1786     	150.0000    	52.0000     	0.0000      	Open  	;
 2066            	1135            	1134            	87.7031     	85.0000     	122.0000    	0.0000      	Open  	;
 2067            	1136            	1135            	6.6307      	85.0000     	122.0000    	0.0000      	Open  	;
 2068            	1108            	1136            	10.9961     	85.0000     	122.0000    	0.0000      	Open  	;
 2069            	484             	1137            	2.1020      	110.0000    	132.0000    	0.0000      	Open  	;
 2070            	548             	1138            	47.4687     	85.0000     	132.0000    	0.0000      	Open  	;
 2071            	1138            	1106            	47.0026     	85.0000     	132.0000    	0.0000      	Open  	;
 2072            	1138            	1137            	97.4091     	60.0000     	132.0000    	0.0000      	Open  	;
 2073            	549             	1137            	47.4559     	110.0000    	132.0000    	0.0000      	Open  	;
 2074            	549             	1139            	103.7866    	60.0000     	132.0000    	0.0000      	Open  	;
 2075            	1140            	549             	46.2622     	110.0000    	132.0000    	0.0000      	Open  	;
 2076            	1140            	1141            	103.1888    	110.0000    	132.0000    	0.0000      	Open  	;
 2077            	1142            	1140            	43.8488     	85.0000     	132.0000    	0.0000      	Open  	;
 2078            	1143            	1144            	84.6053     	85.0000     	132.0000    	0.0000      	Open  	;
 2079            	1145            	1108            	23.6994     	85.0000     	122.0000    	0.0000      	Open  	;
 2080            	1109            	1145            	53.8728     	85.0000     	122.0000    	0.0000      	Open  	;
 2081            	1111            	1109            	7.4161      	85.0000     	122.0000    	0.0000      	Open  	;
 2082            	1146            	1147            	47.9737     	150.0000    	52.0000     	0.0000      	Open  	;
 2083            	1238            	1239            	82.7613     	85.0000     	122.0000    	0.0000      	Open  	;
 2084            	139             	1047            	9.0753      	75.0000     	55.0000     	0.0000      	Open  	;
 2085            	1240            	1241            	3.8667      	60.0000     	122.0000    	0.0000      	Open  	;
 2086            	1238            	1242            	61.5421     	60.0000     	122.0000    	0.0000      	Open  	;
 2087            	1337            	1348            	78.1962     	60.0000     	132.0000    	0.0000      	Open  	;
 2088            	1336            	1316            	77.6844     	60.0000     	132.0000    	0.0000      	Open  	;
 2089            	1336            	1310            	51.2208     	60.0000     	132.0000    	0.0000      	Open  	;
 2090            	1310            	1349            	90.6349     	60.0000     	132.0000    	0.0000      	Open  	;
 2091            	1312            	1350            	90.9780     	60.0000     	132.0000    	0.0000      	Open  	;
 2092            	1312            	1314            	52.6256     	60.0000     	132.0000    	0.0000      	Open  	;
 2093            	1314            	1351            	89.9636     	60.0000     	132.0000    	0.0000      	Open  	;
 2094            	1336            	1347            	90.4618     	60.0000     	132.0000    	0.0000      	Open  	;
 2095            	1348            	1316            	5.1338      	85.0000     	132.0000    	0.0000      	Open  	;
 2096            	1352            	1320            	42.9384     	85.0000     	132.0000    	0.0000      	Open  	;
 2097            	1342            	1352            	47.9679     	85.0000     	132.0000    	0.0000      	Open  	;
 2098            	1353            	1342            	46.8831     	85.0000     	132.0000    	0.0000      	Open  	;
 2099            	1346            	1353            	52.0985     	85.0000     	132.0000    	0.0000      	Open  	;
 2100            	1345            	1353            	90.1380     	60.0000     	132.0000    	0.0000      	Open  	;
 2101            	1347            	1346            	7.0580      	85.0000     	132.0000    	0.0000      	Open  	;
 2102            	1349            	1347            	52.0504     	85.0000     	132.0000    	0.0000      	Open  	;
 2103            	1319            	1348            	52.5844     	85.0000     	132.0000    	0.0000      	Open  	;
 2104            	1350            	1349            	6.8381      	85.0000     	132.0000    	0.0000      	Open  	;
 2105            	1337            	1346            	89.6797     	60.0000     	132.0000    	0.0000      	Open  	;
 2106            	1345            	1319            	77.2125     	60.0000     	132.0000    	0.0000      	Open  	;
 2107            	1335            	1334            	67.9580     	85.0000     	132.0000    	0.0000      	Open  	;
 2108            	1336            	1337            	7.1140      	60.0000     	132.0000    	0.0000      	Open  	;
 2109            	1312            	1310            	7.3857      	60.0000     	132.0000    	0.0000      	Open  	;
 2110            	678             	1314            	6.0300      	60.0000     	132.0000    	0.0000      	Open  	;
 2111            	1309            	1323            	6.6562      	60.0000     	132.0000    	0.0000      	Open  	;
 2112            	1338            	1339            	75.3745     	60.0000     	132.0000    	0.0000      	Open  	;
 2113            	1339            	1340            	185.0416    	60.0000     	132.0000    	0.0000      	Open  	;
 2114            	1345            	1337            	51.3513     	60.0000     	132.0000    	0.0000      	Open  	;
 2115            	1329            	1341            	13.0528     	85.0000     	132.0000    	0.0000      	Open  	;
 2116            	1320            	701             	10.6181     	110.0000    	132.0000    	0.0000      	Open  	;
 2117            	1342            	1343            	23.8965     	85.0000     	132.0000    	0.0000      	Open  	;
 2118            	1344            	1343            	8.8551      	85.0000     	132.0000    	0.0000      	Open  	;
 2119            	1343            	788             	357.4035    	85.0000     	132.0000    	0.0000      	Open  	;
 2120            	1331            	788             	22.5455     	85.0000     	132.0000    	0.0000      	Open  	;
 2121            	1332            	1344            	71.7972     	85.0000     	132.0000    	0.0000      	Open  	;
 2122            	1320            	1345            	47.7260     	60.0000     	132.0000    	0.0000      	Open  	;
 2123            	1333            	699             	193.5622    	85.0000     	132.0000    	0.0000      	Open  	;
 2124            	1334            	1330            	8.4089      	85.0000     	132.0000    	0.0000      	Open  	;
 2125            	1351            	1350            	51.4659     	85.0000     	132.0000    	0.0000      	Open  	;
 2126            	1354            	1355            	8.6933      	85.0000     	132.0000    	0.0000      	Open  	;
 2127            	1368            	1377            	73.6529     	150.0000    	135.0000    	0.0000      	Open  	;
 2128            	1379            	1368            	13.9977     	150.0000    	125.0000    	0.0000      	Open  	;
 2129            	1380            	1381            	32.9151     	85.0000     	122.0000    	0.0000      	Open  	;
 2130            	1356            	1382            	253.4428    	85.0000     	122.0000    	0.0000      	Open  	;
 2131            	1376            	1374            	5.9968      	200.0000    	135.0000    	0.0000      	Open  	;
 2132            	1378            	1375            	23.4527     	150.0000    	135.0000    	0.0000      	Open  	;
 2133            	1381            	369             	98.6321     	85.0000     	122.0000    	0.0000      	Open  	;
 2134            	1377            	1378            	4.4009      	75.0000     	50.0000     	0.0000      	Open  	;
 2135            	369             	1357            	0.7464      	85.0000     	122.0000    	0.0000      	Open  	;
 2136            	1365            	1362            	8.2245      	85.0000     	122.0000    	0.0000      	Open  	;
 2137            	1366            	1365            	52.2103     	85.0000     	122.0000    	0.0000      	Open  	;
 2138            	1367            	1366            	6.3928      	85.0000     	122.0000    	0.0000      	Open  	;
 2139            	103             	1384            	6.5294      	200.0000    	135.0000    	0.0000      	Open  	;
 2140            	1377            	1385            	3.6371      	75.0000     	50.0000     	0.0000      	Open  	;
 2141            	1386            	1387            	24.7490     	60.0000     	132.0000    	0.0000      	Open  	;
 2142            	710             	875             	93.4444     	150.0000    	125.0000    	0.0000      	Open  	;
 2143            	1362            	1383            	50.5438     	60.0000     	122.0000    	0.0000      	Open  	;
 2144            	679             	1351            	7.1903      	85.0000     	132.0000    	0.0000      	Open  	;
 2145            	1375            	1376            	6.6620      	150.0000    	135.0000    	0.0000      	Open  	;
 2146            	104             	1373            	9.2996      	200.0000    	135.0000    	0.0000      	Open  	;
 2147            	679             	1354            	51.1065     	85.0000     	132.0000    	0.0000      	Open  	;
 2148            	1323            	1354            	90.6519     	60.0000     	132.0000    	0.0000      	Open  	;
 2149            	1356            	1255            	53.7626     	60.0000     	122.0000    	0.0000      	Open  	;
 2150            	1356            	1257            	101.4515    	85.0000     	122.0000    	0.0000      	Open  	;
 2151            	1357            	1358            	21.9706     	85.0000     	122.0000    	0.0000      	Open  	;
 2152            	1359            	1360            	21.0967     	85.0000     	122.0000    	0.0000      	Open  	;
 2153            	1361            	1357            	12.8524     	60.0000     	122.0000    	0.0000      	Open  	;
 2154            	1374            	103             	64.5115     	200.0000    	135.0000    	0.0000      	Open  	;
 2155            	1362            	1363            	61.1449     	60.0000     	122.0000    	0.0000      	Open  	;
 2156            	1366            	1264            	53.7795     	60.0000     	122.0000    	0.0000      	Open  	;
 2157            	1367            	1266            	47.3649     	85.0000     	122.0000    	0.0000      	Open  	;
 2158            	1269            	1367            	47.1116     	85.0000     	122.0000    	0.0000      	Open  	;
 2159            	1272            	1368            	232.0792    	85.0000     	132.0000    	0.0000      	Open  	;
 2160            	1369            	1273            	40.8542     	85.0000     	132.0000    	0.0000      	Open  	;
 2161            	1370            	674             	74.8290     	85.0000     	132.0000    	0.0000      	Open  	;
 2162            	1371            	1372            	62.4107     	85.0000     	132.0000    	0.0000      	Open  	;
 2163            	1364            	1365            	68.2825     	85.0000     	122.0000    	0.0000      	Open  	;
 2164            	1332            	1333            	168.1021    	85.0000     	132.0000    	0.0000      	Open  	;
 2165            	1326            	1331            	25.0003     	85.0000     	132.0000    	0.0000      	Open  	;
 2166            	1329            	1330            	3.0295      	85.0000     	132.0000    	0.0000      	Open  	;
 2167            	711             	1167            	17.4271     	85.0000     	132.0000    	0.0000      	Open  	;
 2168            	1245            	1274            	113.4226    	110.0000    	122.0000    	0.0000      	Open  	;
 2169            	1275            	1276            	7.4388      	60.0000     	122.0000    	0.0000      	Open  	;
 2170            	1277            	1278            	32.2898     	85.0000     	122.0000    	0.0000      	Open  	;
 2171            	1279            	1280            	53.2309     	85.0000     	132.0000    	0.0000      	Open  	;
 2172            	1279            	1281            	88.1685     	60.0000     	132.0000    	0.0000      	Open  	;
 2173            	1259            	1261            	87.8983     	85.0000     	132.0000    	0.0000      	Open  	;
 2174            	314             	1239            	12.3017     	110.0000    	122.0000    	0.0000      	Open  	;
 2175            	1259            	1279            	8.2727      	60.0000     	132.0000    	0.0000      	Open  	;
 2176            	107             	1282            	85.2591     	85.0000     	132.0000    	0.0000      	Open  	;
 2177            	1268            	1283            	88.2692     	60.0000     	122.0000    	0.0000      	Open  	;
 2178            	1284            	1285            	88.7682     	85.0000     	122.0000    	0.0000      	Open  	;
 2179            	1286            	1284            	52.1396     	85.0000     	122.0000    	0.0000      	Open  	;
 2180            	1275            	1287            	79.0128     	60.0000     	122.0000    	0.0000      	Open  	;
 2181            	1288            	1276            	79.3942     	85.0000     	122.0000    	0.0000      	Open  	;
 2182            	1256            	1286            	19.5243     	60.0000     	122.0000    	0.0000      	Open  	;
 2183            	1282            	1262            	4.3754      	85.0000     	132.0000    	0.0000      	Open  	;
 2184            	1289            	1256            	39.9107     	85.0000     	122.0000    	0.0000      	Open  	;
 2185            	1273            	1271            	37.4629     	85.0000     	132.0000    	0.0000      	Open  	;
 2186            	1270            	1252            	0.8095      	60.0000     	122.0000    	0.0000      	Open  	;
 2187            	1243            	1244            	6.0009      	85.0000     	122.0000    	0.0000      	Open  	;
 2188            	1245            	314             	30.0001     	110.0000    	122.0000    	0.0000      	Open  	;
 2189            	1245            	1246            	1.0024      	60.0000     	122.0000    	0.0000      	Open  	;
 2190            	1247            	1248            	15.0000     	85.0000     	122.0000    	0.0000      	Open  	;
 2191            	1247            	1249            	1.4589      	85.0000     	122.0000    	0.0000      	Open  	;
 2192            	106             	1250            	5.2618      	200.0000    	120.0000    	0.0000      	Open  	;
 2193            	1251            	1252            	0.3982      	60.0000     	122.0000    	0.0000      	Open  	;
 2194            	1271            	1272            	71.2230     	85.0000     	132.0000    	0.0000      	Open  	;
 2195            	1253            	1254            	44.1785     	85.0000     	122.0000    	0.0000      	Open  	;
 2196            	1257            	1239            	11.2108     	110.0000    	122.0000    	0.0000      	Open  	;
 2197            	1258            	1259            	27.6467     	60.0000     	132.0000    	0.0000      	Open  	;
 2198            	1260            	1261            	5.3724      	85.0000     	132.0000    	0.0000      	Open  	;
 2199            	1262            	1263            	67.1014     	85.0000     	132.0000    	0.0000      	Open  	;
 2200            	1264            	1265            	35.1079     	60.0000     	122.0000    	0.0000      	Open  	;
 2201            	1266            	1267            	41.4097     	60.0000     	122.0000    	0.0000      	Open  	;
 2202            	1268            	1269            	7.1070      	85.0000     	122.0000    	0.0000      	Open  	;
 2203            	1255            	1256            	67.8599     	60.0000     	122.0000    	0.0000      	Open  	;
 2204            	1289            	648             	89.1413     	60.0000     	122.0000    	0.0000      	Open  	;
 2205            	1290            	1289            	8.2379      	85.0000     	122.0000    	0.0000      	Open  	;
 2206            	1290            	1291            	88.9628     	85.0000     	122.0000    	0.0000      	Open  	;
 2207            	1285            	1306            	39.7268     	85.0000     	122.0000    	0.0000      	Open  	;
 2208            	1283            	1285            	5.9679      	85.0000     	122.0000    	0.0000      	Open  	;
 2209            	1267            	1283            	54.3911     	85.0000     	122.0000    	0.0000      	Open  	;
 2210            	1307            	675             	56.6298     	85.0000     	132.0000    	0.0000      	Open  	;
 2211            	1308            	1309            	19.4053     	60.0000     	132.0000    	0.0000      	Open  	;
 2212            	1310            	1311            	75.8778     	60.0000     	132.0000    	0.0000      	Open  	;
 2213            	1312            	1313            	71.4693     	60.0000     	132.0000    	0.0000      	Open  	;
 2214            	1305            	1294            	10.7484     	85.0000     	122.0000    	0.0000      	Open  	;
 2215            	1314            	1315            	45.0913     	60.0000     	132.0000    	0.0000      	Open  	;
 2216            	1318            	1319            	41.2820     	85.0000     	132.0000    	0.0000      	Open  	;
 2217            	1320            	1321            	64.1744     	85.0000     	132.0000    	0.0000      	Open  	;
 2218            	678             	1322            	41.7946     	60.0000     	132.0000    	0.0000      	Open  	;
 2219            	1323            	1324            	13.9577     	60.0000     	132.0000    	0.0000      	Open  	;
 2220            	1309            	1325            	10.4345     	60.0000     	132.0000    	0.0000      	Open  	;
 2221            	1326            	1327            	72.8651     	85.0000     	132.0000    	0.0000      	Open  	;
 2222            	482             	1328            	7.0032      	85.0000     	132.0000    	0.0000      	Open  	;
 2223            	1316            	1317            	48.5785     	85.0000     	132.0000    	0.0000      	Open  	;
 2224            	1304            	1305            	10.7484     	85.0000     	122.0000    	0.0000      	Open  	;
 2225            	1303            	1304            	10.7484     	85.0000     	122.0000    	0.0000      	Open  	;
 2226            	1302            	1303            	12.4822     	85.0000     	122.0000    	0.0000      	Open  	;
 2227            	1292            	1290            	52.1431     	85.0000     	122.0000    	0.0000      	Open  	;
 2228            	1293            	1238            	143.8790    	85.0000     	122.0000    	0.0000      	Open  	;
 2229            	1293            	1294            	258.4678    	85.0000     	122.0000    	0.0000      	Open  	;
 2230            	1274            	1247            	81.0649     	85.0000     	122.0000    	0.0000      	Open  	;
 2231            	1292            	1274            	17.7733     	85.0000     	122.0000    	0.0000      	Open  	;
 2232            	686             	1292            	89.4475     	85.0000     	122.0000    	0.0000      	Open  	;
 2233            	1291            	686             	55.6974     	85.0000     	122.0000    	0.0000      	Open  	;
 2234            	648             	1291            	7.9278      	85.0000     	122.0000    	0.0000      	Open  	;
 2235            	1288            	647             	25.7041     	85.0000     	122.0000    	0.0000      	Open  	;
 2236            	1287            	1288            	8.8201      	85.0000     	122.0000    	0.0000      	Open  	;
 2237            	1239            	642             	5.5476      	110.0000    	122.0000    	0.0000      	Open  	;
 2238            	1295            	1296            	15.1329     	60.0000     	122.0000    	0.0000      	Open  	;
 2239            	1297            	1298            	9.6468      	85.0000     	122.0000    	0.0000      	Open  	;
 2240            	1298            	1299            	9.7722      	85.0000     	122.0000    	0.0000      	Open  	;
 2241            	1299            	1300            	9.7722      	85.0000     	122.0000    	0.0000      	Open  	;
 2242            	1300            	1301            	12.4822     	85.0000     	122.0000    	0.0000      	Open  	;
 2243            	1301            	1302            	12.6397     	85.0000     	122.0000    	0.0000      	Open  	;
 2244            	1240            	1242            	22.9659     	60.0000     	122.0000    	0.0000      	Open  	;
 2245            	1368            	1388            	170.0048    	60.0000     	132.0000    	0.0000      	Open  	;
 2246            	1046            	1043            	0.1414      	32.0000     	75.0000     	0.0000      	Open  	;
 2247            	366             	1045            	13.6911     	32.0000     	75.0000     	0.0000      	Open  	;
 2248            	374             	375             	10.9039     	300.0000    	78.0000     	0.0000      	Open  	;
 2249            	375             	371             	10.9092     	300.0000    	78.0000     	0.0000      	Open  	;
 2250            	376             	377             	9.4944      	250.0000    	65.0000     	0.0000      	Open  	;
 2251            	378             	379             	3.1284      	200.0000    	55.0000     	0.0000      	Open  	;
 2252            	379             	380             	3.9660      	200.0000    	55.0000     	0.0000      	Open  	;
 2255            	373             	374             	8.1364      	300.0000    	78.0000     	0.0000      	Open  	;
 2256            	384             	385             	30.0251     	200.0000    	55.0000     	0.0000      	Open  	;
 2257            	344             	391             	44.2005     	100.0000    	50.0000     	0.0000      	Open  	;
 2258            	391             	392             	6.1055      	100.0000    	50.0000     	0.0000      	Open  	;
 2259            	392             	393             	49.3589     	100.0000    	50.0000     	0.0000      	Open  	;
 2260            	394             	395             	96.6240     	100.0000    	55.0000     	0.0000      	Open  	;
 2261            	398             	399             	2.1582      	60.0000     	132.0000    	0.0000      	Open  	;
 2262            	444             	445             	38.3337     	60.0000     	132.0000    	0.0000      	Open  	;
 2263            	463             	464             	2.3320      	60.0000     	132.0000    	0.0000      	Open  	;
 2264            	386             	387             	3.8739      	250.0000    	55.0000     	0.0000      	Open  	;
 2265            	309             	467             	5.5446      	160.0000    	135.0000    	0.0000      	Open  	;
 2266            	371             	372             	18.8239     	300.0000    	78.0000     	0.0000      	Open  	;
 2268            	243             	244             	2.5705      	60.0000     	100.0000    	0.0000      	Open  	;
 2269            	245             	246             	2.8821      	150.0000    	52.0000     	0.0000      	Open  	;
 2270            	247             	248             	180.4487    	100.0000    	50.0000     	0.0000      	Open  	;
 2271            	249             	250             	88.7213     	100.0000    	50.0000     	0.0000      	Closed	;
 2272            	251             	249             	28.2017     	100.0000    	50.0000     	0.0000      	Open  	;
 2273            	308             	309             	20.0845     	110.0000    	132.0000    	0.0000      	Open  	;
 2274            	313             	314             	3.5513      	100.0000    	55.0000     	0.0000      	Open  	;
 2276            	319             	320             	22.1304     	32.0000     	135.0000    	0.0000      	Open  	;
 2277            	345             	346             	21.1793     	100.0000    	50.0000     	0.0000      	Open  	;
 2278            	346             	347             	2.6407      	100.0000    	50.0000     	0.0000      	Open  	;
 2279            	245             	348             	64.9869     	100.0000    	50.0000     	0.0000      	Open  	;
 2280            	251             	245             	87.7679     	100.0000    	50.0000     	0.0000      	Open  	;
 2281            	362             	363             	39.1269     	300.0000    	65.0000     	0.0000      	Open  	;
 2282            	364             	365             	27.9560     	100.0000    	65.0000     	0.0000      	Open  	;
 2283            	366             	367             	787.3954    	100.0000    	75.0000     	0.0000      	Open  	;
 2284            	247             	344             	8.5650      	100.0000    	50.0000     	0.0000      	Open  	;
 2285            	242             	239             	3.2932      	85.0000     	122.0000    	0.0000      	Open  	;
 2286            	478             	479             	1.6672      	85.0000     	122.0000    	0.0000      	Open  	;
 2287            	482             	483             	1.6162      	85.0000     	132.0000    	0.0000      	Open  	;
 2288            	512             	513             	168.5000    	250.0000    	65.0000     	0.0000      	Open  	;
 2289            	513             	514             	153.9712    	250.0000    	65.0000     	0.0000      	Open  	;
 2290            	514             	515             	4.5292      	250.0000    	65.0000     	0.0000      	Open  	;
 2291            	515             	487             	117.7376    	250.0000    	65.0000     	0.0000      	Open  	;
 2292            	510             	516             	102.6917    	300.0000    	65.0000     	0.0000      	Open  	;
 2293            	516             	517             	47.2232     	300.0000    	65.0000     	0.0000      	Open  	;
 2294            	520             	521             	17.1122     	60.0000     	122.0000    	0.0000      	Open  	;
 2295            	511             	512             	92.0001     	250.0000    	65.0000     	0.0000      	Open  	;
 2296            	522             	136             	209.7754    	85.0000     	122.0000    	0.0000      	Open  	;
 2297            	525             	526             	14.5862     	60.0000     	122.0000    	0.0000      	Open  	;
 2298            	527             	528             	13.3707     	60.0000     	132.0000    	0.0000      	Open  	;
 2299            	529             	530             	11.6534     	85.0000     	132.0000    	0.0000      	Open  	;
 2300            	543             	544             	51.2915     	60.0000     	132.0000    	0.0000      	Open  	;
 2301            	544             	545             	4.6000      	60.0000     	132.0000    	0.0000      	Open  	;
 2302            	546             	547             	7.0092      	85.0000     	132.0000    	0.0000      	Open  	;
 2303            	547             	548             	41.3386     	85.0000     	132.0000    	0.0000      	Open  	;
 2304            	523             	524             	130.1315    	60.0000     	122.0000    	0.0000      	Open  	;
 2305            	480             	481             	1.6289      	85.0000     	122.0000    	0.0000      	Open  	;
 2306            	499             	510             	14.9441     	250.0000    	65.0000     	0.0000      	Open  	;
 2307            	508             	509             	18.4629     	250.0000    	55.0000     	0.0000      	Open  	;
 2308            	484             	485             	1.6241      	110.0000    	132.0000    	0.0000      	Open  	;
 2309            	156             	486             	8.8422      	75.0000     	55.0000     	0.0000      	Open  	;
 2310            	487             	488             	10.9021     	250.0000    	65.0000     	0.0000      	Open  	;
 2311            	489             	490             	22.1249     	500.0000    	76.0000     	0.0000      	Open  	;
 2312            	490             	491             	17.1497     	500.0000    	76.0000     	0.0000      	Open  	;
 2313            	491             	492             	11.4134     	500.0000    	76.0000     	0.0000      	Open  	;
 2314            	492             	493             	3.4320      	500.0000    	76.0000     	0.0000      	Open  	;
 2315            	495             	509             	5.5385      	200.0000    	55.0000     	0.0000      	Open  	;
 2316            	494             	495             	5.5219      	200.0000    	55.0000     	0.0000      	Open  	;
 2317            	498             	499             	448.9331    	250.0000    	65.0000     	0.0000      	Open  	;
 2318            	500             	501             	23.7132     	300.0000    	55.0000     	0.0000      	Open  	;
 2319            	501             	502             	51.9723     	300.0000    	55.0000     	0.0000      	Open  	;
 2320            	503             	504             	6.0616      	250.0000    	55.0000     	0.0000      	Open  	;
 2321            	504             	505             	54.4553     	250.0000    	55.0000     	0.0000      	Open  	;
 2322            	505             	506             	7.0662      	250.0000    	55.0000     	0.0000      	Open  	;
 2323            	506             	507             	41.4437     	250.0000    	55.0000     	0.0000      	Open  	;
 2324            	496             	497             	19.0111     	300.0000    	65.0000     	0.0000      	Open  	;
 2325            	240             	241             	26.8071     	32.0000     	125.0000    	0.0000      	Open  	;
 2326            	239             	240             	3.1930      	85.0000     	122.0000    	0.0000      	Open  	;
 2327            	237             	238             	4.9837      	32.0000     	125.0000    	0.0000      	Open  	;
 2328            	49              	50              	36.6102     	60.0000     	132.0000    	0.0000      	Open  	;
 2329            	63              	64              	2.6263      	100.0000    	50.0000     	0.0000      	Open  	;
 2330            	64              	65              	1.1632      	100.0000    	50.0000     	0.0000      	Open  	;
 2331            	69              	70              	4.7246      	100.0000    	50.0000     	0.0000      	Open  	;
 2332            	77              	78              	2.5982      	110.0000    	132.0000    	0.0000      	Open  	;
 2333            	103             	104             	5.9001      	200.0000    	135.0000    	0.0000      	Open  	;
 2334            	PM.VRP.NBN.002  	106             	155.2724    	200.0000    	120.0000    	0.0000      	Open  	;
 2335            	48              	49              	59.3012     	60.0000     	132.0000    	0.0000      	Open  	;
 2336            	107             	108             	10.6600     	85.0000     	132.0000    	0.0000      	Open  	;
 2337            	110             	111             	111.6957    	200.0000    	135.0000    	0.0000      	Open  	;
 2338            	112             	113             	2.0277      	75.0000     	55.0000     	0.0000      	Open  	;
 2339            	113             	114             	1.9290      	75.0000     	55.0000     	0.0000      	Open  	;
 2340            	115             	116             	10.6510     	85.0000     	132.0000    	0.0000      	Open  	;
 2341            	117             	118             	12.5444     	110.0000    	132.0000    	0.0000      	Open  	;
 2342            	119             	120             	396.5701    	60.0000     	132.0000    	0.0000      	Open  	;
 2343            	121             	119             	47.7229     	60.0000     	132.0000    	0.0000      	Open  	;
 2344            	108             	109             	7.8601      	85.0000     	132.0000    	0.0000      	Open  	;
 2345            	122             	123             	10.1789     	85.0000     	122.0000    	0.0000      	Open  	;
 2346            	47              	48              	0.9551      	60.0000     	132.0000    	0.0000      	Open  	;
 2347            	44              	45              	29.5607     	300.0000    	78.0000     	0.0000      	Open  	;
 2348            	1               	2               	1.3320      	60.0000     	132.0000    	0.0000      	Open  	;
 2349            	16              	17              	2.6363      	60.0000     	132.0000    	0.0000      	Open  	;
 2350            	16              	18              	0.9375      	60.0000     	132.0000    	0.0000      	Open  	;
 2351            	17              	19              	58.5782     	60.0000     	132.0000    	0.0000      	Open  	;
 2352            	19              	20              	2.6382      	60.0000     	132.0000    	0.0000      	Open  	;
 2353            	28              	29              	19.0812     	60.0000     	122.0000    	0.0000      	Open  	;
 2354            	29              	30              	19.0811     	60.0000     	122.0000    	0.0000      	Open  	;
 2355            	45              	46              	3.9904      	300.0000    	78.0000     	0.0000      	Open  	;
 2356            	30              	31              	19.0812     	60.0000     	122.0000    	0.0000      	Open  	;
 2357            	32              	33              	17.0570     	60.0000     	122.0000    	0.0000      	Open  	;
 2358            	33              	34              	16.5191     	60.0000     	122.0000    	0.0000      	Open  	;
 2359            	39              	40              	13.0677     	300.0000    	78.0000     	0.0000      	Open  	;
 2360            	40              	41              	0.7314      	300.0000    	78.0000     	0.0000      	Open  	;
 2361            	41              	42              	18.6439     	300.0000    	78.0000     	0.0000      	Open  	;
 2362            	42              	43              	21.1410     	300.0000    	78.0000     	0.0000      	Open  	;
 2363            	43              	44              	9.7222      	300.0000    	78.0000     	0.0000      	Open  	;
 2364            	31              	32              	16.5190     	60.0000     	122.0000    	0.0000      	Open  	;
 2365            	124             	125             	8.7131      	110.0000    	132.0000    	0.0000      	Open  	;
 2366            	126             	124             	81.7305     	110.0000    	132.0000    	0.0000      	Open  	;
 2367            	127             	126             	35.4036     	110.0000    	50.0000     	0.0000      	Open  	;
 2368            	154             	155             	4.0970      	60.0000     	122.0000    	0.0000      	Open  	;
 2369            	156             	112             	53.1024     	75.0000     	55.0000     	0.0000      	Open  	;
 2370            	161             	162             	38.3826     	75.0000     	55.0000     	0.0000      	Open  	;
 2371            	162             	163             	20.1431     	75.0000     	55.0000     	0.0000      	Open  	;
 2372            	164             	165             	29.9005     	75.0000     	55.0000     	0.0000      	Open  	;
 2373            	165             	166             	22.2142     	75.0000     	55.0000     	0.0000      	Open  	;
 2374            	166             	167             	73.0655     	75.0000     	55.0000     	0.0000      	Open  	;
 2375            	152             	153             	4.0041      	150.0000    	125.0000    	0.0000      	Open  	;
 2376            	167             	168             	18.3870     	75.0000     	55.0000     	0.0000      	Open  	;
 2377            	176             	177             	6.9408      	60.0000     	122.0000    	0.0000      	Open  	;
 2378            	178             	176             	65.7617     	85.0000     	122.0000    	0.0000      	Open  	;
 2379            	179             	176             	49.8830     	60.0000     	122.0000    	0.0000      	Open  	;
 2380            	178             	180             	8.6274      	85.0000     	122.0000    	0.0000      	Open  	;
 2381            	181             	178             	50.3168     	85.0000     	122.0000    	0.0000      	Open  	;
 2382            	181             	182             	65.6316     	85.0000     	122.0000    	0.0000      	Open  	;
 2383            	235             	236             	2.0689      	110.0000    	122.0000    	0.0000      	Open  	;
 2384            	168             	161             	14.0465     	75.0000     	55.0000     	0.0000      	Open  	;
 2385            	150             	151             	156.7178    	200.0000    	135.0000    	0.0000      	Open  	;
 2386            	148             	149             	69.1050     	60.0000     	132.0000    	0.0000      	Open  	;
 2387            	149             	146             	85.0688     	85.0000     	132.0000    	0.0000      	Open  	;
 2388            	128             	127             	29.4167     	110.0000    	50.0000     	0.0000      	Open  	;
 2389            	129             	130             	28.4819     	110.0000    	132.0000    	0.0000      	Open  	;
 2390            	131             	132             	55.1924     	110.0000    	132.0000    	0.0000      	Open  	;
 2391            	133             	132             	41.8781     	110.0000    	132.0000    	0.0000      	Open  	;
 2392            	134             	135             	2.4510      	85.0000     	132.0000    	0.0000      	Open  	;
 2393            	136             	137             	16.6577     	85.0000     	122.0000    	0.0000      	Open  	;
 2394            	138             	139             	4.1109      	75.0000     	55.0000     	0.0000      	Open  	;
 2395            	140             	141             	50.1473     	85.0000     	132.0000    	0.0000      	Open  	;
 2396            	142             	143             	50.9858     	85.0000     	132.0000    	0.0000      	Open  	;
 2397            	140             	142             	69.4736     	85.0000     	132.0000    	0.0000      	Open  	;
 2398            	144             	142             	7.7055      	85.0000     	132.0000    	0.0000      	Open  	;
 2399            	144             	145             	69.0751     	60.0000     	132.0000    	0.0000      	Open  	;
 2400            	146             	144             	52.3705     	85.0000     	132.0000    	0.0000      	Open  	;
 2401            	145             	140             	9.5645      	85.0000     	132.0000    	0.0000      	Open  	;
 2402            	147             	145             	51.9922     	85.0000     	132.0000    	0.0000      	Open  	;
 2403            	146             	147             	68.7380     	60.0000     	132.0000    	0.0000      	Open  	;
 2404            	148             	147             	84.3523     	85.0000     	132.0000    	0.0000      	Open  	;
 2405            	549             	548             	97.0740     	60.0000     	132.0000    	0.0000      	Open  	;
 2406            	1045            	1046            	10.6434     	32.0000     	75.0000     	0.0000      	Open  	;
 2407            	550             	551             	65.9004     	110.0000    	132.0000    	0.0000      	Open  	;
 2408            	553             	554             	26.3453     	60.0000     	132.0000    	0.0000      	Open  	;
 2409            	385             	960             	4.3636      	110.0000    	122.0000    	0.0000      	Open  	;
 2410            	962             	963             	1.5334      	110.0000    	132.0000    	0.0000      	Open  	;
 2411            	964             	965             	1.9162      	110.0000    	132.0000    	0.0000      	Open  	;
 2412            	117             	972             	0.5144      	110.0000    	132.0000    	0.0000      	Open  	;
 2413            	973             	974             	4.2623      	85.0000     	132.0000    	0.0000      	Open  	;
 2414            	975             	976             	89.2628     	60.0000     	122.0000    	0.0000      	Open  	;
 2415            	842             	977             	3.0112      	110.0000    	132.0000    	0.0000      	Open  	;
 2416            	877             	869             	8.0030      	110.0000    	132.0000    	0.0000      	Open  	;
 2417            	978             	979             	30.5027     	85.0000     	122.0000    	0.0000      	Open  	;
 2418            	981             	982             	30.6179     	110.0000    	132.0000    	0.0000      	Open  	;
 2419            	546             	983             	37.4822     	85.0000     	132.0000    	0.0000      	Open  	;
 2420            	983             	984             	10.0276     	85.0000     	132.0000    	0.0000      	Open  	;
 2421            	988             	989             	20.2221     	60.0000     	132.0000    	0.0000      	Open  	;
 2422            	990             	838             	17.0087     	110.0000    	112.0000    	0.0000      	Open  	;
 2423            	991             	992             	4.3617      	85.0000     	122.0000    	0.0000      	Open  	;
 2424            	517             	496             	43.5434     	300.0000    	65.0000     	0.0000      	Open  	;
 2425            	980             	669             	9.8866      	110.0000    	122.0000    	0.0000      	Open  	;
 2426            	497             	362             	107.8681    	300.0000    	65.0000     	0.0000      	Open  	;
 2427            	875             	876             	1.6638      	150.0000    	125.0000    	0.0000      	Open  	;
 2428            	871             	872             	8.4017      	85.0000     	132.0000    	0.0000      	Open  	;
 2429            	847             	848             	2.9861      	60.0000     	132.0000    	0.0000      	Open  	;
 2430            	70              	856             	6.2425      	100.0000    	50.0000     	0.0000      	Open  	;
 2431            	545             	857             	11.9005     	60.0000     	132.0000    	0.0000      	Open  	;
 2432            	857             	858             	0.2246      	150.0000    	52.0000     	0.0000      	Open  	;
 2433            	858             	859             	6.1705      	60.0000     	132.0000    	0.0000      	Open  	;
 2434            	859             	860             	0.1467      	150.0000    	52.0000     	0.0000      	Open  	;
 2435            	860             	861             	20.9689     	60.0000     	132.0000    	0.0000      	Open  	;
 2436            	873             	874             	1.6077      	200.0000    	135.0000    	0.0000      	Open  	;
 2437            	862             	116             	6.4672      	85.0000     	132.0000    	0.0000      	Open  	;
 2438            	864             	865             	53.0567     	85.0000     	122.0000    	0.0000      	Open  	;
 2439            	866             	863             	51.2383     	85.0000     	122.0000    	0.0000      	Open  	;
 2440            	866             	865             	66.2683     	60.0000     	122.0000    	0.0000      	Open  	;
 2441            	867             	866             	7.1900      	85.0000     	122.0000    	0.0000      	Open  	;
 2442            	868             	865             	7.1076      	60.0000     	122.0000    	0.0000      	Open  	;
 2443            	867             	868             	65.3261     	85.0000     	122.0000    	0.0000      	Open  	;
 2444            	869             	870             	18.0003     	110.0000    	132.0000    	0.0000      	Open  	;
 2445            	863             	864             	65.5605     	85.0000     	122.0000    	0.0000      	Open  	;
 2446            	842             	844             	3.3127      	110.0000    	132.0000    	0.0000      	Open  	;
 2447            	997             	998             	63.6440     	250.0000    	55.0000     	0.0000      	Open  	;
 2448            	999             	1000            	2.3507      	250.0000    	55.0000     	0.0000      	Open  	;
 2449            	1027            	1026            	54.0965     	85.0000     	122.0000    	0.0000      	Open  	;
 2450            	1028            	1029            	82.1540     	85.0000     	122.0000    	0.0000      	Open  	;
 2451            	1023            	1030            	79.8958     	85.0000     	122.0000    	0.0000      	Open  	;
 2452            	1031            	592             	25.5000     	32.0000     	125.0000    	0.0000      	Open  	;
 2453            	1032            	1031            	27.0000     	32.0000     	125.0000    	0.0000      	Open  	;
 2454            	241             	1033            	29.9999     	32.0000     	125.0000    	0.0000      	Open  	;
 2455            	1033            	1032            	50.3001     	32.0000     	125.0000    	0.0000      	Open  	;
 2456            	1026            	1024            	105.1072    	85.0000     	122.0000    	0.0000      	Open  	;
 2457            	1034            	1035            	1.9258      	85.0000     	100.0000    	0.0000      	Open  	;
 2458            	1036            	242             	21.8447     	85.0000     	122.0000    	0.0000      	Open  	;
 2459            	1037            	1038            	99.9515     	85.0000     	122.0000    	0.0000      	Open  	;
 2460            	1027            	1039            	14.7367     	85.0000     	122.0000    	0.0000      	Open  	;
 2461            	377             	488             	175.5899    	250.0000    	65.0000     	0.0000      	Open  	;
 2462            	1040            	1041            	21.0974     	300.0000    	68.0000     	0.0000      	Open  	;
 2463            	1041            	1042            	3.2351      	300.0000    	68.0000     	0.0000      	Open  	;
 2464            	1043            	1044            	0.4111      	32.0000     	75.0000     	0.0000      	Open  	;
 2465            	1035            	1036            	11.1365     	85.0000     	122.0000    	0.0000      	Open  	;
 2466            	998             	999             	1.6052      	250.0000    	55.0000     	0.0000      	Open  	;
 2467            	1017            	1025            	117.5529    	60.0000     	122.0000    	0.0000      	Open  	;
 2468            	1022            	1023            	86.3445     	60.0000     	122.0000    	0.0000      	Open  	;
 2469            	1000            	1001            	0.8427      	250.0000    	55.0000     	0.0000      	Open  	;
 2470            	507             	1002            	8.2078      	250.0000    	55.0000     	0.0000      	Open  	;
 2471            	1003            	1004            	127.7796    	200.0000    	55.0000     	0.0000      	Open  	;
 2472            	525             	523             	44.2614     	60.0000     	122.0000    	0.0000      	Open  	;
 2473            	1005            	1006            	59.1204     	85.0000     	122.0000    	0.0000      	Open  	;
 2474            	1007            	1005            	27.3943     	85.0000     	122.0000    	0.0000      	Open  	;
 2475            	1008            	524             	39.7272     	85.0000     	122.0000    	0.0000      	Open  	;
 2476            	1024            	1015            	114.0673    	85.0000     	122.0000    	0.0000      	Open  	;
 2477            	1009            	1008            	126.1958    	85.0000     	122.0000    	0.0000      	Open  	;
 2478            	1011            	1010            	37.4943     	85.0000     	122.0000    	0.0000      	Open  	;
 2479            	1012            	1013            	26.5518     	85.0000     	122.0000    	0.0000      	Open  	;
 2480            	1014            	1006            	143.4921    	85.0000     	122.0000    	0.0000      	Open  	;
 2481            	1015            	1016            	13.5919     	85.0000     	122.0000    	0.0000      	Open  	;
 2482            	1017            	1018            	20.1003     	60.0000     	122.0000    	0.0000      	Open  	;
 2483            	1019            	1020            	164.1109    	85.0000     	122.0000    	0.0000      	Open  	;
 2484            	1021            	365             	141.5949    	85.0000     	122.0000    	0.0000      	Open  	;
 2485            	1010            	1009            	25.0701     	85.0000     	122.0000    	0.0000      	Open  	;
 2486            	664             	843             	3.5188      	110.0000    	132.0000    	0.0000      	Open  	;
 2487            	842             	663             	11.2791     	110.0000    	132.0000    	0.0000      	Open  	;
 2488            	840             	841             	3.5036      	85.0000     	132.0000    	0.0000      	Open  	;
 2489            	624             	625             	44.3775     	110.0000    	132.0000    	0.0000      	Open  	;
 2490            	637             	638             	160.7991    	60.0000     	132.0000    	0.0000      	Open  	;
 2491            	639             	640             	64.6865     	60.0000     	132.0000    	0.0000      	Open  	;
 2492            	641             	642             	5.5302      	110.0000    	122.0000    	0.0000      	Open  	;
 2493            	647             	648             	25.2677     	85.0000     	122.0000    	0.0000      	Open  	;
 2494            	649             	650             	32.0788     	85.0000     	132.0000    	0.0000      	Open  	;
 2495            	584             	651             	84.0065     	60.0000     	122.0000    	0.0000      	Open  	;
 2496            	623             	624             	11.1578     	60.0000     	132.0000    	0.0000      	Open  	;
 2497            	652             	653             	76.3316     	60.0000     	122.0000    	0.0000      	Open  	;
 2498            	662             	594             	60.0001     	32.0000     	125.0000    	0.0000      	Open  	;
 2499            	663             	664             	45.7466     	110.0000    	132.0000    	0.0000      	Open  	;
 2500            	665             	666             	23.6242     	110.0000    	132.0000    	0.0000      	Open  	;
 2501            	667             	668             	3.9566      	85.0000     	132.0000    	0.0000      	Open  	;
 2502            	105             	670             	25.1486     	110.0000    	122.0000    	0.0000      	Closed	;
 2503            	671             	672             	18.8188     	110.0000    	132.0000    	0.0000      	Open  	;
 2504            	674             	675             	30.7951     	85.0000     	132.0000    	0.0000      	Open  	;
 2505            	654             	655             	7.3249      	60.0000     	122.0000    	0.0000      	Open  	;
 2506            	678             	679             	90.0612     	60.0000     	132.0000    	0.0000      	Open  	;
 2507            	398             	623             	134.4647    	110.0000    	132.0000    	0.0000      	Open  	;
 2508            	613             	614             	118.6330    	85.0000     	132.0000    	0.0000      	Open  	;
 2509            	555             	556             	8.9315      	110.0000    	132.0000    	0.0000      	Open  	;
 2510            	556             	557             	1.7556      	110.0000    	132.0000    	0.0000      	Open  	;
 2511            	558             	559             	29.0617     	60.0000     	132.0000    	0.0000      	Open  	;
 2512            	559             	560             	39.1970     	60.0000     	132.0000    	0.0000      	Open  	;
 2513            	561             	562             	27.3634     	110.0000    	132.0000    	0.0000      	Open  	;
 2514            	563             	561             	10.9590     	110.0000    	132.0000    	0.0000      	Open  	;
 2515            	211             	583             	8.3294      	85.0000     	122.0000    	0.0000      	Open  	;
 2516            	621             	622             	34.9208     	60.0000     	132.0000    	0.0000      	Open  	;
 2517            	150             	121             	150.8840    	60.0000     	132.0000    	0.0000      	Open  	;
 2518            	586             	587             	70.3962     	85.0000     	122.0000    	0.0000      	Open  	;
 2519            	586             	588             	37.5914     	85.0000     	122.0000    	0.0000      	Open  	;
 2520            	589             	590             	63.5404     	85.0000     	122.0000    	0.0000      	Open  	;
 2521            	591             	236             	1.1046      	110.0000    	112.0000    	0.0000      	Open  	;
 2522            	592             	593             	60.0000     	32.0000     	125.0000    	0.0000      	Open  	;
 2523            	594             	595             	25.5000     	32.0000     	125.0000    	0.0000      	Open  	;
 2524            	605             	606             	14.2874     	60.0000     	132.0000    	0.0000      	Open  	;
 2525            	584             	585             	2.0000      	85.0000     	122.0000    	0.0000      	Open  	;
 2526            	680             	681             	2.0863      	85.0000     	132.0000    	0.0000      	Open  	;
 2527            	682             	683             	50.7158     	85.0000     	132.0000    	0.0000      	Open  	;
 2528            	684             	685             	41.6456     	85.0000     	122.0000    	0.0000      	Open  	;
 2529            	764             	765             	3.8123      	110.0000    	50.0000     	0.0000      	Open  	;
 2530            	766             	767             	2.8377      	85.0000     	50.0000     	0.0000      	Open  	;
 2531            	115             	759             	4.2319      	50.0000     	50.0000     	0.0000      	Open  	;
 2532            	347             	780             	21.1212     	100.0000    	50.0000     	0.0000      	Open  	;
 2533            	780             	781             	5.8396      	100.0000    	50.0000     	0.0000      	Open  	;
 2534            	781             	737             	64.9379     	100.0000    	50.0000     	0.0000      	Open  	;
 2535            	782             	680             	6.1351      	85.0000     	50.0000     	0.0000      	Open  	;
 2536            	511             	763             	11.5364     	75.0000     	65.0000     	0.0000      	Open  	;
 2537            	783             	784             	28.7796     	150.0000    	52.0000     	0.0000      	Open  	;
 2538            	786             	787             	3.7064      	110.0000    	50.0000     	0.0000      	Open  	;
 2539            	788             	789             	20.8105     	60.0000     	132.0000    	0.0000      	Open  	;
 2540            	344             	798             	90.6831     	100.0000    	50.0000     	0.0000      	Open  	;
 2541            	247             	799             	2.6243      	100.0000    	50.0000     	0.0000      	Open  	;
 2542            	378             	805             	0.0004      	200.0000    	55.0000     	0.0000      	Open  	;
 2543            	805             	806             	3.0592      	200.0000    	55.0000     	0.0000      	Open  	;
 2544            	837             	838             	9.9647      	110.0000    	112.0000    	0.0000      	Open  	;
 2545            	530             	785             	77.8233     	150.0000    	52.0000     	0.0000      	Open  	;
 2546            	761             	762             	8.6308      	150.0000    	52.0000     	0.0000      	Open  	;
 2547            	759             	760             	1.6950      	50.0000     	50.0000     	0.0000      	Open  	;
 2548            	114             	758             	0.4911      	75.0000     	55.0000     	0.0000      	Open  	;
 2549            	463             	308             	104.7084    	110.0000    	132.0000    	0.0000      	Open  	;
 2550            	686             	687             	4.2937      	85.0000     	122.0000    	0.0000      	Open  	;
 2551            	693             	695             	2.5355      	85.0000     	122.0000    	0.0000      	Open  	;
 2553            	699             	700             	22.4519     	60.0000     	132.0000    	0.0000      	Open  	;
 2554            	701             	702             	3.4124      	150.0000    	135.0000    	0.0000      	Open  	;
 2555            	702             	703             	0.4116      	150.0000    	135.0000    	0.0000      	Open  	;
 2556            	703             	704             	20.3414     	150.0000    	135.0000    	0.0000      	Open  	;
 2557            	705             	706             	10.7190     	250.0000    	55.0000     	0.0000      	Open  	;
 2558            	706             	707             	11.9652     	250.0000    	55.0000     	0.0000      	Open  	;
 2559            	708             	709             	5.1102      	85.0000     	122.0000    	0.0000      	Open  	;
 2560            	642             	710             	91.9375     	150.0000    	125.0000    	0.0000      	Open  	;
 2561            	711             	712             	37.7145     	200.0000    	54.0000     	0.0000      	Open  	;
 2562            	109             	713             	90.8609     	200.0000    	135.0000    	0.0000      	Open  	;
 2563            	736             	737             	5.2702      	100.0000    	50.0000     	0.0000      	Open  	;
 2564            	263             	746             	5.8873      	110.0000    	132.0000    	0.0000      	Open  	;
 2565            	752             	753             	51.9259     	60.0000     	122.0000    	0.0000      	Open  	;
 2566            	552             	553             	37.2734     	60.0000     	132.0000    	0.0000      	Open  	;
 2567            	1988            	1986            	119.6320    	60.0000     	132.0000    	0.0000      	Open  	;
 2568            	649             	1389            	73.9344     	85.0000     	132.0000    	0.0000      	Open  	;
 2569            	1389            	1391            	51.0159     	85.0000     	132.0000    	0.0000      	Open  	;
 2570            	1686            	1828            	63.7842     	85.0000     	122.0000    	0.0000      	Open  	;
 2571            	1688            	1829            	27.2547     	85.0000     	122.0000    	0.0000      	Open  	;
 2572            	1690            	1829            	52.1693     	60.0000     	122.0000    	0.0000      	Open  	;
 2573            	1830            	1831            	17.1916     	85.0000     	122.0000    	0.0000      	Open  	;
 2574            	1830            	1832            	23.8134     	85.0000     	122.0000    	0.0000      	Open  	;
 2575            	1801            	1833            	2.3001      	85.0000     	122.0000    	0.0000      	Open  	;
 2576            	1834            	1801            	158.6614    	85.0000     	122.0000    	0.0000      	Open  	;
 2577            	1685            	1827            	46.8836     	85.0000     	122.0000    	0.0000      	Open  	;
 2578            	1829            	1828            	6.3169      	85.0000     	122.0000    	0.0000      	Open  	;
 2579            	480             	1837            	3.2052      	85.0000     	122.0000    	0.0000      	Open  	;
 2580            	1503            	670             	44.7342     	60.0000     	132.0000    	0.0000      	Open  	;
 2581            	1838            	1839            	17.6914     	60.0000     	122.0000    	0.0000      	Open  	;
 2582            	1839            	1840            	19.8527     	110.0000    	122.0000    	0.0000      	Open  	;
 2583            	1841            	1839            	26.0849     	110.0000    	122.0000    	0.0000      	Open  	;
 2584            	1835            	1842            	23.8454     	85.0000     	122.0000    	0.0000      	Open  	;
 2585            	1843            	1844            	41.9983     	150.0000    	125.0000    	0.0000      	Open  	;
 2586            	1835            	1836            	13.2068     	85.0000     	122.0000    	0.0000      	Open  	;
 2587            	1845            	1843            	203.9676    	150.0000    	125.0000    	0.0000      	Open  	;
 2588            	1826            	235             	63.4055     	110.0000    	122.0000    	0.0000      	Open  	;
 2589            	1824            	1112            	32.6314     	85.0000     	122.0000    	0.0000      	Open  	;
 2590            	1813            	1814            	10.3976     	85.0000     	122.0000    	0.0000      	Open  	;
 2591            	1105            	154             	25.2261     	60.0000     	122.0000    	0.0000      	Open  	;
 2592            	1656            	1800            	79.8134     	200.0000    	135.0000    	0.0000      	Open  	;
 2593            	1665            	1815            	68.0437     	60.0000     	122.0000    	0.0000      	Open  	;
 2594            	1816            	1666            	4.8021      	85.0000     	122.0000    	0.0000      	Open  	;
 2595            	1817            	1673            	6.5025      	85.0000     	122.0000    	0.0000      	Open  	;
 2596            	753             	1814            	13.1816     	60.0000     	122.0000    	0.0000      	Open  	;
 2597            	1825            	591             	7.6387      	110.0000    	112.0000    	0.0000      	Open  	;
 2598            	1675            	1813            	33.2810     	85.0000     	122.0000    	0.0000      	Open  	;
 2599            	1819            	1676            	33.4274     	60.0000     	122.0000    	0.0000      	Open  	;
 2602            	1822            	1677            	131.5744    	60.0000     	122.0000    	0.0000      	Open  	;
 2603            	1784            	1679            	94.0450     	85.0000     	122.0000    	0.0000      	Open  	;
 2604            	1809            	1107            	181.6429    	85.0000     	122.0000    	0.0000      	Open  	;
 2605            	1823            	1110            	67.4161     	60.0000     	122.0000    	0.0000      	Open  	;
 2606            	1802            	1818            	8.0576      	85.0000     	122.0000    	0.0000      	Open  	;
 2607            	1812            	1810            	74.0404     	200.0000    	125.0000    	0.0000      	Open  	;
 2608            	1846            	1845            	10.0471     	200.0000    	125.0000    	0.0000      	Open  	;
 2609            	1815            	654             	28.6012     	60.0000     	122.0000    	0.0000      	Open  	;
 2611            	1860            	1503            	5.7576      	60.0000     	132.0000    	0.0000      	Open  	;
 2612            	1861            	1862            	23.5158     	85.0000     	122.0000    	0.0000      	Open  	;
 2613            	589             	1837            	55.1083     	85.0000     	122.0000    	0.0000      	Open  	;
 2614            	1823            	589             	6.8836      	85.0000     	122.0000    	0.0000      	Open  	;
 2615            	1863            	1823            	52.9822     	85.0000     	122.0000    	0.0000      	Open  	;
 2616            	1841            	1825            	64.9880     	110.0000    	122.0000    	0.0000      	Open  	;
 2617            	1858            	1859            	0.6121      	60.0000     	122.0000    	0.0000      	Open  	;
 2618            	1864            	1838            	76.8270     	60.0000     	122.0000    	0.0000      	Open  	;
 2619            	980             	1840            	76.6802     	110.0000    	122.0000    	0.0000      	Open  	;
 2620            	1841            	1826            	8.4979      	60.0000     	122.0000    	0.0000      	Open  	;
 2621            	1865            	1866            	76.4338     	60.0000     	122.0000    	0.0000      	Open  	;
 2622            	1803            	1867            	76.4144     	85.0000     	122.0000    	0.0000      	Open  	;
 2623            	1866            	1867            	7.6249      	85.0000     	122.0000    	0.0000      	Open  	;
 2624            	1868            	1866            	50.7991     	85.0000     	122.0000    	0.0000      	Open  	;
 2625            	1865            	1803            	8.4893      	85.0000     	122.0000    	0.0000      	Open  	;
 2626            	980             	1864            	37.9961     	110.0000    	122.0000    	0.0000      	Open  	;
 2627            	1847            	1845            	110.5786    	250.0000    	125.0000    	0.0000      	Open  	;
 2628            	1788            	1858            	0.3828      	60.0000     	122.0000    	0.0000      	Open  	;
 2629            	1856            	1857            	51.6689     	60.0000     	122.0000    	0.0000      	Open  	;
 2630            	1848            	1847            	64.8953     	250.0000    	125.0000    	0.0000      	Open  	;
 2631            	1849            	837             	20.5062     	110.0000    	112.0000    	0.0000      	Open  	;
 2632            	1781            	1815            	5.0384      	60.0000     	122.0000    	0.0000      	Open  	;
 2633            	1850            	1816            	49.0145     	85.0000     	122.0000    	0.0000      	Open  	;
 2634            	1783            	1816            	70.5375     	60.0000     	122.0000    	0.0000      	Open  	;
 2635            	1836            	1850            	76.4344     	85.0000     	122.0000    	0.0000      	Open  	;
 2636            	1835            	1851            	37.3593     	60.0000     	122.0000    	0.0000      	Open  	;
 2637            	1857            	1788            	0.7123      	60.0000     	122.0000    	0.0000      	Open  	;
 2638            	1852            	1813            	51.3757     	85.0000     	122.0000    	0.0000      	Open  	;
 2639            	1819            	1852            	65.1578     	60.0000     	122.0000    	0.0000      	Open  	;
 2640            	1854            	1819            	8.0176      	60.0000     	122.0000    	0.0000      	Open  	;
 2641            	1854            	1842            	51.8315     	60.0000     	122.0000    	0.0000      	Open  	;
 2642            	1853            	1854            	65.3588     	85.0000     	122.0000    	0.0000      	Open  	;
 2643            	1842            	1855            	65.0835     	85.0000     	122.0000    	0.0000      	Open  	;
 2644            	1855            	1853            	51.5134     	85.0000     	122.0000    	0.0000      	Open  	;
 2645            	1820            	1856            	3.0516      	60.0000     	122.0000    	0.0000      	Open  	;
 2646            	1853            	1852            	7.6728      	85.0000     	122.0000    	0.0000      	Open  	;
 2647            	1810            	1811            	31.7668     	200.0000    	125.0000    	0.0000      	Open  	;
 2648            	1809            	1808            	7.4968      	60.0000     	122.0000    	0.0000      	Open  	;
 2649            	1808            	1806            	11.9267     	60.0000     	122.0000    	0.0000      	Open  	;
 2650            	1748            	1750            	7.8761      	85.0000     	132.0000    	0.0000      	Open  	;
 2651            	1748            	1746            	52.5114     	85.0000     	132.0000    	0.0000      	Open  	;
 2652            	1744            	1746            	9.0834      	85.0000     	132.0000    	0.0000      	Open  	;
 2653            	1744            	1742            	49.5353     	85.0000     	132.0000    	0.0000      	Open  	;
 2654            	1740            	1742            	8.5861      	85.0000     	132.0000    	0.0000      	Open  	;
 2655            	1681            	1740            	11.4288     	85.0000     	132.0000    	0.0000      	Open  	;
 2656            	584             	1682            	85.0598     	85.0000     	122.0000    	0.0000      	Open  	;
 2657            	1750            	1752            	50.5094     	85.0000     	132.0000    	0.0000      	Open  	;
 2658            	1708            	585             	204.6326    	85.0000     	122.0000    	0.0000      	Open  	;
 2659            	1682            	1764            	209.6019    	85.0000     	132.0000    	0.0000      	Open  	;
 2660            	1689            	1684            	6.0872      	85.0000     	122.0000    	0.0000      	Open  	;
 2661            	1765            	1689            	50.9927     	85.0000     	122.0000    	0.0000      	Open  	;
 2662            	1765            	1766            	3.1861      	85.0000     	122.0000    	0.0000      	Open  	;
 2663            	1766            	1687            	75.2095     	85.0000     	122.0000    	0.0000      	Open  	;
 2664            	1767            	1768            	75.2246     	60.0000     	122.0000    	0.0000      	Open  	;
 2665            	1768            	1687            	8.5252      	85.0000     	122.0000    	0.0000      	Open  	;
 2666            	1764            	1709            	25.2274     	85.0000     	132.0000    	0.0000      	Open  	;
 2667            	1769            	1768            	50.1512     	85.0000     	122.0000    	0.0000      	Open  	;
 2668            	1752            	1754            	7.5760      	85.0000     	132.0000    	0.0000      	Open  	;
 2669            	1758            	1760            	52.2334     	85.0000     	132.0000    	0.0000      	Open  	;
 2670            	1751            	1749            	52.8752     	60.0000     	132.0000    	0.0000      	Open  	;
 2671            	1751            	1752            	84.9743     	60.0000     	132.0000    	0.0000      	Open  	;
 2672            	1753            	1754            	84.8807     	85.0000     	132.0000    	0.0000      	Open  	;
 2673            	1753            	1751            	7.4995      	60.0000     	132.0000    	0.0000      	Open  	;
 2674            	1753            	1755            	51.9391     	60.0000     	132.0000    	0.0000      	Open  	;
 2675            	1755            	1756            	83.8281     	60.0000     	132.0000    	0.0000      	Open  	;
 2676            	1757            	1758            	83.5697     	85.0000     	132.0000    	0.0000      	Open  	;
 2677            	2886            	2887            	29.8903     	63.0000     	130.0000    	0.0000      	Open  	;
 2678            	1755            	1757            	7.0321      	60.0000     	132.0000    	0.0000      	Open  	;
 2679            	1759            	1760            	82.8805     	60.0000     	132.0000    	0.0000      	Open  	;
 2680            	1761            	1762            	83.6281     	85.0000     	132.0000    	0.0000      	Open  	;
 2681            	1761            	1759            	5.3463      	60.0000     	132.0000    	0.0000      	Open  	;
 2682            	1646            	1761            	54.2456     	60.0000     	132.0000    	0.0000      	Open  	;
 2683            	1763            	1646            	81.8490     	85.0000     	132.0000    	0.0000      	Open  	;
 2684            	1762            	1763            	53.1628     	85.0000     	132.0000    	0.0000      	Open  	;
 2685            	1760            	1762            	6.9803      	85.0000     	132.0000    	0.0000      	Open  	;
 2686            	1759            	1757            	52.4606     	60.0000     	132.0000    	0.0000      	Open  	;
 2687            	1770            	1765            	8.5218      	85.0000     	122.0000    	0.0000      	Open  	;
 2688            	1707            	1770            	48.9118     	85.0000     	122.0000    	0.0000      	Open  	;
 2689            	706             	1769            	75.6345     	60.0000     	122.0000    	0.0000      	Open  	;
 2690            	1786            	1787            	3.8001      	85.0000     	122.0000    	0.0000      	Open  	;
 2691            	1787            	693             	2.7980      	85.0000     	122.0000    	0.0000      	Open  	;
 2693            	1789            	1790            	1.7970      	85.0000     	122.0000    	0.0000      	Open  	;
 2694            	1790            	1791            	2.7050      	85.0000     	122.0000    	0.0000      	Open  	;
 2695            	1792            	1787            	0.9992      	85.0000     	122.0000    	0.0000      	Open  	;
 2696            	1793            	1789            	2.6039      	85.0000     	122.0000    	0.0000      	Open  	;
 2697            	1784            	1785            	1.5770      	85.0000     	122.0000    	0.0000      	Open  	;
 2698            	1794            	1795            	6.9019      	85.0000     	122.0000    	0.0000      	Open  	;
 2699            	1797            	1798            	0.5738      	85.0000     	122.0000    	0.0000      	Open  	;
 2700            	1796            	1799            	11.0658     	60.0000     	122.0000    	0.0000      	Open  	;
 2701            	1800            	1101            	37.8652     	85.0000     	132.0000    	0.0000      	Open  	;
 2702            	1801            	1802            	1.5036      	85.0000     	122.0000    	0.0000      	Open  	;
 2703            	1803            	1804            	23.7233     	85.0000     	122.0000    	0.0000      	Open  	;
 2704            	838             	1805            	3.7919      	110.0000    	112.0000    	0.0000      	Open  	;
 2705            	1806            	1807            	1.0912      	60.0000     	122.0000    	0.0000      	Open  	;
 2706            	1795            	1796            	59.8556     	85.0000     	122.0000    	0.0000      	Open  	;
 2707            	1783            	1782            	2.8053      	60.0000     	122.0000    	0.0000      	Open  	;
 2708            	1781            	1782            	6.0068      	60.0000     	122.0000    	0.0000      	Open  	;
 2709            	708             	1780            	68.0769     	85.0000     	122.0000    	0.0000      	Open  	;
 2710            	1769            	1771            	10.3591     	85.0000     	122.0000    	0.0000      	Open  	;
 2711            	1771            	1772            	316.1921    	85.0000     	122.0000    	0.0000      	Open  	;
 2712            	1773            	1772            	51.5448     	85.0000     	122.0000    	0.0000      	Open  	;
 2713            	1772            	1706            	78.4938     	60.0000     	122.0000    	0.0000      	Open  	;
 2714            	1774            	1706            	50.3545     	85.0000     	122.0000    	0.0000      	Open  	;
 2715            	1774            	1773            	78.1648     	85.0000     	122.0000    	0.0000      	Open  	;
 2716            	1775            	1773            	7.3726      	85.0000     	122.0000    	0.0000      	Open  	;
 2717            	1776            	1774            	7.8525      	85.0000     	122.0000    	0.0000      	Open  	;
 2718            	1776            	1775            	78.3490     	60.0000     	122.0000    	0.0000      	Open  	;
 2719            	1776            	1777            	50.9406     	85.0000     	122.0000    	0.0000      	Open  	;
 2720            	1778            	1775            	51.3267     	85.0000     	122.0000    	0.0000      	Open  	;
 2721            	1777            	1778            	78.1368     	85.0000     	122.0000    	0.0000      	Open  	;
 2722            	1692            	1778            	7.9561      	85.0000     	122.0000    	0.0000      	Open  	;
 2723            	1779            	1777            	8.4162      	85.0000     	122.0000    	0.0000      	Open  	;
 2724            	1693            	1780            	37.3960     	85.0000     	122.0000    	0.0000      	Open  	;
 2725            	1779            	1692            	78.0477     	60.0000     	122.0000    	0.0000      	Open  	;
 2726            	1779            	1683            	52.3283     	85.0000     	122.0000    	0.0000      	Open  	;
 2727            	1869            	1865            	51.7105     	85.0000     	122.0000    	0.0000      	Open  	;
 2728            	1749            	1747            	6.1032      	60.0000     	132.0000    	0.0000      	Open  	;
 2729            	1869            	1868            	76.5294     	85.0000     	122.0000    	0.0000      	Open  	;
 2730            	1870            	1868            	7.2315      	85.0000     	122.0000    	0.0000      	Open  	;
 2731            	1935            	1936            	42.2635     	85.0000     	122.0000    	0.0000      	Open  	;
 2732            	1937            	864             	23.3681     	85.0000     	122.0000    	0.0000      	Open  	;
 2733            	1924            	179             	23.7352     	85.0000     	122.0000    	0.0000      	Open  	;
 2734            	1937            	1926            	50.8040     	60.0000     	122.0000    	0.0000      	Open  	;
 2735            	1927            	1926            	7.4492      	60.0000     	122.0000    	0.0000      	Open  	;
 2736            	1938            	1923            	49.1489     	60.0000     	122.0000    	0.0000      	Open  	;
 2737            	1939            	1938            	9.0261      	60.0000     	122.0000    	0.0000      	Open  	;
 2738            	1933            	1934            	4.7934      	100.0000    	55.0000     	0.0000      	Open  	;
 2739            	1940            	1922            	128.1625    	110.0000    	122.0000    	0.0000      	Open  	;
 2740            	1942            	1935            	8.9104      	85.0000     	122.0000    	0.0000      	Open  	;
 2741            	1935            	1938            	64.9075     	60.0000     	122.0000    	0.0000      	Open  	;
 2742            	1942            	1939            	64.7363     	85.0000     	122.0000    	0.0000      	Open  	;
 2743            	177             	1939            	51.7230     	60.0000     	122.0000    	0.0000      	Open  	;
 2744            	180             	1942            	51.4512     	85.0000     	122.0000    	0.0000      	Open  	;
 2745            	180             	177             	65.2707     	60.0000     	122.0000    	0.0000      	Open  	;
 2746            	1928            	1929            	84.5625     	85.0000     	122.0000    	0.0000      	Open  	;
 2747            	1941            	1923            	65.3881     	85.0000     	122.0000    	0.0000      	Open  	;
 2748            	1943            	1944            	2.8879      	300.0000    	55.0000     	0.0000      	Open  	;
 2749            	1928            	1932            	52.7480     	85.0000     	122.0000    	0.0000      	Open  	;
 2750            	1921            	1931            	8.3939      	85.0000     	132.0000    	0.0000      	Open  	;
 2751            	179             	182             	2.4972      	85.0000     	122.0000    	0.0000      	Open  	;
 2752            	1920            	1921            	25.4371     	85.0000     	132.0000    	0.0000      	Closed	;
 2753            	1922            	1651            	57.5557     	110.0000    	122.0000    	0.0000      	Open  	;
 2754            	1358            	1923            	1.7426      	85.0000     	122.0000    	0.0000      	Open  	;
 2755            	587             	1359            	46.7265     	85.0000     	122.0000    	0.0000      	Open  	;
 2756            	588             	1924            	38.4646     	85.0000     	122.0000    	0.0000      	Open  	;
 2757            	1924            	1361            	158.4404    	60.0000     	122.0000    	0.0000      	Open  	;
 2758            	1932            	867             	1.4006      	85.0000     	122.0000    	0.0000      	Open  	;
 2759            	685             	1925            	33.0957     	85.0000     	122.0000    	0.0000      	Open  	;
 2760            	1927            	1659            	4.4310      	60.0000     	122.0000    	0.0000      	Open  	;
 2761            	1662            	1927            	8.0759      	60.0000     	122.0000    	0.0000      	Open  	;
 2762            	1668            	868             	50.1207     	60.0000     	122.0000    	0.0000      	Open  	;
 2763            	1928            	1667            	65.3025     	60.0000     	122.0000    	0.0000      	Open  	;
 2764            	1670            	1929            	18.8266     	60.0000     	122.0000    	0.0000      	Open  	;
 2765            	1672            	1929            	35.2266     	85.0000     	122.0000    	0.0000      	Open  	;
 2766            	650             	1930            	16.2161     	85.0000     	132.0000    	0.0000      	Open  	;
 2767            	1658            	1926            	7.5294      	60.0000     	122.0000    	0.0000      	Open  	;
 2768            	1828            	1919            	53.8130     	85.0000     	122.0000    	0.0000      	Open  	;
 2769            	494             	1945            	138.6368    	200.0000    	55.0000     	0.0000      	Open  	;
 2770            	1947            	1730            	1.1741      	250.0000    	55.0000     	0.0000      	Open  	;
 2772            	1961            	1962            	0.3861      	200.0000    	55.0000     	0.0000      	Open  	;
 2773            	1962            	1910            	23.4367     	200.0000    	55.0000     	0.0000      	Open  	;
 2774            	1910            	1963            	3.0889      	200.0000    	55.0000     	0.0000      	Open  	;
 2775            	1333            	1964            	1.6248      	85.0000     	132.0000    	0.0000      	Open  	;
 2776            	1966            	1967            	25.8287     	32.0000     	135.0000    	0.0000      	Open  	;
 2777            	1967            	1968            	13.5410     	32.0000     	135.0000    	0.0000      	Open  	;
 2779            	1968            	1969            	18.2656     	32.0000     	135.0000    	0.0000      	Open  	;
 2780            	1590            	1971            	1.5948      	110.0000    	132.0000    	0.0000      	Open  	;
 2781            	363             	1972            	21.3538     	300.0000    	65.0000     	0.0000      	Open  	;
 2782            	614             	1981            	2.7202      	60.0000     	132.0000    	0.0000      	Open  	;
 2783            	308             	1982            	4.6367      	110.0000    	132.0000    	0.0000      	Open  	;
 2784            	624             	1983            	2.3747      	60.0000     	132.0000    	0.0000      	Open  	;
 2785            	625             	1984            	2.5847      	60.0000     	132.0000    	0.0000      	Open  	;
 2786            	1985            	1986            	25.4142     	60.0000     	132.0000    	0.0000      	Open  	;
 2787            	1969            	1970            	16.7673     	32.0000     	135.0000    	0.0000      	Open  	;
 2788            	1946            	386             	57.1131     	250.0000    	55.0000     	0.0000      	Open  	;
 2790            	647             	1959            	1.6316      	85.0000     	122.0000    	0.0000      	Open  	;
 2791            	1730            	1654            	13.8773     	250.0000    	55.0000     	0.0000      	Open  	;
 2792            	1948            	1949            	1.3148      	200.0000    	55.0000     	0.0000      	Open  	;
 2793            	1003            	1805            	112.5787    	200.0000    	55.0000     	0.0000      	Open  	;
 2794            	1002            	1916            	0.9601      	250.0000    	55.0000     	0.0000      	Open  	;
 2795            	1916            	1913            	7.8684      	250.0000    	55.0000     	0.0000      	Open  	;
 2796            	1913            	1914            	0.0001      	250.0000    	55.0000     	0.0000      	Open  	;
 2797            	1914            	1950            	31.9020     	250.0000    	55.0000     	0.0000      	Open  	;
 2798            	1949            	1960            	69.9570     	250.0000    	55.0000     	0.0000      	Open  	;
 2799            	1951            	1948            	80.1599     	250.0000    	55.0000     	0.0000      	Open  	;
 2800            	1681            	1953            	1.6310      	85.0000     	132.0000    	0.0000      	Open  	;
 2801            	1653            	1954            	1.6387      	250.0000    	125.0000    	0.0000      	Open  	;
 2802            	806             	694             	49.0050     	200.0000    	55.0000     	0.0000      	Open  	;
 2803            	694             	1955            	3.5983      	200.0000    	55.0000     	0.0000      	Open  	;
 2804            	1955            	1956            	12.7512     	200.0000    	55.0000     	0.0000      	Open  	;
 2805            	1922            	1957            	1.6441      	110.0000    	122.0000    	0.0000      	Open  	;
 2806            	151             	1958            	1.6319      	200.0000    	135.0000    	0.0000      	Open  	;
 2807            	1709            	1952            	1.6078      	85.0000     	132.0000    	0.0000      	Open  	;
 2808            	505             	1919            	74.9188     	60.0000     	122.0000    	0.0000      	Open  	;
 2809            	1827            	505             	3.2924      	60.0000     	122.0000    	0.0000      	Open  	;
 2810            	1919            	1918            	7.1469      	85.0000     	122.0000    	0.0000      	Open  	;
 2811            	1883            	1881            	7.0777      	85.0000     	122.0000    	0.0000      	Open  	;
 2812            	1884            	1882            	52.6928     	85.0000     	112.0000    	0.0000      	Open  	;
 2813            	1883            	1882            	64.7780     	60.0000     	122.0000    	0.0000      	Open  	;
 2814            	1804            	1885            	39.2542     	85.0000     	122.0000    	0.0000      	Open  	;
 2815            	1885            	1884            	65.6133     	85.0000     	122.0000    	0.0000      	Open  	;
 2816            	1886            	1885            	7.1420      	85.0000     	122.0000    	0.0000      	Open  	;
 2817            	1887            	1884            	7.0924      	85.0000     	112.0000    	0.0000      	Open  	;
 2818            	1882            	1849            	7.9653      	85.0000     	112.0000    	0.0000      	Open  	;
 2819            	1886            	1887            	65.5259     	60.0000     	122.0000    	0.0000      	Open  	;
 2820            	1889            	1887            	51.4061     	85.0000     	112.0000    	0.0000      	Open  	;
 2821            	1888            	1889            	65.7120     	85.0000     	122.0000    	0.0000      	Open  	;
 2822            	1890            	1889            	8.6554      	85.0000     	112.0000    	0.0000      	Open  	;
 2823            	1891            	1888            	7.5181      	85.0000     	122.0000    	0.0000      	Open  	;
 2824            	1891            	1890            	64.9907     	60.0000     	122.0000    	0.0000      	Open  	;
 2825            	1892            	1890            	51.3219     	85.0000     	122.0000    	0.0000      	Open  	;
 2826            	1893            	1891            	52.3650     	85.0000     	122.0000    	0.0000      	Open  	;
 2827            	1888            	1886            	51.8405     	85.0000     	122.0000    	0.0000      	Open  	;
 2828            	1894            	1893            	86.6199     	85.0000     	122.0000    	0.0000      	Open  	;
 2829            	1881            	1849            	65.0984     	85.0000     	122.0000    	0.0000      	Open  	;
 2830            	1880            	1832            	161.2258    	85.0000     	122.0000    	0.0000      	Open  	;
 2831            	1872            	1870            	53.0085     	85.0000     	122.0000    	0.0000      	Open  	;
 2832            	1871            	1869            	6.4542      	85.0000     	122.0000    	0.0000      	Open  	;
 2833            	1873            	1871            	52.2500     	85.0000     	122.0000    	0.0000      	Open  	;
 2834            	1873            	1872            	76.3738     	85.0000     	122.0000    	0.0000      	Open  	;
 2835            	1874            	1875            	76.6222     	60.0000     	122.0000    	0.0000      	Open  	;
 2836            	1875            	1872            	5.5898      	85.0000     	122.0000    	0.0000      	Open  	;
 2837            	1876            	1875            	54.1585     	85.0000     	122.0000    	0.0000      	Open  	;
 2838            	1832            	1834            	76.2822     	85.0000     	122.0000    	0.0000      	Open  	;
 2839            	1874            	1873            	7.1911      	85.0000     	122.0000    	0.0000      	Open  	;
 2840            	1877            	1876            	76.6089     	85.0000     	122.0000    	0.0000      	Open  	;
 2841            	1878            	1879            	76.5876     	60.0000     	122.0000    	0.0000      	Open  	;
 2842            	1878            	1876            	6.4717      	85.0000     	122.0000    	0.0000      	Open  	;
 2843            	1833            	1878            	51.5399     	85.0000     	122.0000    	0.0000      	Open  	;
 2844            	1879            	1877            	7.0751      	85.0000     	122.0000    	0.0000      	Open  	;
 2845            	1880            	1879            	50.7930     	85.0000     	122.0000    	0.0000      	Open  	;
 2846            	1880            	1833            	75.9032     	60.0000     	122.0000    	0.0000      	Open  	;
 2847            	1877            	1874            	52.3820     	85.0000     	122.0000    	0.0000      	Open  	;
 2848            	1893            	1892            	64.9854     	60.0000     	122.0000    	0.0000      	Open  	;
 2849            	478             	1892            	6.0048      	85.0000     	122.0000    	0.0000      	Open  	;
 2850            	1895            	478             	82.1083     	85.0000     	122.0000    	0.0000      	Open  	;
 2851            	1906            	992             	188.2737    	85.0000     	122.0000    	0.0000      	Open  	;
 2852            	1861            	992             	78.0856     	85.0000     	122.0000    	0.0000      	Open  	;
 2853            	1907            	1908            	77.8881     	85.0000     	122.0000    	0.0000      	Open  	;
 2854            	1909            	1910            	31.8617     	75.0000     	55.0000     	0.0000      	Open  	;
 2855            	1910            	1907            	20.6590     	75.0000     	55.0000     	0.0000      	Open  	;
 2856            	1911            	1908            	52.4328     	85.0000     	122.0000    	0.0000      	Open  	;
 2857            	1912            	1911            	6.7215      	85.0000     	122.0000    	0.0000      	Open  	;
 2858            	1906            	1863            	7.3983      	85.0000     	122.0000    	0.0000      	Open  	;
 2859            	1913            	1914            	0.0001      	75.0000     	55.0000     	0.0000      	Open  	;
 2860            	1915            	1909            	7.9384      	75.0000     	55.0000     	0.0000      	Open  	;
 2861            	1912            	1916            	74.6354     	60.0000     	122.0000    	0.0000      	Open  	;
 2862            	1917            	1915            	50.5345     	85.0000     	122.0000    	0.0000      	Open  	;
 2863            	1918            	1912            	52.3163     	85.0000     	122.0000    	0.0000      	Open  	;
 2864            	1917            	506             	3.3408      	85.0000     	122.0000    	0.0000      	Open  	;
 2865            	506             	1918            	74.9039     	85.0000     	122.0000    	0.0000      	Open  	;
 2866            	1827            	1917            	7.0632      	85.0000     	122.0000    	0.0000      	Open  	;
 2867            	1914            	1911            	74.5978     	75.0000     	55.0000     	0.0000      	Open  	;
 2868            	1905            	1906            	78.1912     	60.0000     	122.0000    	0.0000      	Open  	;
 2869            	1905            	1861            	188.0224    	85.0000     	122.0000    	0.0000      	Open  	;
 2870            	1905            	1824            	8.3049      	85.0000     	122.0000    	0.0000      	Open  	;
 2871            	1896            	1894            	53.2448     	85.0000     	122.0000    	0.0000      	Open  	;
 2872            	1895            	1894            	64.9412     	60.0000     	122.0000    	0.0000      	Open  	;
 2873            	1897            	1895            	50.0816     	85.0000     	122.0000    	0.0000      	Open  	;
 2874            	1897            	1896            	65.2691     	85.0000     	122.0000    	0.0000      	Open  	;
 2875            	1898            	1899            	64.3188     	60.0000     	122.0000    	0.0000      	Open  	;
 2876            	1899            	1896            	5.6905      	85.0000     	122.0000    	0.0000      	Open  	;
 2877            	1900            	1899            	52.1024     	85.0000     	122.0000    	0.0000      	Open  	;
 2878            	1897            	1898            	7.8755      	85.0000     	122.0000    	0.0000      	Open  	;
 2879            	1901            	1898            	51.7832     	85.0000     	122.0000    	0.0000      	Open  	;
 2880            	1900            	1901            	64.6995     	85.0000     	122.0000    	0.0000      	Open  	;
 2881            	1902            	1900            	6.7273      	85.0000     	122.0000    	0.0000      	Open  	;
 2882            	1903            	1901            	8.0056      	85.0000     	122.0000    	0.0000      	Open  	;
 2883            	1902            	1903            	64.8100     	60.0000     	122.0000    	0.0000      	Open  	;
 2884            	1830            	1902            	35.0010     	85.0000     	122.0000    	0.0000      	Open  	;
 2885            	1904            	1831            	64.5474     	85.0000     	122.0000    	0.0000      	Open  	;
 2886            	1904            	1903            	51.3343     	85.0000     	122.0000    	0.0000      	Open  	;
 2887            	1824            	1863            	78.1351     	85.0000     	122.0000    	0.0000      	Open  	;
 2888            	1870            	1871            	76.5555     	60.0000     	122.0000    	0.0000      	Open  	;
 2889            	1390            	649             	11.1794     	85.0000     	132.0000    	0.0000      	Open  	;
 2890            	1749            	1750            	85.9734     	85.0000     	132.0000    	0.0000      	Open  	;
 2891            	1747            	1745            	52.6863     	60.0000     	132.0000    	0.0000      	Open  	;
 2892            	1545            	1546            	20.5307     	300.0000    	68.0000     	0.0000      	Open  	;
 2893            	1546            	1547            	21.2099     	300.0000    	68.0000     	0.0000      	Open  	;
 2894            	1547            	1548            	21.8586     	300.0000    	68.0000     	0.0000      	Open  	;
 2895            	1548            	1549            	110.8974    	300.0000    	68.0000     	0.0000      	Open  	;
 2896            	1549            	1550            	24.7749     	300.0000    	68.0000     	0.0000      	Open  	;
 2897            	1550            	1551            	21.0716     	300.0000    	68.0000     	0.0000      	Open  	;
 2898            	1551            	1552            	5.2135      	300.0000    	78.0000     	0.0000      	Open  	;
 2899            	1544            	1545            	21.3382     	300.0000    	68.0000     	0.0000      	Open  	;
 2900            	1553            	1554            	2.1748      	100.0000    	50.0000     	0.0000      	Open  	;
 2901            	1555            	1556            	15.9335     	300.0000    	78.0000     	0.0000      	Open  	;
 2902            	1556            	1553            	1.4942      	300.0000    	78.0000     	0.0000      	Open  	;
 2903            	1553            	1557            	18.0289     	300.0000    	78.0000     	0.0000      	Open  	;
 2904            	1557            	1558            	16.5384     	300.0000    	78.0000     	0.0000      	Open  	;
 2905            	1558            	1559            	15.6200     	300.0000    	78.0000     	0.0000      	Open  	;
 2906            	1559            	1560            	25.3016     	300.0000    	78.0000     	0.0000      	Open  	;
 2907            	1560            	1561            	18.0202     	300.0000    	78.0000     	0.0000      	Open  	;
 2908            	372             	1555            	75.1688     	300.0000    	78.0000     	0.0000      	Open  	;
 2909            	1561            	1562            	19.5775     	300.0000    	78.0000     	0.0000      	Open  	;
 2910            	1543            	1544            	20.6480     	300.0000    	68.0000     	0.0000      	Open  	;
 2911            	1541            	1542            	21.8611     	300.0000    	68.0000     	0.0000      	Open  	;
 2912            	1525            	1526            	3.5288      	300.0000    	68.0000     	0.0000      	Open  	;
 2913            	1526            	1527            	12.7727     	300.0000    	68.0000     	0.0000      	Open  	;
 2914            	1527            	1528            	2.9540      	300.0000    	68.0000     	0.0000      	Open  	;
 2915            	1529            	997             	13.3363     	250.0000    	55.0000     	0.0000      	Open  	;
 2916            	1042            	1530            	49.7797     	300.0000    	68.0000     	0.0000      	Open  	;
 2917            	1530            	1531            	20.1007     	300.0000    	68.0000     	0.0000      	Open  	;
 2918            	1531            	1532            	14.0309     	300.0000    	68.0000     	0.0000      	Open  	;
 2919            	1542            	1543            	21.4394     	300.0000    	68.0000     	0.0000      	Open  	;
 2920            	1532            	1533            	22.2604     	300.0000    	68.0000     	0.0000      	Open  	;
 2921            	1534            	1535            	20.2149     	300.0000    	68.0000     	0.0000      	Open  	;
 2922            	1535            	1536            	21.2835     	300.0000    	68.0000     	0.0000      	Open  	;
 2923            	1536            	1537            	27.0863     	300.0000    	68.0000     	0.0000      	Open  	;
 2924            	1537            	1538            	19.7684     	300.0000    	68.0000     	0.0000      	Open  	;
 2925            	1538            	1539            	20.4928     	300.0000    	68.0000     	0.0000      	Open  	;
 2926            	1539            	1540            	25.1557     	300.0000    	68.0000     	0.0000      	Open  	;
 2927            	1540            	1541            	18.2164     	300.0000    	68.0000     	0.0000      	Open  	;
 2928            	1533            	1534            	19.9213     	300.0000    	68.0000     	0.0000      	Open  	;
 2929            	1524            	1525            	1.5226      	300.0000    	68.0000     	0.0000      	Open  	;
 2930            	1562            	1563            	21.2336     	300.0000    	78.0000     	0.0000      	Open  	;
 2931            	1565            	1566            	19.8730     	300.0000    	78.0000     	0.0000      	Open  	;
 2932            	1587            	1588            	41.7508     	110.0000    	132.0000    	0.0000      	Open  	;
 2933            	1589            	1590            	9.2268      	110.0000    	132.0000    	0.0000      	Open  	;
 2934            	1590            	1591            	53.7188     	110.0000    	132.0000    	0.0000      	Open  	;
 2935            	1591            	1592            	11.8517     	110.0000    	132.0000    	0.0000      	Open  	;
 2936            	1592            	1593            	31.5505     	110.0000    	132.0000    	0.0000      	Open  	;
 2937            	1593            	1594            	43.8017     	110.0000    	132.0000    	0.0000      	Open  	;
 2938            	1595            	1596            	19.5637     	600.0000    	80.0000     	0.0000      	Open  	;
 2939            	1586            	1587            	45.1489     	110.0000    	132.0000    	0.0000      	Open  	;
 2940            	1596            	1597            	19.6005     	600.0000    	80.0000     	0.0000      	Open  	;
 2941            	1598            	1599            	20.2406     	600.0000    	80.0000     	0.0000      	Open  	;
 2942            	1599            	1600            	20.0099     	600.0000    	80.0000     	0.0000      	Open  	;
 2943            	1600            	1601            	3.7866      	600.0000    	80.0000     	0.0000      	Open  	;
 2944            	1602            	1603            	20.1858     	500.0000    	76.0000     	0.0000      	Open  	;
 2945            	1603            	1604            	18.4696     	500.0000    	76.0000     	0.0000      	Open  	;
 2946            	1604            	1605            	19.0877     	500.0000    	76.0000     	0.0000      	Open  	;
 2947            	1605            	1606            	20.0572     	500.0000    	76.0000     	0.0000      	Open  	;
 2948            	1597            	1598            	12.1015     	600.0000    	80.0000     	0.0000      	Open  	;
 2949            	1563            	1564            	83.8869     	300.0000    	78.0000     	0.0000      	Open  	;
 2950            	1585            	1586            	42.5468     	110.0000    	132.0000    	0.0000      	Open  	;
 2951            	856             	1582            	46.7599     	110.0000    	132.0000    	0.0000      	Open  	;
 2952            	1566            	1567            	19.7518     	300.0000    	78.0000     	0.0000      	Open  	;
 2953            	1567            	1568            	20.4838     	300.0000    	78.0000     	0.0000      	Open  	;
 2954            	1568            	1569            	15.8976     	300.0000    	78.0000     	0.0000      	Open  	;
 2955            	1569            	1570            	24.9875     	300.0000    	78.0000     	0.0000      	Open  	;
 2956            	1570            	1571            	20.0884     	300.0000    	78.0000     	0.0000      	Open  	;
 2957            	1571            	1572            	20.6483     	300.0000    	78.0000     	0.0000      	Open  	;
 2958            	1572            	1573            	21.2474     	300.0000    	78.0000     	0.0000      	Open  	;
 2959            	1583            	1584            	39.3977     	110.0000    	132.0000    	0.0000      	Open  	;
 2960            	1573            	1574            	20.8415     	300.0000    	78.0000     	0.0000      	Open  	;
 2961            	1565            	393             	0.8843      	100.0000    	50.0000     	0.0000      	Open  	;
 2962            	1576            	1577            	65.5912     	300.0000    	78.0000     	0.0000      	Open  	;
 2963            	1577            	1578            	118.0862    	300.0000    	78.0000     	0.0000      	Open  	;
 2964            	1578            	1579            	110.1689    	300.0000    	78.0000     	0.0000      	Open  	;
 2965            	1471            	1580            	2.6794      	200.0000    	54.0000     	0.0000      	Open  	;
 2966            	44              	63              	2.2898      	100.0000    	50.0000     	0.0000      	Open  	;
 2967            	65              	1581            	16.5831     	100.0000    	50.0000     	0.0000      	Open  	;
 2968            	1574            	1575            	13.7189     	300.0000    	78.0000     	0.0000      	Open  	;
 2969            	1522            	PM.VRP.NBN.003  	154.2283    	110.0000    	112.0000    	0.0000      	Open  	;
 2970            	989             	1521            	11.6179     	85.0000     	132.0000    	0.0000      	Open  	;
 2971            	1519            	1520            	21.1029     	300.0000    	78.0000     	0.0000      	Open  	;
 2972            	1405            	1406            	146.6573    	85.0000     	132.0000    	0.0000      	Open  	;
 2973            	1407            	1405            	76.8151     	85.0000     	132.0000    	0.0000      	Open  	;
 2974            	1407            	1370            	42.1942     	85.0000     	132.0000    	0.0000      	Open  	;
 2975            	1371            	1370            	23.4423     	85.0000     	132.0000    	0.0000      	Open  	;
 2976            	1408            	1371            	78.1741     	60.0000     	132.0000    	0.0000      	Open  	;
 2977            	1409            	1410            	59.0690     	85.0000     	132.0000    	0.0000      	Open  	;
 2978            	1411            	680             	50.1641     	85.0000     	132.0000    	0.0000      	Open  	;
 2979            	1398            	1397            	76.8474     	85.0000     	132.0000    	0.0000      	Open  	;
 2980            	1412            	1409            	58.4751     	85.0000     	132.0000    	0.0000      	Open  	;
 2981            	1397            	1413            	23.4619     	85.0000     	132.0000    	0.0000      	Open  	;
 2982            	1414            	1411            	7.8558      	85.0000     	132.0000    	0.0000      	Open  	;
 2983            	1415            	1416            	21.1601     	100.0000    	65.0000     	0.0000      	Open  	;
 2984            	1459            	1001            	14.4286     	250.0000    	55.0000     	0.0000      	Open  	;
 2985            	1460            	1461            	14.9344     	250.0000    	65.0000     	0.0000      	Open  	;
 2986            	1462            	1463            	0.9050      	250.0000    	55.0000     	0.0000      	Open  	;
 2987            	1463            	1464            	0.6865      	250.0000    	65.0000     	0.0000      	Open  	;
 2988            	1411            	1412            	65.1375     	60.0000     	132.0000    	0.0000      	Open  	;
 2989            	1465            	1466            	4.3181      	200.0000    	54.0000     	0.0000      	Open  	;
 2990            	1404            	1378            	297.8015    	85.0000     	132.0000    	0.0000      	Open  	;
 2991            	1400            	1403            	121.4658    	60.0000     	132.0000    	0.0000      	Open  	;
 2992            	1392            	1389            	9.7090      	85.0000     	132.0000    	0.0000      	Open  	;
 2993            	1390            	1392            	73.7258     	60.0000     	132.0000    	0.0000      	Open  	;
 2994            	1393            	1392            	50.7689     	85.0000     	132.0000    	0.0000      	Open  	;
 2995            	1394            	1390            	50.6793     	85.0000     	132.0000    	0.0000      	Open  	;
 2996            	1393            	1394            	72.3521     	85.0000     	132.0000    	0.0000      	Open  	;
 2997            	682             	1395            	71.5981     	60.0000     	132.0000    	0.0000      	Open  	;
 2998            	1395            	1394            	7.4691      	85.0000     	132.0000    	0.0000      	Open  	;
 2999            	1403            	1404            	23.3916     	85.0000     	132.0000    	0.0000      	Open  	;
 3000            	1396            	1395            	51.9535     	85.0000     	132.0000    	0.0000      	Open  	;
 3001            	1375            	1397            	132.8699    	60.0000     	132.0000    	0.0000      	Open  	;
 3002            	104             	1398            	138.0094    	85.0000     	132.0000    	0.0000      	Open  	;
 3003            	1399            	104             	168.4559    	85.0000     	132.0000    	0.0000      	Open  	;
 3004            	1400            	1375            	174.4061    	60.0000     	132.0000    	0.0000      	Open  	;
 3005            	1401            	1399            	126.2752    	85.0000     	132.0000    	0.0000      	Open  	;
 3006            	1402            	1401            	76.5385     	85.0000     	132.0000    	0.0000      	Open  	;
 3007            	1400            	1399            	76.7467     	60.0000     	132.0000    	0.0000      	Open  	;
 3008            	682             	1393            	8.8674      	85.0000     	132.0000    	0.0000      	Open  	;
 3009            	1466            	1467            	3.7496      	200.0000    	54.0000     	0.0000      	Open  	;
 3010            	1467            	1468            	54.9436     	200.0000    	54.0000     	0.0000      	Open  	;
 3011            	513             	1469            	1.0988      	85.0000     	100.0000    	0.0000      	Open  	;
 3012            	1506            	1507            	0.0605      	110.0000    	132.0000    	0.0000      	Open  	;
 3013            	1507            	1508            	12.4988     	110.0000    	132.0000    	0.0000      	Open  	;
 3014            	1508            	1509            	235.7263    	110.0000    	132.0000    	0.0000      	Open  	;
 3015            	1509            	1510            	6.5578      	110.0000    	132.0000    	0.0000      	Open  	;
 3016            	1510            	1511            	0.0640      	110.0000    	132.0000    	0.0000      	Open  	;
 3017            	1512            	1513            	114.5607    	60.0000     	132.0000    	0.0000      	Open  	;
 3018            	1513            	131             	140.3636    	60.0000     	132.0000    	0.0000      	Open  	;
 3019            	1505            	1236            	152.7751    	60.0000     	132.0000    	0.0000      	Open  	;
 3020            	670             	1514            	37.2446     	110.0000    	132.0000    	0.0000      	Open  	;
 3021            	1515            	1516            	5.6372      	85.0000     	132.0000    	0.0000      	Open  	;
 3022            	1516            	1106            	35.6843     	85.0000     	132.0000    	0.0000      	Open  	;
 3023            	480             	1517            	31.4619     	85.0000     	122.0000    	0.0000      	Open  	;
 3024            	1517            	1145            	43.3564     	85.0000     	122.0000    	0.0000      	Open  	;
 3025            	1235            	1511            	20.7132     	110.0000    	132.0000    	0.0000      	Open  	;
 3026            	849             	1518            	29.0106     	300.0000    	78.0000     	0.0000      	Open  	;
 3027            	1518            	1519            	18.2284     	300.0000    	78.0000     	0.0000      	Open  	;
 3028            	1514            	1504            	11.3866     	110.0000    	132.0000    	0.0000      	Open  	;
 3029            	1504            	1505            	103.0269    	60.0000     	132.0000    	0.0000      	Open  	;
 3030            	1502            	1503            	53.6725     	60.0000     	132.0000    	0.0000      	Open  	;
 3031            	1501            	1502            	98.8034     	60.0000     	132.0000    	0.0000      	Open  	;
 3032            	1470            	1471            	3.8398      	200.0000    	54.0000     	0.0000      	Open  	;
 3033            	1472            	1473            	3.4938      	150.0000    	55.0000     	0.0000      	Open  	;
 3034            	1468            	1474            	21.3966     	200.0000    	54.0000     	0.0000      	Open  	;
 3035            	1472            	1475            	2.3992      	150.0000    	55.0000     	0.0000      	Open  	;
 3036            	1476            	1472            	4.2331      	150.0000    	55.0000     	0.0000      	Open  	;
 3037            	1473            	1477            	3.6315      	150.0000    	55.0000     	0.0000      	Open  	;
 3038            	493             	1478            	1.8556      	300.0000    	55.0000     	0.0000      	Open  	;
 3039            	1415            	364             	10.7396     	100.0000    	65.0000     	0.0000      	Open  	;
 3040            	484             	1495            	29.2746     	110.0000    	132.0000    	0.0000      	Open  	;
 3041            	1495            	129             	14.8253     	110.0000    	132.0000    	0.0000      	Open  	;
 3042            	1137            	1496            	59.8616     	60.0000     	132.0000    	0.0000      	Open  	;
 3043            	1496            	1234            	43.8471     	60.0000     	132.0000    	0.0000      	Open  	;
 3044            	1139            	1497            	24.0002     	85.0000     	132.0000    	0.0000      	Open  	;
 3045            	1497            	1234            	23.0200     	85.0000     	132.0000    	0.0000      	Open  	;
 3046            	1498            	1499            	2.5838      	110.0000    	132.0000    	0.0000      	Open  	;
 3047            	1499            	1237            	12.2273     	110.0000    	132.0000    	0.0000      	Open  	;
 3048            	1500            	1501            	17.6027     	60.0000     	132.0000    	0.0000      	Open  	;
 3049            	1606            	1607            	20.5528     	500.0000    	76.0000     	0.0000      	Open  	;
 3050            	1747            	1748            	85.3283     	60.0000     	132.0000    	0.0000      	Open  	;
 3051            	1607            	1608            	19.0370     	500.0000    	76.0000     	0.0000      	Open  	;
 3052            	1609            	1610            	21.3257     	500.0000    	76.0000     	0.0000      	Open  	;
 3053            	1713            	1710            	6.0016      	85.0000     	122.0000    	0.0000      	Open  	;
 3054            	1714            	1713            	54.4096     	85.0000     	122.0000    	0.0000      	Open  	;
 3055            	1714            	1712            	76.4889     	60.0000     	122.0000    	0.0000      	Open  	;
 3056            	1715            	1712            	6.8214      	60.0000     	122.0000    	0.0000      	Open  	;
 3057            	1716            	1714            	6.2474      	85.0000     	122.0000    	0.0000      	Open  	;
 3058            	1715            	1716            	76.4576     	60.0000     	122.0000    	0.0000      	Open  	;
 3059            	1717            	1716            	51.4025     	85.0000     	122.0000    	0.0000      	Open  	;
 3060            	1713            	1711            	76.7282     	60.0000     	122.0000    	0.0000      	Open  	;
 3061            	1718            	1715            	52.0448     	60.0000     	122.0000    	0.0000      	Open  	;
 3062            	1719            	1717            	7.2946      	85.0000     	122.0000    	0.0000      	Open  	;
 3063            	1720            	1718            	6.8274      	60.0000     	122.0000    	0.0000      	Open  	;
 3064            	1720            	1719            	76.2310     	60.0000     	122.0000    	0.0000      	Open  	;
 3065            	1721            	1719            	50.7567     	85.0000     	122.0000    	0.0000      	Open  	;
 3066            	1722            	1720            	52.1862     	60.0000     	122.0000    	0.0000      	Open  	;
 3067            	1723            	1698            	31.1568     	60.0000     	122.0000    	0.0000      	Open  	;
 3068            	1721            	1722            	76.9346     	60.0000     	122.0000    	0.0000      	Open  	;
 3069            	1717            	1718            	76.5142     	60.0000     	122.0000    	0.0000      	Open  	;
 3070            	1724            	1721            	6.5292      	85.0000     	122.0000    	0.0000      	Open  	;
 3071            	1711            	1712            	53.1437     	60.0000     	122.0000    	0.0000      	Open  	;
 3072            	1710            	1661            	76.0539     	60.0000     	122.0000    	0.0000      	Open  	;
 3073            	1698            	1251            	5.1620      	60.0000     	122.0000    	0.0000      	Open  	;
 3074            	1699            	1697            	45.5971     	200.0000    	120.0000    	0.0000      	Open  	;
 3075            	1683            	1700            	4.7925      	85.0000     	122.0000    	0.0000      	Open  	;
 3076            	709             	1700            	9.9989      	85.0000     	122.0000    	0.0000      	Open  	;
 3079            	1702            	1703            	5.5316      	85.0000     	122.0000    	0.0000      	Open  	;
 3080            	1711            	1661            	7.1755      	60.0000     	122.0000    	0.0000      	Open  	;
 3081            	1704            	1705            	6.4750      	60.0000     	122.0000    	0.0000      	Open  	;
 3082            	1704            	1703            	60.2009     	60.0000     	122.0000    	0.0000      	Open  	;
 3083            	1702            	1706            	193.5868    	85.0000     	122.0000    	0.0000      	Open  	;
 3084            	1707            	1703            	129.4740    	85.0000     	122.0000    	0.0000      	Open  	;
 3085            	1708            	1709            	11.0048     	85.0000     	122.0000    	0.0000      	Open  	;
 3086            	1657            	684             	52.4720     	85.0000     	122.0000    	0.0000      	Open  	;
 3087            	1660            	1657            	6.3368      	85.0000     	122.0000    	0.0000      	Open  	;
 3088            	1710            	1660            	53.5453     	85.0000     	122.0000    	0.0000      	Open  	;
 3089            	1705            	1702            	60.1861     	60.0000     	122.0000    	0.0000      	Open  	;
 3090            	1696            	1697            	3.8604      	60.0000     	122.0000    	0.0000      	Open  	;
 3091            	1725            	1722            	5.8996      	60.0000     	122.0000    	0.0000      	Open  	;
 3092            	1726            	653             	52.1495     	85.0000     	122.0000    	0.0000      	Open  	;
 3093            	979             	1735            	8.6500      	85.0000     	122.0000    	0.0000      	Open  	;
 3094            	1736            	979             	64.7151     	85.0000     	122.0000    	0.0000      	Open  	;
 3095            	1737            	1736            	51.6793     	60.0000     	122.0000    	0.0000      	Open  	;
 3096            	1737            	1738            	65.3908     	60.0000     	122.0000    	0.0000      	Open  	;
 3097            	1737            	1739            	8.0412      	60.0000     	122.0000    	0.0000      	Open  	;
 3098            	1674            	1738            	5.2250      	85.0000     	122.0000    	0.0000      	Open  	;
 3099            	1674            	1739            	65.5626     	85.0000     	122.0000    	0.0000      	Open  	;
 3100            	1735            	1734            	64.0419     	60.0000     	122.0000    	0.0000      	Open  	;
 3101            	501             	1739            	49.1477     	60.0000     	122.0000    	0.0000      	Open  	;
 3102            	1680            	1740            	87.3471     	85.0000     	132.0000    	0.0000      	Open  	;
 3103            	1741            	1742            	86.8430     	85.0000     	132.0000    	0.0000      	Open  	;
 3104            	1741            	1680            	8.1703      	60.0000     	132.0000    	0.0000      	Open  	;
 3105            	1743            	1741            	51.6475     	60.0000     	132.0000    	0.0000      	Open  	;
 3106            	1743            	1744            	85.9166     	60.0000     	132.0000    	0.0000      	Open  	;
 3107            	1745            	1746            	86.3648     	85.0000     	132.0000    	0.0000      	Open  	;
 3108            	1745            	1743            	6.8906      	60.0000     	132.0000    	0.0000      	Open  	;
 3109            	1678            	1647            	115.2483    	60.0000     	122.0000    	0.0000      	Open  	;
 3110            	1726            	1725            	76.2571     	60.0000     	122.0000    	0.0000      	Open  	;
 3111            	1736            	1734            	7.4537      	60.0000     	122.0000    	0.0000      	Open  	;
 3112            	1734            	1732            	52.5941     	60.0000     	122.0000    	0.0000      	Open  	;
 3113            	652             	1725            	53.9053     	60.0000     	122.0000    	0.0000      	Open  	;
 3114            	1727            	653             	6.7845      	85.0000     	122.0000    	0.0000      	Open  	;
 3115            	1728            	652             	6.0794      	60.0000     	122.0000    	0.0000      	Open  	;
 3116            	1701            	1727            	71.6811     	85.0000     	122.0000    	0.0000      	Open  	;
 3117            	1728            	1727            	76.4114     	60.0000     	122.0000    	0.0000      	Open  	;
 3118            	1663            	500             	1.8498      	60.0000     	122.0000    	0.0000      	Open  	;
 3119            	500             	1728            	69.6261     	60.0000     	122.0000    	0.0000      	Open  	;
 3120            	1735            	1733            	52.1464     	85.0000     	122.0000    	0.0000      	Open  	;
 3121            	1729            	1730            	43.7614     	85.0000     	122.0000    	0.0000      	Open  	;
 3122            	1664            	1729            	30.4490     	85.0000     	122.0000    	0.0000      	Open  	;
 3123            	1667            	1669            	87.8614     	60.0000     	122.0000    	0.0000      	Open  	;
 3124            	1731            	1669            	50.6362     	60.0000     	122.0000    	0.0000      	Open  	;
 3125            	1732            	1731            	7.0527      	60.0000     	122.0000    	0.0000      	Open  	;
 3126            	1731            	1671            	65.0639     	60.0000     	122.0000    	0.0000      	Open  	;
 3127            	1733            	1671            	7.3381      	85.0000     	122.0000    	0.0000      	Open  	;
 3128            	1733            	1732            	64.7674     	85.0000     	122.0000    	0.0000      	Open  	;
 3129            	1730            	1701            	0.6344      	85.0000     	122.0000    	0.0000      	Open  	;
 3130            	1696            	1693            	6.0199      	60.0000     	122.0000    	0.0000      	Open  	;
 3131            	1250            	1695            	15.0346     	200.0000    	120.0000    	0.0000      	Open  	;
 3132            	1691            	1694            	111.7029    	200.0000    	120.0000    	0.0000      	Open  	;
 3133            	1414            	1630            	64.7881     	85.0000     	132.0000    	0.0000      	Open  	;
 3134            	1631            	1414            	50.0406     	85.0000     	132.0000    	0.0000      	Open  	;
 3135            	1632            	1630            	53.3454     	85.0000     	132.0000    	0.0000      	Open  	;
 3136            	1631            	1632            	65.0941     	60.0000     	132.0000    	0.0000      	Open  	;
 3137            	1633            	1632            	5.6136      	85.0000     	132.0000    	0.0000      	Open  	;
 3138            	1634            	1631            	8.4358      	85.0000     	132.0000    	0.0000      	Open  	;
 3139            	1633            	1634            	65.1192     	85.0000     	132.0000    	0.0000      	Open  	;
 3140            	1630            	1412            	6.6982      	85.0000     	132.0000    	0.0000      	Open  	;
 3141            	1634            	1635            	52.8065     	85.0000     	132.0000    	0.0000      	Open  	;
 3142            	1636            	1635            	65.8039     	85.0000     	132.0000    	0.0000      	Open  	;
 3143            	683             	1396            	69.7172     	85.0000     	132.0000    	0.0000      	Open  	;
 3144            	143             	1396            	8.1271      	85.0000     	132.0000    	0.0000      	Open  	;
 3145            	141             	683             	7.6741      	85.0000     	132.0000    	0.0000      	Open  	;
 3146            	143             	141             	69.1077     	60.0000     	132.0000    	0.0000      	Open  	;
 3147            	1637            	148             	51.6412     	85.0000     	132.0000    	0.0000      	Open  	;
 3148            	1638            	149             	50.6900     	85.0000     	132.0000    	0.0000      	Open  	;
 3149            	1633            	1636            	54.7534     	85.0000     	132.0000    	0.0000      	Open  	;
 3150            	1638            	1637            	67.9677     	85.0000     	132.0000    	0.0000      	Open  	;
 3151            	1628            	1629            	1.5491      	60.0000     	122.0000    	0.0000      	Open  	;
 3152            	1626            	1627            	20.5175     	500.0000    	76.0000     	0.0000      	Open  	;
 3153            	1610            	1611            	20.1596     	500.0000    	76.0000     	0.0000      	Open  	;
 3154            	1611            	1612            	20.9592     	500.0000    	76.0000     	0.0000      	Open  	;
 3155            	1612            	1613            	13.9733     	500.0000    	76.0000     	0.0000      	Open  	;
 3156            	1613            	1614            	24.5410     	500.0000    	76.0000     	0.0000      	Open  	;
 3157            	1614            	1615            	18.2486     	500.0000    	76.0000     	0.0000      	Open  	;
 3158            	1615            	1616            	15.8250     	500.0000    	76.0000     	0.0000      	Open  	;
 3159            	1616            	1617            	25.7988     	500.0000    	76.0000     	0.0000      	Open  	;
 3160            	1627            	1601            	18.0911     	500.0000    	76.0000     	0.0000      	Open  	;
 3161            	1617            	1618            	19.6321     	500.0000    	76.0000     	0.0000      	Open  	;
 3162            	1619            	1620            	18.2558     	500.0000    	76.0000     	0.0000      	Open  	;
 3163            	1620            	1621            	19.9336     	500.0000    	76.0000     	0.0000      	Open  	;
 3164            	1621            	1622            	20.5074     	500.0000    	76.0000     	0.0000      	Open  	;
 3165            	1622            	1623            	18.0995     	500.0000    	76.0000     	0.0000      	Open  	;
 3166            	1623            	1624            	20.8511     	500.0000    	76.0000     	0.0000      	Open  	;
 3167            	1624            	1625            	20.9674     	500.0000    	76.0000     	0.0000      	Open  	;
 3168            	1625            	1626            	19.7979     	500.0000    	76.0000     	0.0000      	Open  	;
 3169            	1618            	1619            	24.1290     	500.0000    	76.0000     	0.0000      	Open  	;
 3170            	1639            	1640            	77.7399     	85.0000     	132.0000    	0.0000      	Open  	;
 3171            	1641            	1642            	5.5149      	85.0000     	132.0000    	0.0000      	Open  	;
 3172            	872             	1641            	51.5200     	85.0000     	132.0000    	0.0000      	Open  	;
 3173            	1673            	1674            	43.5565     	85.0000     	122.0000    	0.0000      	Open  	;
 3174            	1650            	1675            	32.3144     	60.0000     	122.0000    	0.0000      	Open  	;
 3175            	1676            	1650            	16.5501     	60.0000     	122.0000    	0.0000      	Open  	;
 3176            	1677            	1678            	117.3381    	60.0000     	122.0000    	0.0000      	Open  	;
 3177            	1679            	1647            	163.6199    	85.0000     	122.0000    	0.0000      	Open  	;
 3178            	1680            	1258            	23.4023     	60.0000     	132.0000    	0.0000      	Open  	;
 3179            	1681            	1260            	33.9226     	85.0000     	132.0000    	0.0000      	Open  	;
 3180            	1671            	1672            	16.1700     	85.0000     	122.0000    	0.0000      	Open  	;
 3181            	1263            	1682            	194.8354    	85.0000     	132.0000    	0.0000      	Open  	;
 3182            	1684            	1685            	7.5986      	85.0000     	122.0000    	0.0000      	Open  	;
 3183            	504             	1686            	11.1982     	85.0000     	122.0000    	0.0000      	Open  	;
 3184            	1687            	1688            	22.8917     	85.0000     	122.0000    	0.0000      	Open  	;
 3185            	1689            	503             	3.9586      	60.0000     	122.0000    	0.0000      	Open  	;
 3186            	503             	1690            	22.8910     	60.0000     	122.0000    	0.0000      	Open  	;
 3187            	1691            	1653            	307.2952    	250.0000    	120.0000    	0.0000      	Open  	;
 3188            	1692            	1693            	13.6752     	85.0000     	122.0000    	0.0000      	Open  	;
 3189            	1683            	1270            	22.3659     	60.0000     	122.0000    	0.0000      	Open  	;
 3190            	1669            	1670            	46.6678     	60.0000     	122.0000    	0.0000      	Open  	;
 3191            	1667            	1668            	0.2741      	60.0000     	122.0000    	0.0000      	Open  	;
 3192            	1666            	1664            	4.4262      	85.0000     	122.0000    	0.0000      	Open  	;
 3193            	1643            	1644            	6.1274      	85.0000     	132.0000    	0.0000      	Open  	;
 3194            	1642            	1643            	52.7838     	85.0000     	132.0000    	0.0000      	Open  	;
 3195            	1644            	1640            	52.7037     	85.0000     	132.0000    	0.0000      	Open  	;
 3196            	1645            	1646            	6.9956      	85.0000     	132.0000    	0.0000      	Open  	;
 3197            	1645            	1647            	24.6615     	85.0000     	132.0000    	0.0000      	Open  	;
 3198            	1648            	1649            	1.9150      	85.0000     	122.0000    	0.0000      	Open  	;
 3199            	752             	1650            	10.1793     	60.0000     	122.0000    	0.0000      	Open  	;
 3200            	1651            	1652            	1.7406      	110.0000    	122.0000    	0.0000      	Open  	;
 3201            	1653            	1654            	16.5852     	250.0000    	120.0000    	0.0000      	Open  	;
 3202            	1654            	1655            	86.2588     	250.0000    	125.0000    	0.0000      	Open  	;
 3203            	150             	110             	205.6909    	200.0000    	135.0000    	0.0000      	Open  	;
 3204            	151             	1656            	213.2816    	200.0000    	135.0000    	0.0000      	Open  	;
 3205            	1657            	1658            	68.7753     	60.0000     	122.0000    	0.0000      	Open  	;
 3206            	1659            	1660            	72.6398     	85.0000     	122.0000    	0.0000      	Open  	;
 3207            	1661            	1662            	44.5546     	60.0000     	122.0000    	0.0000      	Open  	;
 3208            	655             	1663            	38.9827     	60.0000     	122.0000    	0.0000      	Open  	;
 3209            	1664            	1665            	8.4254      	85.0000     	122.0000    	0.0000      	Open  	;
 3210            	1608            	1609            	20.1548     	500.0000    	76.0000     	0.0000      	Open  	;
 3211            	2887            	1628            	1.6943      	63.0000     	130.0000    	0.0000      	Open  	;
 3213            	2788            	2297            	1.0000      	32.0000     	135.0000    	0.0000      	Open  	;
 3214            	2528            	2306            	1.0000      	32.0000     	135.0000    	0.0000      	Open  	;
 3215            	2500            	2841            	1.0000      	60          	132         	0.0000      	Open  	;
 VZ1.SAT.NBN.015 	2341            	2435            	1.0000      	600.0000    	89.0000     	0.0000      	Open  	;
 41              	9999            	1498            	27.3300     	110.0000    	132.0000    	0.0000      	Open  	;
 42              	381             	383             	69.6900     	300.0000    	58.0000     	0.0000      	Open  	;
 43              	1663            	1701            	76.5200     	60.0000     	132.5000    	0.0000      	Open  	;
 44              	1961            	380             	3.0000      	200.0000    	54.0000     	0.0000      	Open  	;
 46              	1820            	1822            	5.3200      	60.0000     	132.0000    	0.0000      	Open  	;
 47              	105             	669             	20.0000     	110.0000    	132.0000    	0.0000      	Open  	;
 52              	1960            	382             	13.0000     	250.0000    	56.0000     	0.0000      	Open  	;
 53              	382             	370             	1.0000      	250.0000    	56.0000     	0.0000      	Open  	;
 54              	2320            	382             	1.0000      	200.0000    	135.0000    	0.0000      	Open  	;

[PUMPS]
;ID              	Node1           	Node2           	Parameters

[VALVES]
;ID              	Node1           	Node2           	Diameter    	Type	Setting     	MinorLoss   
 VRP.NBN.003     	PM.VRP.NBN.003  	9999            	100.0000    	PRV 	15.0000     	0.0000      	;
 VRP.NBN.005     	PM.VRP.NBN.005  	2398            	100.0000    	PRV 	45.0000     	0.0000      	;
 VRP.NBN.001     	PM.VRP.NBN.001  	2491            	150.0000    	PRV 	30.0000     	0.0000      	;
 VRP.NBN.002     	PM.VRP.NBN.002  	713             	150.0000    	PRV 	10.0000     	0.0000      	;
 VRP.SPW.010     	PM.VRP.SPW.010  	2462            	300.0000    	PRV 	35.0000     	0.0000      	;
 VRP.CND.001     	PM.VRP.CND.001  	2861            	200.0000    	PRV 	30.0000     	0.0000      	;
 VRP.CND.004     	PM.VRP.CND.004  	2823            	100.0000    	PRV 	15.0000     	0.0000      	;
 VRP.CND.002     	PM.VRP.CND.002  	2391            	100.0000    	PRV 	18.0000     	0.0000      	;
 VRP.CND.003     	PM.VRP.CND.003  	2808            	75.0000     	PRV 	15.0000     	0.0000      	;
 VRP.GUA.014     	PM.VRP.GUA.014  	2550            	75.0000     	PRV 	35.0000     	0.0000      	;VRP.GUA.014

[TAGS]

[DEMANDS]
;Junction        	Demand      	Pattern         	Category

[STATUS]
;ID              	Status/Setting

[PATTERNS]
;ID              	Multipliers
;VZ1.SAT.NBN.014
 VZ1.SAT.NBN.014 	0.74        	0.60        	0.52        	0.49        	0.49        	0.50        
 VZ1.SAT.NBN.014 	0.67        	0.89        	1.00        	1.15        	1.26        	1.35        
 VZ1.SAT.NBN.014 	1.41        	1.33        	1.26        	1.20        	1.19        	1.19        
 VZ1.SAT.NBN.014 	1.21        	1.26        	1.20        	1.14        	1.02        	0.92        
;VZ1.SAT.NBN.015
 VZ1.SAT.NBN.015 	0.77        	0.65        	0.58        	0.55        	0.53        	0.54        
 VZ1.SAT.NBN.015 	0.66        	0.89        	1.03        	1.17        	1.26        	1.32        
 VZ1.SAT.NBN.015 	1.35        	1.29        	1.25        	1.20        	1.17        	1.16        
 VZ1.SAT.NBN.015 	1.18        	1.21        	1.18        	1.11        	1.03        	0.91        
;VZ1.DMC.API.001
 VZ1.DMC.API.001 	0.8400      	0.6900      	0.5900      	0.5300      	0.5000      	0.5100      
 VZ1.DMC.API.001 	0.6100      	0.8400      	0.9800      	1.1300      	1.2200      	1.2700      
 VZ1.DMC.API.001 	1.3000      	1.2900      	1.2600      	1.2200      	1.1900      	1.1800      
 VZ1.DMC.API.001 	1.1800      	1.2200      	1.2100      	1.1600      	1.0800      	0.9900      
;Padrão de Nivel ficticio
 Nivel           	0.9999      	1.0000      	1.0002      	1.0002      	0.9997      	1.0000      
 Nivel           	0.9997      	0.9995      	0.9996      	0.9993      	0.9994      	0.9999      
 Nivel           	1.0008      	1.0011      	1.0005      	1.0008      	1.0014      	0.9999      
 Nivel           	0.9943      	0.9935      	0.9930      	0.9954      	0.9991      	0.9996      

[CURVES]
;ID              	X-Value     	Y-Value

[CONTROLS]
 LINK VRP.CND.001 27.4800 AT TIME 0.0000 HOURS
 LINK VRP.CND.001 26.4800 AT TIME 1.0000 HOURS
 LINK VRP.CND.001 26.2200 AT TIME 2.0000 HOURS
 LINK VRP.CND.001 26.2700 AT TIME 3.0000 HOURS
 LINK VRP.CND.001 26.2900 AT TIME 4.0000 HOURS
 LINK VRP.CND.001 29.7500 AT TIME 5.0000 HOURS
 LINK VRP.CND.001 29.8400 AT TIME 6.0000 HOURS
 LINK VRP.CND.001 29.8900 AT TIME 7.0000 HOURS
 LINK VRP.CND.001 29.7400 AT TIME 8.0000 HOURS
 LINK VRP.CND.001 29.7400 AT TIME 9.0000 HOURS
 LINK VRP.CND.001 29.7500 AT TIME 10.0000 HOURS
 LINK VRP.CND.001 29.8100 AT TIME 11.0000 HOURS
 LINK VRP.CND.001 30.3600 AT TIME 12.0000 HOURS
 LINK VRP.CND.001 30.5100 AT TIME 13.0000 HOURS
 LINK VRP.CND.001 30.3800 AT TIME 14.0000 HOURS
 LINK VRP.CND.001 30.1800 AT TIME 15.0000 HOURS
 LINK VRP.CND.001 30.0700 AT TIME 16.0000 HOURS
 LINK VRP.CND.001 29.9300 AT TIME 17.0000 HOURS
 LINK VRP.CND.001 29.8900 AT TIME 18.0000 HOURS
 LINK VRP.CND.001 30.2500 AT TIME 19.0000 HOURS
 LINK VRP.CND.001 30.4200 AT TIME 20.0000 HOURS
 LINK VRP.CND.001 30.5400 AT TIME 21.0000 HOURS
 LINK VRP.CND.001 30.4400 AT TIME 22.0000 HOURS
 LINK VRP.CND.001 28.7200 AT TIME 23.0000 HOURS
 LINK VRP.CND.002 18.4300 AT TIME 0.0000 HOURS
 LINK VRP.CND.002 18.3600 AT TIME 1.0000 HOURS
 LINK VRP.CND.002 18.3400 AT TIME 2.0000 HOURS
 LINK VRP.CND.002 18.3600 AT TIME 3.0000 HOURS
 LINK VRP.CND.002 18.3400 AT TIME 4.0000 HOURS
 LINK VRP.CND.002 18.4400 AT TIME 5.0000 HOURS
 LINK VRP.CND.002 18.5400 AT TIME 6.0000 HOURS
 LINK VRP.CND.002 18.6100 AT TIME 7.0000 HOURS
 LINK VRP.CND.002 18.6500 AT TIME 8.0000 HOURS
 LINK VRP.CND.002 18.6100 AT TIME 9.0000 HOURS
 LINK VRP.CND.002 18.5900 AT TIME 10.0000 HOURS
 LINK VRP.CND.002 18.5600 AT TIME 11.0000 HOURS
 LINK VRP.CND.002 18.5300 AT TIME 12.0000 HOURS
 LINK VRP.CND.002 18.5700 AT TIME 13.0000 HOURS
 LINK VRP.CND.002 18.5500 AT TIME 14.0000 HOURS
 LINK VRP.CND.002 18.5400 AT TIME 15.0000 HOURS
 LINK VRP.CND.002 18.5100 AT TIME 16.0000 HOURS
 LINK VRP.CND.002 18.5300 AT TIME 17.0000 HOURS
 LINK VRP.CND.002 18.5400 AT TIME 18.0000 HOURS
 LINK VRP.CND.002 18.5600 AT TIME 19.0000 HOURS
 LINK VRP.CND.002 18.6400 AT TIME 20.0000 HOURS
 LINK VRP.CND.002 18.6200 AT TIME 21.0000 HOURS
 LINK VRP.CND.002 18.6000 AT TIME 22.0000 HOURS
 LINK VRP.CND.002 18.5500 AT TIME 23.0000 HOURS
 LINK VRP.CND.003 15.9400 AT TIME 0.0000 HOURS
 LINK VRP.CND.003 15.7800 AT TIME 1.0000 HOURS
 LINK VRP.CND.003 15.8600 AT TIME 2.0000 HOURS
 LINK VRP.CND.003 15.9300 AT TIME 3.0000 HOURS
 LINK VRP.CND.003 15.7000 AT TIME 4.0000 HOURS
 LINK VRP.CND.003 16.5500 AT TIME 5.0000 HOURS
 LINK VRP.CND.003 16.4700 AT TIME 6.0000 HOURS
 LINK VRP.CND.003 16.3200 AT TIME 7.0000 HOURS
 LINK VRP.CND.003 16.1700 AT TIME 8.0000 HOURS
 LINK VRP.CND.003 16.0000 AT TIME 9.0000 HOURS
 LINK VRP.CND.003 15.8500 AT TIME 10.0000 HOURS
 LINK VRP.CND.003 15.6900 AT TIME 11.0000 HOURS
 LINK VRP.CND.003 15.8400 AT TIME 12.0000 HOURS
 LINK VRP.CND.003 15.9700 AT TIME 13.0000 HOURS
 LINK VRP.CND.003 16.1100 AT TIME 14.0000 HOURS
 LINK VRP.CND.003 16.0600 AT TIME 15.0000 HOURS
 LINK VRP.CND.003 16.0500 AT TIME 16.0000 HOURS
 LINK VRP.CND.003 16.0000 AT TIME 17.0000 HOURS
 LINK VRP.CND.003 15.8600 AT TIME 18.0000 HOURS
 LINK VRP.CND.003 15.9900 AT TIME 19.0000 HOURS
 LINK VRP.CND.003 16.1200 AT TIME 20.0000 HOURS
 LINK VRP.CND.003 16.2600 AT TIME 21.0000 HOURS
 LINK VRP.CND.003 16.3400 AT TIME 22.0000 HOURS
 LINK VRP.CND.003 16.2400 AT TIME 23.0000 HOURS
 LINK VRP.CND.004 14.8600 AT TIME 0.0000 HOURS
 LINK VRP.CND.004 14.9000 AT TIME 1.0000 HOURS
 LINK VRP.CND.004 14.9900 AT TIME 2.0000 HOURS
 LINK VRP.CND.004 14.9200 AT TIME 3.0000 HOURS
 LINK VRP.CND.004 14.9300 AT TIME 4.0000 HOURS
 LINK VRP.CND.004 14.9600 AT TIME 5.0000 HOURS
 LINK VRP.CND.004 14.8600 AT TIME 6.0000 HOURS
 LINK VRP.CND.004 14.8600 AT TIME 7.0000 HOURS
 LINK VRP.CND.004 14.8100 AT TIME 8.0000 HOURS
 LINK VRP.CND.004 14.7700 AT TIME 9.0000 HOURS
 LINK VRP.CND.004 14.7600 AT TIME 10.0000 HOURS
 LINK VRP.CND.004 14.7400 AT TIME 11.0000 HOURS
 LINK VRP.CND.004 14.8100 AT TIME 12.0000 HOURS
 LINK VRP.CND.004 14.7800 AT TIME 13.0000 HOURS
 LINK VRP.CND.004 14.8100 AT TIME 14.0000 HOURS
 LINK VRP.CND.004 14.8300 AT TIME 15.0000 HOURS
 LINK VRP.CND.004 14.7800 AT TIME 16.0000 HOURS
 LINK VRP.CND.004 14.7700 AT TIME 17.0000 HOURS
 LINK VRP.CND.004 14.7300 AT TIME 18.0000 HOURS
 LINK VRP.CND.004 14.7800 AT TIME 19.0000 HOURS
 LINK VRP.CND.004 14.8400 AT TIME 20.0000 HOURS
 LINK VRP.CND.004 14.8400 AT TIME 21.0000 HOURS
 LINK VRP.CND.004 14.9200 AT TIME 22.0000 HOURS
 LINK VRP.CND.004 14.8500 AT TIME 23.0000 HOURS
 LINK VRP.GUA.014 37.0100 AT TIME 0.0000 HOURS
 LINK VRP.GUA.014 37.0400 AT TIME 1.0000 HOURS
 LINK VRP.GUA.014 37.0200 AT TIME 2.0000 HOURS
 LINK VRP.GUA.014 37.0100 AT TIME 3.0000 HOURS
 LINK VRP.GUA.014 36.9800 AT TIME 4.0000 HOURS
 LINK VRP.GUA.014 36.8500 AT TIME 5.0000 HOURS
 LINK VRP.GUA.014 36.5500 AT TIME 6.0000 HOURS
 LINK VRP.GUA.014 36.1800 AT TIME 7.0000 HOURS
 LINK VRP.GUA.014 35.5200 AT TIME 8.0000 HOURS
 LINK VRP.GUA.014 34.7800 AT TIME 9.0000 HOURS
 LINK VRP.GUA.014 34.4700 AT TIME 10.0000 HOURS
 LINK VRP.GUA.014 34.2800 AT TIME 11.0000 HOURS
 LINK VRP.GUA.014 34.6900 AT TIME 12.0000 HOURS
 LINK VRP.GUA.014 35.2500 AT TIME 13.0000 HOURS
 LINK VRP.GUA.014 35.5200 AT TIME 14.0000 HOURS
 LINK VRP.GUA.014 35.7300 AT TIME 15.0000 HOURS
 LINK VRP.GUA.014 35.7900 AT TIME 16.0000 HOURS
 LINK VRP.GUA.014 35.7700 AT TIME 17.0000 HOURS
 LINK VRP.GUA.014 35.5700 AT TIME 18.0000 HOURS
 LINK VRP.GUA.014 35.6700 AT TIME 19.0000 HOURS
 LINK VRP.GUA.014 36.1200 AT TIME 20.0000 HOURS
 LINK VRP.GUA.014 36.4100 AT TIME 21.0000 HOURS
 LINK VRP.GUA.014 36.6600 AT TIME 22.0000 HOURS
 LINK VRP.GUA.014 36.9000 AT TIME 23.0000 HOURS
 LINK VRP.NBN.001 19.1600 AT TIME 0.0000 HOURS
 LINK VRP.NBN.001 19.1300 AT TIME 1.0000 HOURS
 LINK VRP.NBN.001 19.1800 AT TIME 2.0000 HOURS
 LINK VRP.NBN.001 19.1600 AT TIME 3.0000 HOURS
 LINK VRP.NBN.001 19.1600 AT TIME 4.0000 HOURS
 LINK VRP.NBN.001 19.1700 AT TIME 5.0000 HOURS
 LINK VRP.NBN.001 26.1000 AT TIME 6.0000 HOURS
 LINK VRP.NBN.001 28.0300 AT TIME 7.0000 HOURS
 LINK VRP.NBN.001 28.3400 AT TIME 8.0000 HOURS
 LINK VRP.NBN.001 28.5700 AT TIME 9.0000 HOURS
 LINK VRP.NBN.001 28.7600 AT TIME 10.0000 HOURS
 LINK VRP.NBN.001 28.8700 AT TIME 11.0000 HOURS
 LINK VRP.NBN.001 28.9700 AT TIME 12.0000 HOURS
 LINK VRP.NBN.001 29.0600 AT TIME 13.0000 HOURS
 LINK VRP.NBN.001 29.1100 AT TIME 14.0000 HOURS
 LINK VRP.NBN.001 29.2200 AT TIME 15.0000 HOURS
 LINK VRP.NBN.001 29.2700 AT TIME 16.0000 HOURS
 LINK VRP.NBN.001 29.3600 AT TIME 17.0000 HOURS
 LINK VRP.NBN.001 29.3600 AT TIME 18.0000 HOURS
 LINK VRP.NBN.001 29.4500 AT TIME 19.0000 HOURS
 LINK VRP.NBN.001 29.4900 AT TIME 20.0000 HOURS
 LINK VRP.NBN.001 29.4800 AT TIME 21.0000 HOURS
 LINK VRP.NBN.001 20.7800 AT TIME 22.0000 HOURS
 LINK VRP.NBN.001 19.1600 AT TIME 23.0000 HOURS
 LINK VRP.NBN.002 10.5400 AT TIME 0.0000 HOURS
 LINK VRP.NBN.002 10.5500 AT TIME 1.0000 HOURS
 LINK VRP.NBN.002 10.6500 AT TIME 2.0000 HOURS
 LINK VRP.NBN.002 10.5600 AT TIME 3.0000 HOURS
 LINK VRP.NBN.002 10.5800 AT TIME 4.0000 HOURS
 LINK VRP.NBN.002 10.6100 AT TIME 5.0000 HOURS
 LINK VRP.NBN.002 20.3700 AT TIME 6.0000 HOURS
 LINK VRP.NBN.002 23.0700 AT TIME 7.0000 HOURS
 LINK VRP.NBN.002 23.1500 AT TIME 8.0000 HOURS
 LINK VRP.NBN.002 23.1800 AT TIME 9.0000 HOURS
 LINK VRP.NBN.002 23.1800 AT TIME 10.0000 HOURS
 LINK VRP.NBN.002 23.1800 AT TIME 11.0000 HOURS
 LINK VRP.NBN.002 23.1600 AT TIME 12.0000 HOURS
 LINK VRP.NBN.002 23.1400 AT TIME 13.0000 HOURS
 LINK VRP.NBN.002 23.1100 AT TIME 14.0000 HOURS
 LINK VRP.NBN.002 23.0900 AT TIME 15.0000 HOURS
 LINK VRP.NBN.002 23.0900 AT TIME 16.0000 HOURS
 LINK VRP.NBN.002 23.1100 AT TIME 17.0000 HOURS
 LINK VRP.NBN.002 23.1100 AT TIME 18.0000 HOURS
 LINK VRP.NBN.002 23.1000 AT TIME 19.0000 HOURS
 LINK VRP.NBN.002 23.0800 AT TIME 20.0000 HOURS
 LINK VRP.NBN.002 23.0800 AT TIME 21.0000 HOURS
 LINK VRP.NBN.002 13.0400 AT TIME 22.0000 HOURS
 LINK VRP.NBN.002 10.4900 AT TIME 23.0000 HOURS
 LINK VRP.NBN.003 12.3000 AT TIME 0.0000 HOURS
 LINK VRP.NBN.003 12.3500 AT TIME 1.0000 HOURS
 LINK VRP.NBN.003 12.2900 AT TIME 2.0000 HOURS
 LINK VRP.NBN.003 12.1800 AT TIME 3.0000 HOURS
 LINK VRP.NBN.003 12.2700 AT TIME 4.0000 HOURS
 LINK VRP.NBN.003 12.2600 AT TIME 5.0000 HOURS
 LINK VRP.NBN.003 12.4100 AT TIME 6.0000 HOURS
 LINK VRP.NBN.003 12.3000 AT TIME 7.0000 HOURS
 LINK VRP.NBN.003 12.2200 AT TIME 8.0000 HOURS
 LINK VRP.NBN.003 12.1700 AT TIME 9.0000 HOURS
 LINK VRP.NBN.003 12.1000 AT TIME 10.0000 HOURS
 LINK VRP.NBN.003 12.0800 AT TIME 11.0000 HOURS
 LINK VRP.NBN.003 12.0200 AT TIME 12.0000 HOURS
 LINK VRP.NBN.003 12.0400 AT TIME 13.0000 HOURS
 LINK VRP.NBN.003 12.1100 AT TIME 14.0000 HOURS
 LINK VRP.NBN.003 12.1100 AT TIME 15.0000 HOURS
 LINK VRP.NBN.003 12.1700 AT TIME 16.0000 HOURS
 LINK VRP.NBN.003 12.1800 AT TIME 17.0000 HOURS
 LINK VRP.NBN.003 12.0700 AT TIME 18.0000 HOURS
 LINK VRP.NBN.003 12.0400 AT TIME 19.0000 HOURS
 LINK VRP.NBN.003 12.0400 AT TIME 20.0000 HOURS
 LINK VRP.NBN.003 12.1300 AT TIME 21.0000 HOURS
 LINK VRP.NBN.003 12.1500 AT TIME 22.0000 HOURS
 LINK VRP.NBN.003 12.2200 AT TIME 23.0000 HOURS
 LINK VRP.NBN.005 46.2100 AT TIME 0.0000 HOURS
 LINK VRP.NBN.005 46.0700 AT TIME 1.0000 HOURS
 LINK VRP.NBN.005 46.0800 AT TIME 2.0000 HOURS
 LINK VRP.NBN.005 46.0900 AT TIME 3.0000 HOURS
 LINK VRP.NBN.005 46.0100 AT TIME 4.0000 HOURS
 LINK VRP.NBN.005 45.9900 AT TIME 5.0000 HOURS
 LINK VRP.NBN.005 46.2400 AT TIME 6.0000 HOURS
 LINK VRP.NBN.005 46.3300 AT TIME 7.0000 HOURS
 LINK VRP.NBN.005 46.3000 AT TIME 8.0000 HOURS
 LINK VRP.NBN.005 46.2800 AT TIME 9.0000 HOURS
 LINK VRP.NBN.005 46.2800 AT TIME 10.0000 HOURS
 LINK VRP.NBN.005 46.2900 AT TIME 11.0000 HOURS
 LINK VRP.NBN.005 46.3600 AT TIME 12.0000 HOURS
 LINK VRP.NBN.005 46.3600 AT TIME 13.0000 HOURS
 LINK VRP.NBN.005 46.3600 AT TIME 14.0000 HOURS
 LINK VRP.NBN.005 46.3400 AT TIME 15.0000 HOURS
 LINK VRP.NBN.005 46.3400 AT TIME 16.0000 HOURS
 LINK VRP.NBN.005 46.3200 AT TIME 17.0000 HOURS
 LINK VRP.NBN.005 46.3100 AT TIME 18.0000 HOURS
 LINK VRP.NBN.005 46.3200 AT TIME 19.0000 HOURS
 LINK VRP.NBN.005 46.3900 AT TIME 20.0000 HOURS
 LINK VRP.NBN.005 46.4000 AT TIME 21.0000 HOURS
 LINK VRP.NBN.005 46.4200 AT TIME 22.0000 HOURS
 LINK VRP.NBN.005 46.3900 AT TIME 23.0000 HOURS
 LINK VRP.SPW.010 42.1100 AT TIME 0.0000 HOURS
 LINK VRP.SPW.010 42.1600 AT TIME 1.0000 HOURS
 LINK VRP.SPW.010 42.1500 AT TIME 2.0000 HOURS
 LINK VRP.SPW.010 42.1300 AT TIME 3.0000 HOURS
 LINK VRP.SPW.010 42.1100 AT TIME 4.0000 HOURS
 LINK VRP.SPW.010 42.1300 AT TIME 5.0000 HOURS
 LINK VRP.SPW.010 42.1100 AT TIME 6.0000 HOURS
 LINK VRP.SPW.010 42.2000 AT TIME 7.0000 HOURS
 LINK VRP.SPW.010 42.1400 AT TIME 8.0000 HOURS
 LINK VRP.SPW.010 42.2000 AT TIME 9.0000 HOURS
 LINK VRP.SPW.010 42.1500 AT TIME 10.0000 HOURS
 LINK VRP.SPW.010 42.0900 AT TIME 11.0000 HOURS
 LINK VRP.SPW.010 42.0600 AT TIME 12.0000 HOURS
 LINK VRP.SPW.010 42.0800 AT TIME 13.0000 HOURS
 LINK VRP.SPW.010 42.0600 AT TIME 14.0000 HOURS
 LINK VRP.SPW.010 42.0100 AT TIME 15.0000 HOURS
 LINK VRP.SPW.010 42.0400 AT TIME 16.0000 HOURS
 LINK VRP.SPW.010 42.0600 AT TIME 17.0000 HOURS
 LINK VRP.SPW.010 42.2500 AT TIME 18.0000 HOURS
 LINK VRP.SPW.010 42.2300 AT TIME 19.0000 HOURS
 LINK VRP.SPW.010 42.2800 AT TIME 20.0000 HOURS
 LINK VRP.SPW.010 42.2300 AT TIME 21.0000 HOURS
 LINK VRP.SPW.010 42.2100 AT TIME 22.0000 HOURS
 LINK VRP.SPW.010 42.2400 AT TIME 23.0000 HOURS


[RULES]


[ENERGY]
 Global Efficiency  	75.0000
 Global Price       	0
 Demand Charge      	0.0000

[EMITTERS]
;Junction        	Coefficient

[QUALITY]
;Node            	InitQual

[SOURCES]
;Node            	Type        	Quality     	Pattern

[REACTIONS]
;Type     	Pipe/Tank       	Coefficient


[REACTIONS]
 Order Bulk            	1.00
 Order Tank            	1.00
 Order Wall            	1
 Global Bulk           	0.000000
 Global Wall           	0.000000
 Limiting Potential    	0
 Roughness Correlation 	0

[MIXING]
;Tank            	Model

[TIMES]
 Duration           	24:00 
 Hydraulic Timestep 	1:00 
 Quality Timestep   	0:06 
 Pattern Timestep   	1:00 
 Pattern Start      	0:00 
 Report Timestep    	1:00 
 Report Start       	0:00 
 Start ClockTime    	0:00:00
 Statistic          	NONE

[REPORT]
 Status             	No
 Summary            	No
 Page               	0

[OPTIONS]
 Units              	LPS
 Headloss           	H-W
 Specific Gravity   	1.000000
 Viscosity          	1.000000
 Trials             	40
 Accuracy           	0.00100000
 CHECKFREQ          	10
 MAXCHECK           	10
 DAMPLIMIT          	0.00000000
 Unbalanced         	Continue 10
 Pattern            	1
 Demand Multiplier  	1.0000
 Emitter Exponent   	0.5000
 Quality            	NONE mg/L
 Diffusivity        	1.000000
 Tolerance          	0.01000000

[COORDINATES]
;Node            	X-Coord           	Y-Coord
0               	184364.028        	8245057.145       
1               	184365.120        	8245055.470       
2               	184365.848        	8245054.355       
3               	184122.502        	8245560.306       
4               	184125.377        	8245557.215       
5               	184127.649        	8245554.881       
6               	184156.327        	8245584.565       
7               	184153.635        	8245587.437       
8               	184193.234        	8245624.291       
9               	184195.627        	8245621.795       
10              	184197.445        	8245619.904       
11              	184158.719        	8245582.146       
12              	184047.915        	8245520.544       
13              	184050.962        	8245544.979       
14              	184090.967        	8245208.275       
15              	184093.671        	8245208.766       
16              	184101.604        	8244907.124       
17              	184100.125        	8244909.307       
18              	184100.818        	8244906.614       
19              	184067.198        	8244957.754       
20              	184069.358        	8244959.269       
21              	184029.357        	8245357.145       
22              	184031.939        	8245357.860       
23              	183785.237        	8244878.274       
24              	183787.034        	8244875.754       
25              	183401.707        	8244908.784       
26              	183401.279        	8244908.837       
27              	183400.066        	8244908.989       
28              	181344.757        	8242538.671       
29              	181327.960        	8242529.618       
30              	181311.163        	8242520.565       
31              	181294.367        	8242511.511       
32              	181279.825        	8242503.674       
33              	181268.605        	8242490.826       
34              	181255.727        	8242480.481       
35              	183987.122        	8244763.884       
36              	183999.611        	8244774.086       
37              	184034.645        	8244795.569       
38              	184041.305        	8244800.010       
39              	183342.839        	8244495.518       
40              	183344.818        	8244508.435       
41              	183344.991        	8244509.146       
42              	183349.407        	8244527.259       
43              	183353.276        	8244548.043       
44              	183354.714        	8244557.658       
45              	183359.085        	8244586.894       
46              	183359.939        	8244590.792       
47              	183344.549        	8244509.224       
48              	183343.601        	8244509.341       
49              	183284.747        	8244516.614       
50              	183248.617        	8244522.524       
51              	183941.927        	8245078.862       
52              	183941.573        	8245079.440       
53              	183936.312        	8245099.946       
54              	183931.218        	8245120.179       
55              	183926.845        	8245138.218       
56              	183922.571        	8245154.035       
57              	183914.253        	8245186.143       
58              	183910.002        	8245202.718       
59              	183905.463        	8245221.631       
60              	183899.819        	8245243.571       
61              	183893.579        	8245269.228       
62              	183892.660        	8245272.540       
63              	183352.447        	8244557.984       
64              	183349.873        	8244558.503       
65              	183348.733        	8244558.733       
66              	183640.087        	8244360.544       
67              	183641.258        	8244351.441       
68              	183641.317        	8244350.982       
69              	183319.445        	8244562.265       
70              	183320.409        	8244566.890       
71              	183840.490        	8244672.802       
72              	183860.417        	8244686.474       
73              	183776.297        	8244549.484       
74              	183778.424        	8244546.660       
75              	183936.228        	8244524.404       
76              	183938.613        	8244525.849       
77              	184381.658        	8245190.045       
78              	184380.128        	8245192.145       
79              	183632.541        	8244931.933       
80              	183685.922        	8244853.149       
81              	183578.887        	8244728.724       
82              	183576.565        	8244727.117       
83              	184477.648        	8245084.545       
84              	184475.788        	8245083.305       
85              	184417.148        	8245216.265       
86              	184415.236        	8245219.066       
87              	184430.068        	8245457.375       
88              	184427.548        	8245460.675       
89              	184407.988        	8245183.615       
90              	184409.478        	8245184.525       
91              	184000.902        	8244938.812       
92              	184013.196        	8244944.832       
93              	184074.641        	8245517.280       
94              	184047.757        	8245519.283       
95              	184096.264        	8245530.556       
96              	184097.413        	8245531.725       
97              	184095.593        	8245529.873       
98              	184097.514        	8245528.351       
99              	184077.397        	8245517.145       
100             	184514.618        	8245405.515       
101             	184503.428        	8245397.315       
102             	184483.677        	8245384.200       
103             	182389.837        	8243417.542       
104             	182387.087        	8243422.762       
PM.VRP.NBN.002  	182177.596        	8242910.528       
106             	182103.447        	8243046.952       
107             	182190.367        	8242814.062       
108             	182200.696        	8242816.697       
109             	182207.685        	8242819.384       
110             	182101.072        	8242774.058       
111             	182212.153        	8242803.424       
112             	181567.446        	8243163.952       
113             	181565.657        	8243162.998       
114             	181563.955        	8243162.091       
115             	181647.029        	8241763.119       
116             	181647.667        	8241752.592       
117             	181328.537        	8241810.681       
118             	181319.727        	8241801.751       
119             	181939.447        	8242529.942       
120             	181551.117        	8242449.521       
121             	181931.287        	8242576.962       
122             	181327.217        	8242564.241       
123             	181332.817        	8242555.741       
124             	181089.667        	8241865.951       
125             	181093.427        	8241858.091       
126             	181101.427        	8241946.831       
127             	181106.487        	8241981.871       
128             	181113.287        	8242010.491       
129             	180982.456        	8242250.881       
130             	180995.936        	8242225.791       
131             	180869.716        	8242370.231       
132             	180896.496        	8242321.971       
133             	180933.246        	8242342.051       
134             	180994.367        	8242141.471       
135             	180993.163        	8242143.606       
136             	182311.401        	8243707.866       
137             	182309.741        	8243691.292       
138             	181606.126        	8243222.892       
139             	181608.067        	8243219.268       
140             	182318.037        	8243411.622       
141             	182274.077        	8243387.492       
142             	182285.287        	8243472.892       
143             	182240.767        	8243448.042       
144             	182292.177        	8243476.342       
145             	182326.367        	8243416.322       
146             	182338.287        	8243501.173       
147             	182371.987        	8243441.262       
148             	182446.057        	8243481.623       
149             	182412.807        	8243542.203       
150             	181902.529        	8242722.986       
151             	181753.567        	8242687.102       
152             	181601.527        	8243102.222       
153             	181599.637        	8243105.752       
154             	181431.807        	8242580.451       
155             	181430.045        	8242584.150       
156             	181614.027        	8243189.450       
157             	181444.562        	8243376.196       
158             	181447.635        	8243377.904       
159             	181167.270        	8243161.832       
160             	181159.152        	8243164.602       
161             	181336.608        	8243541.860       
162             	181310.778        	8243570.251       
163             	181295.866        	8243583.792       
164             	181427.161        	8243413.137       
165             	181408.832        	8243436.761       
166             	181395.939        	8243454.850       
167             	181356.547        	8243516.388       
168             	181346.156        	8243531.557       
169             	181456.216        	8243140.761       
170             	181442.220        	8243133.689       
171             	181215.087        	8243017.635       
172             	181234.838        	8243028.658       
173             	181248.985        	8243034.809       
174             	181263.084        	8243044.527       
175             	181278.619        	8243052.715       
176             	181994.167        	8243234.152       
177             	182000.377        	8243237.252       
178             	181960.957        	8243290.912       
179             	181950.437        	8243210.152       
180             	181968.847        	8243294.402       
181             	181916.897        	8243266.612       
182             	181948.247        	8243208.952       
183             	181168.869        	8243165.710       
184             	181170.467        	8243169.587       
185             	181175.111        	8243184.091       
186             	181180.839        	8243200.773       
187             	181186.810        	8243219.082       
188             	181192.738        	8243238.030       
189             	181478.552        	8243314.492       
190             	181472.456        	8243311.120       
191             	181452.423        	8243300.000       
192             	181435.542        	8243290.738       
193             	181418.914        	8243281.851       
194             	181401.633        	8243272.345       
195             	181385.277        	8243263.432       
196             	181369.268        	8243254.416       
197             	181355.298        	8243246.919       
198             	181334.370        	8243235.775       
199             	181318.533        	8243226.886       
200             	181501.425        	8243272.187       
201             	181500.095        	8243275.370       
202             	181491.346        	8243291.261       
203             	181311.950        	8243223.018       
204             	181296.562        	8243214.440       
205             	181282.654        	8243207.351       
206             	181262.446        	8243196.392       
207             	181241.437        	8243185.001       
208             	181224.407        	8243175.567       
209             	181205.644        	8243165.203       
210             	181185.624        	8243154.271       
211             	181176.351        	8243149.222       
212             	181342.416        	8243184.889       
213             	181331.079        	8243204.217       
214             	181168.732        	8243089.834       
215             	181188.796        	8243100.544       
216             	181210.706        	8243112.473       
217             	181225.688        	8243120.885       
218             	181243.611        	8243130.205       
219             	181260.078        	8243139.605       
220             	181273.687        	8243146.781       
221             	181290.547        	8243156.099       
222             	181304.326        	8243163.697       
223             	181321.239        	8243172.964       
224             	181334.949        	8243180.445       
225             	181283.076        	8243055.053       
226             	181287.519        	8243057.383       
227             	181303.611        	8243066.149       
228             	181325.611        	8243078.367       
229             	181341.804        	8243087.150       
230             	181357.536        	8243095.908       
231             	181372.432        	8243103.880       
232             	181393.690        	8243115.845       
233             	181159.877        	8243139.787       
234             	181160.019        	8243140.600       
235             	180988.336        	8242759.481       
236             	180987.316        	8242761.281       
237             	181614.595        	8244184.157       
238             	181610.872        	8244187.471       
239             	181667.048        	8243832.713       
240             	181667.385        	8243835.889       
241             	181670.206        	8243862.547       
242             	181663.779        	8243833.106       
243             	181122.434        	8244201.856       
244             	181120.646        	8244203.702       
245             	182991.817        	8244221.533       
246             	182993.387        	8244223.951       
247             	183144.937        	8244288.533       
248             	182997.487        	8244392.553       
249             	182932.107        	8244290.863       
250             	182979.567        	8244365.823       
251             	182916.837        	8244267.153       
252             	184599.868        	8245114.932       
253             	184558.981        	8245088.058       
254             	184395.808        	8245493.665       
255             	184395.038        	8245494.415       
256             	184384.101        	8245505.383       
257             	184380.177        	8245501.778       
258             	184342.247        	8245469.155       
259             	184392.994        	8245251.656       
260             	184405.910        	8245260.720       
261             	184409.940        	8245226.828       
262             	184424.997        	8245237.757       
263             	184400.292        	8245195.064       
264             	184613.328        	8245091.155       
265             	184655.938        	8245064.985       
266             	184476.158        	8245379.195       
267             	184233.936        	8245667.163       
268             	184231.435        	8245664.945       
269             	184289.837        	8245716.815       
270             	184297.057        	8245708.845       
271             	184270.927        	8245702.045       
272             	184086.517        	8245840.835       
273             	184007.967        	8245886.775       
274             	184209.807        	8245753.655       
275             	184179.887        	8245777.825       
276             	184136.927        	8245809.385       
277             	184238.927        	8245732.515       
278             	184161.697        	8245462.145       
279             	184078.519        	8245515.168       
280             	184077.019        	8245515.168       
281             	183675.937        	8245662.405       
282             	183688.167        	8245670.245       
283             	183699.367        	8245676.295       
284             	183713.947        	8245682.875       
285             	183728.527        	8245687.855       
286             	183742.927        	8245692.475       
287             	183750.927        	8245694.255       
288             	183777.777        	8245698.175       
289             	183789.687        	8245698.885       
290             	183802.837        	8245698.345       
291             	183839.327        	8245694.965       
292             	183792.865        	8245536.648       
293             	183906.197        	8245521.675       
294             	183783.011        	8245577.642       
295             	183771.407        	8245576.125       
296             	183764.447        	8245574.505       
297             	183758.407        	8245572.425       
298             	183749.817        	8245567.325       
299             	183737.747        	8245558.975       
300             	183673.147        	8245511.475       
301             	183802.697        	8244889.464       
302             	183830.367        	8244907.204       
303             	183947.568        	8244687.304       
304             	183991.768        	8244716.934       
305             	183864.428        	8244630.994       
306             	183820.147        	8244659.814       
307             	183837.847        	8244671.064       
308             	184078.908        	8244985.624       
309             	184062.047        	8244974.711       
310             	181500.025        	8243165.664       
311             	181483.600        	8243156.731       
312             	181462.263        	8243144.834       
313             	182326.651        	8243144.990       
314             	182323.537        	8243143.282       
315             	183535.771        	8244631.070       
316             	183532.157        	8244637.354       
317             	183742.577        	8244758.384       
318             	183769.737        	8244776.574       
319             	182951.148        	8244024.586       
320             	182932.380        	8244036.313       
321             	183808.387        	8244881.054       
322             	183452.927        	8244761.914       
323             	183464.681        	8244891.794       
324             	183465.407        	8244899.807       
325             	183466.447        	8244911.304       
326             	183605.877        	8244686.434       
327             	183568.377        	8244661.474       
328             	183567.977        	8244721.414       
329             	183566.437        	8244720.424       
330             	183539.727        	8244703.114       
331             	183528.977        	8244696.154       
332             	183574.247        	8244736.054       
333             	183786.337        	8244787.694       
334             	183658.867        	8244702.334       
335             	183655.597        	8244700.104       
336             	183654.377        	8244699.274       
337             	183653.697        	8244700.264       
338             	183653.393        	8244700.755       
339             	183652.657        	8244701.951       
340             	183827.757        	8244815.775       
341             	183871.487        	8244844.904       
342             	183429.517        	8244610.984       
343             	183430.149        	8244615.350       
344             	183152.017        	8244283.713       
345             	183090.777        	8244197.963       
346             	183111.868        	8244199.902       
347             	183114.497        	8244200.143       
348             	183052.277        	8244197.703       
349             	184213.787        	8245637.675       
350             	184236.130        	8245656.929       
351             	184237.126        	8245657.860       
352             	183789.767        	8244982.614       
353             	183822.517        	8244985.624       
354             	183851.997        	8244991.084       
355             	183877.067        	8244996.954       
356             	183671.357        	8244960.379       
357             	183672.819        	8244958.124       
358             	183631.087        	8244934.184       
359             	183631.807        	8244933.074       
360             	184085.767        	8245235.515       
361             	184082.077        	8245246.805       
362             	181058.344        	8244495.810       
363             	181087.046        	8244522.403       
364             	181953.329        	8243482.302       
365             	181925.527        	8243485.232       
366             	180832.255        	8244476.423       
367             	180271.125        	8245028.803       
369             	182109.581        	8243269.431       
370             	182119.647        	8243274.412       
371             	182946.645        	8243906.817       
372             	182961.362        	8243918.554       
373             	182920.403        	8243892.384       
374             	182927.535        	8243896.300       
375             	182937.112        	8243901.513       
376             	181969.457        	8243546.412       
377             	181966.097        	8243555.292       
378             	181426.734        	8242663.790       
379             	181429.834        	8242664.846       
380             	181433.307        	8242666.761       
381             	181580.247        	8242980.052       
383             	181611.010        	8242918.076       
384             	180980.536        	8242761.041       
385             	180954.775        	8242745.619       
386             	181654.827        	8242841.392       
387             	181656.718        	8242838.011       
388             	181455.828        	8243141.234       
389             	181455.440        	8243141.707       
390             	181455.125        	8243142.359       
391             	183188.514        	8244258.780       
392             	183193.555        	8244255.336       
393             	183238.355        	8244234.617       
394             	181269.269        	8242917.554       
395             	181223.455        	8243002.626       
396             	184234.010        	8245661.738       
397             	184289.550        	8245331.569       
398             	184351.718        	8245169.475       
399             	184350.558        	8245171.295       
400             	183795.157        	8245495.765       
401             	183797.758        	8245495.300       
402             	183891.761        	8245272.310       
403             	184078.859        	8245245.811       
404             	183791.341        	8244980.293       
405             	183818.417        	8244941.174       
406             	184026.445        	8245356.168       
407             	183788.221        	8245577.551       
408             	183882.317        	8245564.445       
409             	183978.247        	8245551.675       
410             	184065.257        	8245285.865       
411             	184063.987        	8245285.555       
412             	184061.417        	8245284.688       
413             	183781.567        	8245616.535       
414             	183790.288        	8245616.504       
415             	183753.488        	8244979.921       
416             	183792.407        	8244922.754       
417             	184049.647        	8245316.395       
418             	184052.807        	8245316.775       
419             	184055.218        	8245317.177       
420             	184067.207        	8245286.425       
421             	184070.067        	8245286.790       
422             	183774.937        	8245056.414       
423             	183772.217        	8245036.904       
424             	183771.377        	8245020.764       
425             	183774.117        	8245006.714       
426             	183788.312        	8244985.024       
427             	183802.859        	8245247.141       
428             	183782.227        	8245103.424       
429             	183750.147        	8245108.129       
430             	183768.594        	8245238.869       
431             	183687.095        	8245228.242       
432             	183705.367        	8245360.765       
433             	184097.687        	8245169.925       
434             	184095.469        	8245169.124       
435             	183701.953        	8244970.945       
436             	183752.817        	8244897.974       
437             	183725.497        	8244879.454       
438             	183939.689        	8245070.966       
439             	183944.071        	8245070.631       
440             	183792.625        	8245494.916       
441             	183882.277        	8245316.643       
442             	183879.039        	8245317.210       
443             	184088.137        	8245207.764       
444             	184140.107        	8244911.692       
445             	184118.208        	8244943.154       
446             	183700.127        	8244973.224       
447             	183699.308        	8244975.802       
448             	183670.408        	8244962.804       
449             	184243.027        	8245377.595       
450             	184244.957        	8245375.591       
451             	184244.993        	8245379.372       
452             	184016.154        	8245390.419       
453             	184013.769        	8245389.688       
454             	183790.220        	8245536.950       
455             	183787.175        	8245536.527       
456             	183778.913        	8245616.114       
457             	183638.811        	8245236.486       
458             	183653.537        	8245338.264       
459             	183607.208        	8245241.708       
460             	183622.187        	8245342.564       
461             	184098.631        	8245165.536       
462             	184104.197        	8245133.685       
463             	184166.178        	8245043.484       
464             	184164.733        	8245045.315       
465             	184098.907        	8245170.145       
466             	184100.126        	8245170.412       
467             	184057.448        	8244971.614       
468             	183731.697        	8244461.784       
469             	183754.858        	8244429.625       
470             	183761.557        	8244571.014       
471             	183765.174        	8244573.345       
472             	184019.215        	8245391.294       
473             	183785.627        	8245577.855       
474             	183611.227        	8244761.294       
475             	183612.785        	8244758.970       
476             	183561.537        	8244605.074       
477             	183564.479        	8244606.962       
478             	181203.186        	8242876.132       
479             	181203.983        	8242874.667       
480             	181085.966        	8242592.641       
481             	181084.547        	8242591.843       
482             	182652.517        	8243567.643       
483             	182653.301        	8243566.229       
484             	181021.186        	8242271.971       
485             	181020.412        	8242273.399       
486             	181621.774        	8243193.712       
487             	181971.699        	8243731.326       
488             	181982.534        	8243730.111       
489             	182004.235        	8243486.973       
490             	182015.297        	8243467.812       
491             	182023.444        	8243452.721       
492             	182028.978        	8243442.739       
493             	182030.532        	8243439.679       
494             	181508.278        	8243052.603       
495             	181513.064        	8243055.357       
496             	180964.855        	8244410.043       
497             	180979.205        	8244422.513       
498             	181346.930        	8243943.232       
499             	181032.176        	8244263.342       
500             	181579.740        	8242980.988       
501             	181568.460        	8243001.847       
502             	181543.737        	8243047.562       
503             	181557.150        	8242768.897       
504             	181551.826        	8242765.998       
505             	181504.000        	8242739.958       
506             	181497.795        	8242736.579       
507             	181461.400        	8242716.754       
508             	181534.088        	8243066.935       
509             	181517.902        	8243058.053       
510             	181039.106        	8244276.583       
511             	181455.257        	8243833.198       
512             	181529.513        	8243778.883       
513             	181697.077        	8243761.147       
514             	181850.196        	8243744.972       
515             	181854.697        	8243744.463       
516             	180965.735        	8244348.433       
517             	180931.995        	8244381.473       
518             	184328.677        	8245673.925       
519             	184333.687        	8245662.605       
520             	182099.669        	8243700.316       
521             	182082.557        	8243700.323       
522             	182103.047        	8243732.243       
523             	182092.137        	8243629.122       
524             	182221.477        	8243614.793       
525             	182096.793        	8243673.138       
526             	182082.217        	8243673.677       
527             	181570.922        	8242079.813       
528             	181582.088        	8242083.641       
529             	181591.658        	8242136.599       
530             	181578.898        	8242137.875       
531             	183684.650        	8244430.758       
532             	183513.530        	8245210.344       
533             	183515.149        	8245210.068       
534             	183758.757        	8245613.775       
535             	183750.637        	8245611.695       
536             	183742.047        	8245608.455       
537             	183729.517        	8245602.195       
538             	183718.617        	8245595.015       
539             	183649.147        	8245542.775       
540             	183529.697        	8245322.784       
541             	183531.971        	8245322.462       
542             	184180.788        	8245163.365       
543             	181402.260        	8242136.995       
544             	181353.651        	8242153.365       
545             	181354.977        	8242157.770       
546             	181154.327        	8242232.708       
547             	181148.115        	8242229.461       
548             	181111.387        	8242210.491       
549             	181064.736        	8242295.621       
550             	181216.757        	8241925.761       
551             	181230.647        	8241990.181       
552             	181162.247        	8242084.891       
553             	181129.107        	8242067.831       
554             	181105.762        	8242055.621       
555             	181253.637        	8242132.731       
556             	181262.216        	8242130.248       
557             	181263.903        	8242129.760       
558             	181242.291        	8242040.380       
559             	181270.167        	8242032.161       
560             	181308.027        	8242022.011       
561             	181411.117        	8242163.911       
562             	181402.557        	8242137.921       
563             	181420.983        	8242168.681       
564             	183812.418        	8244497.184       
565             	183624.107        	8244352.024       
566             	183583.847        	8244411.304       
567             	183833.738        	8244466.244       
568             	183789.247        	8244706.154       
569             	183793.618        	8244444.694       
570             	183739.517        	8244525.184       
571             	183742.338        	8244521.008       
572             	183795.437        	8244593.484       
573             	183820.607        	8244609.984       
574             	183542.399        	8244868.525       
575             	183529.949        	8244862.125       
576             	183521.637        	8244807.304       
577             	183556.716        	8244756.708       
578             	183592.617        	8244333.994       
579             	183619.387        	8244807.624       
580             	183564.917        	8244889.354       
581             	183594.029        	8244791.835       
582             	183542.456        	8244868.442       
583             	181181.048        	8243142.343       
584             	181874.367        	8242910.481       
585             	181873.403        	8242912.128       
586             	181996.437        	8243121.832       
587             	182058.177        	8243155.652       
588             	181977.877        	8243154.522       
589             	181132.686        	8242622.011       
590             	181162.746        	8242566.031       
591             	180988.306        	8242761.771       
592             	181660.064        	8243991.365       
593             	181632.836        	8244044.831       
594             	181675.720        	8244094.804       
595             	181693.461        	8244113.121       
596             	184341.688        	8245272.785       
597             	184345.548        	8245268.675       
598             	184054.057        	8245616.225       
599             	184080.487        	8245599.805       
600             	184087.637        	8245594.615       
601             	184101.737        	8245582.375       
602             	184109.927        	8245574.385       
603             	184272.707        	8245404.815       
604             	184301.987        	8245432.275       
605             	184254.248        	8245035.055       
606             	184245.838        	8245046.605       
607             	184227.458        	8245199.345       
608             	184229.588        	8245199.345       
609             	184096.307        	8245120.255       
610             	184002.407        	8245057.104       
611             	184092.263        	8245125.558       
612             	184092.313        	8245125.492       
613             	184142.278        	8244908.274       
614             	184240.398        	8244974.954       
615             	183998.367        	8245062.264       
616             	183833.247        	8245652.635       
617             	183900.377        	8245481.495       
618             	183790.957        	8245391.105       
619             	183822.362        	8245386.475       
620             	183737.677        	8245355.765       
621             	184150.168        	8245129.875       
622             	184120.887        	8245110.845       
623             	184240.498        	8245093.905       
624             	184231.208        	8245087.725       
625             	184194.728        	8245062.455       
626             	184231.320        	8245665.082       
627             	184222.127        	8245676.065       
628             	184208.057        	8245689.805       
629             	184202.217        	8245695.655       
630             	184191.687        	8245704.715       
631             	184179.157        	8245713.885       
632             	184167.397        	8245722.105       
633             	184148.047        	8245734.395       
634             	184127.957        	8245747.825       
635             	184109.647        	8245760.005       
636             	183992.217        	8245835.905       
637             	181141.627        	8241817.574       
638             	181266.867        	8241716.721       
639             	181467.285        	8242116.590       
640             	181405.862        	8242136.876       
641             	182309.449        	8243158.717       
642             	182314.975        	8243158.944       
643             	183897.648        	8244502.804       
644             	183828.777        	8244733.774       
645             	183616.777        	8244523.844       
646             	183584.817        	8244570.964       
647             	182528.537        	8243029.202       
648             	182510.937        	8243011.072       
649             	182124.997        	8243390.242       
650             	182096.357        	8243375.792       
651             	181948.267        	8242950.102       
652             	181646.217        	8243017.212       
653             	181683.297        	8242950.492       
654             	181537.407        	8242958.032       
655             	181543.847        	8242961.522       
656             	184584.968        	8245155.980       
657             	184569.448        	8245195.655       
658             	184010.777        	8245350.605       
659             	183994.227        	8245343.075       
660             	183976.957        	8245334.305       
661             	183941.517        	8245313.255       
662             	181634.802        	8244050.921       
663             	181233.519        	8242072.806       
664             	181188.557        	8242081.241       
665             	181215.785        	8241919.947       
666             	181212.307        	8241896.581       
667             	181786.580        	8242173.605       
668             	181793.030        	8242170.359       
669             	181098.085        	8242618.838       
670             	181058.426        	8242597.261       
671             	181442.783        	8242015.614       
672             	181437.515        	8241997.501       
673             	184608.888        	8245098.864       
674             	182653.247        	8243480.933       
675             	182680.247        	8243495.743       
676             	183704.077        	8244396.634       
677             	183708.477        	8244389.245       
678             	182878.967        	8243707.293       
679             	182922.447        	8243628.423       
680             	182647.047        	8243591.863       
681             	182648.867        	8243592.883       
682             	182222.787        	8243359.592       
683             	182267.427        	8243383.662       
684             	181989.597        	8243118.102       
685             	181969.167        	8243154.392       
686             	182466.417        	8242965.622       
687             	182463.424        	8242962.544       
688             	183591.497        	8245132.094       
689             	183623.267        	8245127.304       
690             	183804.277        	8245616.215       
691             	183829.247        	8245613.505       
692             	183983.607        	8245591.965       
693             	181453.396        	8242618.101       
694             	181451.174        	8242616.810       
695             	181448.517        	8242616.031       
696             	183655.957        	8244791.914       
697             	183656.694        	8244790.819       
698             	183657.454        	8244789.690       
699             	183089.355        	8243601.973       
700             	183109.087        	8243612.683       
701             	182673.231        	8243595.765       
702             	182670.459        	8243594.172       
703             	182669.764        	8243593.973       
704             	182651.777        	8243584.643       
705             	181642.947        	8242815.612       
706             	181652.478        	8242820.517       
707             	181663.117        	8242825.992       
708             	182085.987        	8243066.192       
709             	182090.477        	8243068.632       
710             	182393.955        	8243206.003       
711             	181489.859        	8242186.294       
712             	181480.608        	8242148.968       
713             	182180.537        	8242905.132       
714             	184091.753        	8245248.245       
715             	184091.737        	8245248.545       
716             	184091.117        	8245260.715       
717             	184071.557        	8245274.785       
718             	184075.827        	8245264.975       
719             	184046.727        	8245315.575       
720             	184044.972        	8245315.074       
721             	183720.777        	8244977.834       
722             	183751.977        	8244982.114       
723             	183604.062        	8244916.624       
724             	183606.687        	8245238.664       
725             	183606.158        	8245235.693       
726             	183686.647        	8245225.684       
727             	183686.193        	8245222.546       
728             	183860.957        	8245321.315       
729             	183671.297        	8245228.234       
730             	183602.916        	8244918.944       
731             	183726.376        	8244716.632       
732             	183731.485        	8244709.283       
733             	183776.917        	8245487.345       
734             	183862.497        	8245266.365       
735             	183883.015        	8245270.272       
736             	183191.740        	8244146.169       
737             	183187.058        	8244143.749       
738             	184056.130        	8244879.751       
739             	184047.569        	8244892.495       
740             	183698.967        	8244730.094       
741             	183698.482        	8244730.770       
742             	183697.626        	8244731.917       
743             	183737.487        	8244604.944       
744             	183619.478        	8244525.589       
745             	183890.697        	8244706.884       
746             	184397.218        	8245200.085       
747             	184034.827        	8245344.165       
748             	184036.803        	8245345.009       
749             	181174.004        	8242994.436       
750             	181177.316        	8242996.349       
751             	181193.172        	8243005.298       
752             	181566.697        	8243000.892       
753             	181542.627        	8243046.902       
754             	181501.854        	8243271.641       
755             	181506.556        	8243262.128       
756             	183699.967        	8244821.834       
757             	183701.743        	8244819.270       
758             	181563.848        	8243161.612       
759             	181651.105        	8241761.870       
760             	181652.687        	8241761.261       
761             	181456.820        	8242063.148       
762             	181448.426        	8242066.441       
763             	181462.427        	8243842.235       
764             	181179.246        	8242030.851       
765             	181178.757        	8242027.070       
766             	182651.789        	8243583.341       
767             	182653.170        	8243580.862       
768             	181546.059        	8243192.523       
769             	181548.901        	8243187.871       
770             	181551.743        	8243183.220       
771             	181559.887        	8243168.682       
772             	183741.693        	8244759.699       
773             	183740.368        	8244761.667       
774             	183785.355        	8244788.932       
775             	183784.177        	8244790.424       
776             	183783.877        	8244790.795       
777             	183744.525        	8244848.688       
778             	183825.597        	8244819.094       
779             	183827.160        	8244816.692       
780             	183131.174        	8244187.182       
781             	183135.785        	8244183.599       
782             	182650.033        	8243586.503       
783             	181478.694        	8242142.269       
784             	181472.452        	8242114.511       
785             	181501.737        	8242142.702       
786             	181164.246        	8241939.377       
787             	181163.477        	8241935.751       
788             	183052.807        	8243673.413       
789             	183070.975        	8243683.563       
790             	183704.637        	8244387.024       
791             	181278.887        	8243052.278       
792             	181279.140        	8243051.510       
793             	183862.204        	8245267.562       
794             	183768.878        	8244777.900       
795             	183768.671        	8244778.221       
796             	183720.505        	8244979.359       
797             	183671.670        	8245229.906       
798             	183198.460        	8244361.601       
799             	183143.437        	8244286.380       
800             	184212.219        	8245639.205       
801             	183798.397        	8245478.905       
802             	183796.599        	8245478.525       
803             	183777.767        	8245647.985       
804             	183776.148        	8245647.906       
805             	181427.082        	8242662.987       
806             	181428.475        	8242660.600       
807             	183988.940        	8245457.615       
808             	183382.157        	8244101.841       
809             	183397.338        	8244110.566       
810             	184027.700        	8245548.481       
811             	184031.487        	8245572.345       
812             	183949.177        	8245265.865       
813             	183976.477        	8245284.345       
814             	183991.287        	8245292.855       
815             	184002.947        	8245299.025       
816             	184014.327        	8245304.795       
817             	184025.027        	8245309.315       
818             	184032.977        	8245311.925       
819             	184036.327        	8245312.795       
820             	184087.166        	8245248.137       
821             	184111.327        	8245248.705       
822             	184132.677        	8245247.865       
823             	184158.847        	8245246.135       
824             	184182.917        	8245244.365       
825             	184231.568        	8245239.005       
826             	183658.687        	8244834.814       
827             	183605.840        	8244914.162       
828             	183638.392        	8245233.674       
829             	184394.581        	8245492.628       
830             	184391.691        	8245489.922       
831             	183637.868        	8245230.568       
832             	183803.307        	8245250.524       
833             	183719.892        	8245229.394       
834             	183719.556        	8245226.816       
835             	183629.983        	8244936.426       
836             	183682.577        	8244686.614       
837             	181022.403        	8242778.339       
838             	181013.436        	8242773.991       
839             	184022.661        	8244708.672       
840             	181559.026        	8242003.997       
841             	181563.171        	8242004.157       
842             	181244.097        	8242068.891       
843             	181185.096        	8242081.880       
844             	181243.426        	8242065.647       
845             	183438.107        	8244668.454       
846             	183703.117        	8245116.724       
847             	184288.528        	8245006.805       
848             	184286.830        	8245009.261       
849             	183423.687        	8244598.599       
850             	183423.080        	8244594.540       
851             	183750.761        	8244984.393       
852             	183740.227        	8245003.894       
853             	183738.427        	8245015.444       
854             	183737.947        	8245029.944       
855             	183742.857        	8245060.754       
856             	183321.643        	8244573.009       
857             	181343.847        	8242161.983       
858             	181343.649        	8242162.089       
859             	181339.525        	8242166.679       
860             	181339.407        	8242166.766       
861             	181319.450        	8242173.202       
862             	181654.685        	8241751.635       
863             	181909.537        	8243262.382       
864             	181941.627        	8243205.212       
865             	181895.177        	8243179.572       
866             	181864.347        	8243238.232       
867             	181858.237        	8243234.442       
868             	181888.697        	8243176.652       
869             	183500.887        	8245573.255       
870             	183490.167        	8245587.715       
871             	182783.457        	8243745.073       
872             	182790.657        	8243749.403       
873             	182131.407        	8243293.312       
874             	182130.689        	8243294.751       
875             	182475.507        	8243251.622       
876             	182476.329        	8243250.176       
877             	183499.607        	8245565.355       
878             	184482.698        	8245472.185       
879             	184496.668        	8245450.535       
880             	184507.608        	8245428.835       
881             	184460.158        	8245506.315       
882             	184343.777        	8245638.645       
883             	184351.067        	8245626.635       
884             	184380.067        	8245594.385       
885             	184341.187        	8245642.915       
886             	184297.167        	8245708.725       
887             	184370.618        	8245252.935       
888             	184378.118        	8245243.095       
889             	184482.028        	8245369.235       
890             	184494.438        	8245377.665       
891             	184410.552        	8245185.247       
892             	184437.948        	8245203.665       
893             	184478.762        	8245085.287       
894             	184384.088        	8245264.705       
895             	184427.221        	8245305.020       
896             	184428.168        	8245305.905       
897             	184351.058        	8245236.075       
898             	184414.358        	8245340.185       
899             	184384.858        	8245370.535       
900             	184312.928        	8245304.305       
901             	184294.858        	8245323.875       
902             	184396.628        	8245492.865       
903             	184497.488        	8245267.305       
904             	184531.948        	8245290.875       
905             	184453.148        	8245329.885       
906             	184485.918        	8245360.865       
907             	184429.608        	8245307.405       
908             	184468.628        	8245247.715       
909             	184454.239        	8245269.725       
910             	184418.408        	8245214.485       
911             	184459.018        	8245171.685       
912             	184482.158        	8245136.725       
913             	184452.728        	8245117.455       
914             	183769.097        	8245530.325       
915             	183765.957        	8245528.345       
916             	183757.487        	8245522.895       
917             	183750.167        	8245517.665       
918             	183628.687        	8245422.105       
919             	183897.248        	8245421.768       
920             	183866.137        	8245424.555       
921             	183844.287        	8245433.835       
922             	183837.027        	8245437.295       
923             	183829.417        	8245441.725       
924             	183823.137        	8245445.785       
925             	183817.447        	8245450.535       
926             	183812.637        	8245454.745       
927             	183809.197        	8245458.435       
928             	183804.317        	8245464.235       
929             	183801.637        	8245468.645       
930             	183800.247        	8245471.205       
931             	183799.547        	8245473.985       
932             	183867.907        	8245370.475       
933             	183576.647        	8244705.284       
934             	183550.827        	8244686.664       
935             	183561.637        	8244730.364       
936             	183587.319        	8244572.631       
937             	183804.567        	8244768.794       
938             	183751.708        	8244680.683       
939             	184010.918        	8244688.284       
940             	184067.988        	8244603.884       
941             	183975.228        	8244664.514       
942             	183883.638        	8244602.884       
943             	183999.268        	8244629.564       
944             	184032.588        	8244580.197       
945             	183907.618        	8244567.104       
946             	183796.867        	8244645.364       
947             	183860.688        	8244636.334       
948             	183782.758        	8244635.876       
949             	183896.068        	8244584.014       
950             	183860.858        	8244560.054       
951             	183873.818        	8244539.014       
952             	183846.088        	8244520.124       
953             	183704.887        	8244502.014       
954             	183757.158        	8244425.844       
955             	183619.237        	8244434.050       
956             	183661.787        	8244372.114       
957             	183552.847        	8244390.384       
958             	183681.827        	8244428.824       
959             	183660.077        	8244460.984       
960             	180950.976        	8242743.471       
961             	184472.446        	8245081.084       
962             	181432.357        	8241979.121       
963             	181433.847        	8241978.760       
964             	181512.677        	8241798.101       
965             	181513.259        	8241796.275       
966             	184424.690        	8245221.342       
967             	183958.797        	8245678.265       
968             	183959.798        	8245679.842       
969             	184055.316        	8245618.189       
970             	183540.647        	8245410.104       
971             	183542.743        	8245409.837       
972             	181328.896        	8241810.312       
973             	181553.556        	8241798.850       
974             	181549.089        	8241801.083       
975             	182149.977        	8242948.242       
976             	182107.157        	8243026.564       
977             	181247.037        	8242068.243       
978             	181605.055        	8243095.648       
979             	181631.927        	8243110.082       
980             	181093.196        	8242627.431       
981             	181320.702        	8241800.838       
982             	181344.917        	8241782.101       
983             	181187.077        	8242250.939       
984             	181195.886        	8242255.730       
985             	184489.933        	8245062.893       
986             	184494.483        	8245056.978       
987             	184495.978        	8245055.035       
988             	181833.386        	8241753.559       
989             	181854.057        	8241753.190       
990             	180998.133        	8242766.569       
991             	181360.645        	8242746.842       
992             	181356.817        	8242744.751       
993             	183425.557        	8244611.604       
994             	184002.636        	8245474.421       
995             	184002.916        	8245473.638       
996             	184003.030        	8245473.043       
997             	182022.753        	8243450.802       
998             	181994.593        	8243507.877       
999             	181993.809        	8243509.278       
1000            	181992.667        	8243511.332       
1001            	181992.263        	8243512.072       
1002            	181454.127        	8242712.952       
1003            	181111.206        	8242829.441       
1004            	181223.766        	8242889.922       
1005            	182217.237        	8243582.883       
1006            	182170.067        	8243547.242       
1007            	182220.887        	8243610.033       
1008            	182226.327        	8243654.223       
1009            	182351.737        	8243640.163       
1010            	182355.025        	8243665.016       
1011            	182359.897        	8243702.193       
1012            	181543.226        	8243421.392       
1013            	181516.816        	8243424.132       
1014            	182027.407        	8243562.672       
1015            	181770.506        	8243500.632       
1016            	181769.016        	8243487.122       
1017            	181652.756        	8243472.792       
1018            	181672.656        	8243469.962       
1019            	181990.897        	8243731.603       
1020            	181978.087        	8243567.992       
1021            	181784.626        	8243499.242       
1022            	181777.417        	8243428.472       
1023            	181768.667        	8243342.572       
1024            	181656.986        	8243511.792       
1025            	181639.386        	8243356.002       
1026            	181552.426        	8243522.502       
1027            	181547.524        	8243468.628       
1028            	181619.943        	8243357.947       
1029            	181538.196        	8243366.122       
1030            	181689.186        	8243350.712       
1031            	181667.077        	8243966.848       
1032            	181678.559        	8243942.411       
1033            	181673.364        	8243892.380       
1034            	181660.954        	8243798.320       
1035            	181661.241        	8243800.224       
1036            	181662.262        	8243811.314       
1037            	182091.277        	8243733.423       
1038            	181991.827        	8243743.423       
1039            	181562.215        	8243467.462       
1040            	182051.612        	8243451.993       
1041            	182070.126        	8243462.109       
1042            	182072.995        	8243463.604       
1043            	180846.615        	8244496.163       
1044            	180846.925        	8244495.893       
1045            	180839.575        	8244487.993       
1046            	180846.521        	8244496.057       
1047            	181615.811        	8243224.000       
1048            	181486.473        	8243263.399       
1049            	181470.308        	8243254.780       
1050            	181443.786        	8243239.874       
1051            	181425.927        	8243230.497       
1052            	181411.326        	8243222.263       
1053            	181393.374        	8243212.438       
1054            	181378.095        	8243204.278       
1055            	181360.517        	8243194.647       
1056            	181519.950        	8243237.839       
1057            	181516.326        	8243235.957       
1058            	181448.138        	8243378.164       
1059            	181515.058        	8243245.024       
1060            	181511.610        	8243252.965       
1061            	181508.161        	8243260.906       
1062            	181504.747        	8243268.875       
1063            	181501.332        	8243276.844       
1064            	181496.614        	8243286.301       
1065            	181492.741        	8243294.013       
1066            	181485.098        	8243308.336       
1067            	181478.215        	8243321.234       
1068            	181474.632        	8243327.583       
1069            	181470.606        	8243334.716       
1070            	181544.032        	8243196.087       
1071            	181542.005        	8243199.651       
1072            	181536.826        	8243208.598       
1073            	181531.647        	8243217.545       
1074            	181528.245        	8243224.100       
1075            	181524.842        	8243230.654       
1076            	181438.494        	8243141.063       
1077            	181469.406        	8243851.010       
1078            	181476.823        	8243860.352       
1079            	180142.384        	8245152.585       
1080            	181456.579        	8243354.567       
1081            	181468.596        	8243332.937       
1082            	181471.932        	8243326.696       
1083            	181475.268        	8243320.454       
1084            	181201.216        	8243242.703       
1085            	181220.310        	8243253.279       
1086            	181235.481        	8243261.644       
1087            	181254.599        	8243271.734       
1088            	181274.133        	8243282.663       
1089            	181287.997        	8243290.337       
1090            	181303.263        	8243298.566       
1091            	181321.167        	8243308.346       
1092            	181338.563        	8243317.915       
1093            	181357.473        	8243328.134       
1094            	181373.925        	8243337.003       
1095            	181391.304        	8243346.592       
1096            	181404.892        	8243353.833       
1097            	181422.266        	8243363.809       
1098            	181440.292        	8243373.824       
1099            	181545.861        	8242448.434       
1100            	181530.727        	8242445.301       
1101            	181484.877        	8242570.611       
1102            	181529.305        	8242453.563       
1103            	181356.217        	8242568.781       
1104            	181334.857        	8242557.071       
1105            	181409.067        	8242569.531       
1106            	181028.827        	8242164.571       
1107            	181244.396        	8242567.191       
1108            	181133.936        	8242506.591       
1109            	181169.776        	8242552.931       
1110            	181171.006        	8242566.151       
1111            	181176.226        	8242556.591       
1112            	181194.056        	8242566.481       
1113            	181327.587        	8242552.321       
1114            	181320.317        	8242547.571       
1115            	181313.047        	8242542.821       
1116            	181306.041        	8242538.244       
1117            	181299.351        	8242533.206       
1118            	181292.667        	8242528.161       
1119            	181283.626        	8242521.339       
1120            	181274.822        	8242514.251       
1121            	181266.037        	8242507.101       
1122            	181256.594        	8242499.417       
1123            	181247.072        	8242491.820       
1124            	181238.447        	8242483.221       
1125            	181233.462        	8242478.252       
1126            	181228.875        	8242472.923       
1127            	181223.957        	8242467.901       
1128            	181214.723        	8242458.473       
1129            	181205.418        	8242449.112       
1130            	181196.227        	8242439.641       
1131            	181189.100        	8242432.298       
1132            	181181.973        	8242424.954       
1133            	181174.847        	8242417.611       
1134            	181165.877        	8242418.301       
1135            	181122.986        	8242494.801       
1136            	181124.296        	8242501.301       
1137            	181023.056        	8242272.931       
1138            	181069.857        	8242187.501       
1139            	181014.866        	8242386.641       
1140            	181105.047        	8242318.321       
1141            	181055.636        	8242408.911       
1142            	181143.627        	8242339.160       
1143            	181098.706        	8242432.431       
1144            	181139.701        	8242358.421       
1145            	181122.396        	8242527.291       
1146            	181573.973        	8241885.304       
1147            	181572.059        	8241931.563       
1148            	181574.292        	8241859.145       
1149            	181247.957        	8242101.031       
1150            	181831.307        	8241715.931       
1151            	181542.737        	8241715.181       
1152            	181524.147        	8241715.061       
1153            	181470.497        	8241715.971       
1154            	181449.907        	8241716.161       
1155            	181566.997        	8242003.997       
1156            	181795.832        	8242164.991       
1157            	181796.151        	8242127.347       
1158            	181443.857        	8241737.401       
1159            	181838.197        	8241723.981       
1160            	181799.551        	8241793.778       
1161            	181828.917        	8241795.694       
1162            	181842.962        	8241797.609       
1163            	181775.587        	8241792.391       
1164            	181773.157        	8241792.161       
1165            	181695.492        	8241784.841       
1166            	181476.631        	8242150.186       
1167            	181507.437        	8242186.047       
1168            	181103.029        	8241982.033       
1169            	181096.817        	8241982.311       
1170            	181550.437        	8241790.651       
1171            	181547.934        	8241791.522       
1172            	181435.912        	8241761.755       
1173            	181805.083        	8242182.857       
1174            	181805.818        	8242229.452       
1175            	181569.070        	8241999.374       
1176            	181563.126        	8241826.286       
1177            	181604.280        	8241801.721       
1178            	181603.961        	8241808.420       
1179            	181844.239        	8241851.234       
1180            	181661.704        	8241810.973       
1181            	181838.493        	8241746.537       
1182            	181798.912        	8241752.921       
1183            	181798.274        	8241763.774       
1184            	181507.794        	8241827.880       
1185            	181449.823        	8241981.200       
1186            	181521.654        	8241812.568       
1187            	181519.717        	8241800.451       
1188            	181432.897        	8241771.771       
1189            	181510.997        	8241756.551       
1190            	181364.547        	8241719.801       
1191            	181388.627        	8241715.761       
1192            	181347.877        	8241728.211       
1193            	181327.887        	8241744.731       
1194            	181374.507        	8241752.091       
1195            	181342.097        	8241759.691       
1196            	181427.897        	8241965.041       
1197            	181367.917        	8241994.151       
1198            	181384.957        	8241980.571       
1199            	181454.765        	8241994.273       
1200            	181531.224        	8241931.244       
1201            	181563.764        	8241931.244       
1202            	181574.930        	8241820.862       
1203            	181323.823        	8241742.911       
1204            	181367.899        	8241941.273       
1205            	181392.147        	8241837.821       
1206            	181370.537        	8241839.771       
1207            	181225.657        	8241815.771       
1208            	181198.717        	8241836.461       
1209            	181239.457        	8242041.141       
1210            	181148.407        	8241839.471       
1211            	181132.347        	8241825.031       
1212            	181080.747        	8242019.531       
1213            	181044.447        	8242001.021       
1214            	181070.037        	8241952.041       
1215            	181035.277        	8242019.531       
1216            	181083.697        	8242021.431       
1217            	181074.667        	8242038.621       
1218            	181675.242        	8242093.850       
1219            	181684.813        	8242095.126       
1220            	181666.309        	8242097.678       
1221            	181567.094        	8242054.291       
1222            	181456.200        	8241998.418       
1223            	181150.117        	8242035.521       
1224            	181124.317        	8242021.101       
1225            	181175.497        	8242083.771       
1226            	181180.187        	8242114.711       
1227            	181462.098        	8241998.736       
1228            	181389.547        	8242037.141       
1229            	181388.026        	8242034.021       
1230            	181117.107        	8242034.816       
1231            	181098.006        	8241947.323       
1232            	181386.587        	8242088.018       
1233            	181446.611        	8242032.522       
1234            	180973.606        	8242364.091       
1235            	180861.326        	8242390.041       
1236            	180857.996        	8242431.911       
1237            	180863.646        	8242549.571       
1238            	182244.877        	8243114.662       
1239            	182317.647        	8243154.082       
1240            	182294.627        	8243071.632       
1241            	182296.487        	8243068.242       
1242            	182274.438        	8243060.685       
1243            	182132.827        	8243079.662       
1244            	182138.097        	8243082.532       
1245            	182337.897        	8243116.942       
1246            	182337.017        	8243116.462       
1247            	182431.027        	8242946.202       
1248            	182438.207        	8242933.032       
1249            	182429.747        	8242945.502       
1250            	182100.947        	8243051.582       
1251            	182101.167        	8243036.692       
1252            	182101.517        	8243036.882       
1253            	182171.507        	8243157.262       
1254            	182192.167        	8243118.212       
1255            	182442.287        	8243161.102       
1256            	182474.917        	8243101.602       
1257            	182327.477        	8243159.472       
1258            	182104.667        	8242789.352       
1259            	182131.497        	8242796.022       
1260            	182103.387        	8242879.532       
1261            	182108.587        	8242880.882       
1262            	182168.317        	8242900.942       
1263            	182103.327        	8242884.242       
1264            	182610.327        	8243163.482       
1265            	182635.647        	8243139.162       
1266            	182601.247        	8243163.352       
1267            	182631.117        	8243134.672       
1268            	182529.247        	8243157.312       
1269            	182534.207        	8243162.402       
1270            	182101.147        	8243037.602       
1271            	182213.847        	8243124.562       
1272            	182276.327        	8243158.752       
1273            	182196.207        	8243157.612       
1274            	182392.197        	8243017.362       
1275            	182495.567        	8243108.822       
1276            	182490.317        	8243103.552       
1277            	182159.748        	8243094.360       
1278            	182188.358        	8243109.330       
1279            	182139.567        	8242797.842       
1280            	182191.107        	8242811.152       
1281            	182116.957        	8242883.062       
1282            	182169.397        	8242896.702       
1283            	182592.807        	8243096.062       
1284            	182524.957        	8243152.902       
1285            	182589.017        	8243091.452       
1286            	182488.577        	8243115.552       
1287            	182552.507        	8243054.042       
1288            	182546.567        	8243047.522       
1289            	182446.947        	8243073.132       
1290            	182441.157        	8243067.272       
1291            	182505.237        	8243005.562       
1292            	182404.507        	8243030.182       
1293            	182118.367        	8243046.132       
1294            	182242.697        	8242819.532       
1295            	182150.328        	8243113.437       
1296            	182157.014        	8243099.861       
1297            	182334.467        	8242855.342       
1298            	182325.957        	8242850.799       
1299            	182317.337        	8242846.195       
1300            	182308.717        	8242841.592       
1301            	182297.707        	8242835.712       
1302            	182285.808        	8242831.447       
1303            	182273.777        	8242828.122       
1304            	182263.417        	8242825.259       
1305            	182253.057        	8242822.395       
1306            	182561.270        	8243063.021       
1307            	182652.347        	8243545.023       
1308            	182947.777        	8243745.143       
1309            	182930.817        	8243735.713       
1310            	182820.767        	8243676.103       
1311            	182784.667        	8243742.843       
1312            	182827.227        	8243679.683       
1313            	182794.027        	8243742.973       
1314            	182873.807        	8243704.173       
1315            	182852.297        	8243743.803       
1316            	182737.337        	8243718.553       
1317            	182779.447        	8243742.773       
1318            	182650.557        	8243670.913       
1319            	182686.927        	8243690.443       
1320            	182682.657        	8243600.653       
1321            	182650.767        	8243656.343       
1322            	182858.787        	8243743.893       
1323            	182924.997        	8243732.483       
1324            	182918.307        	8243744.733       
1325            	182925.747        	8243744.833       
1326            	183019.777        	8243681.493       
1327            	182985.277        	8243745.673       
1328            	182658.667        	8243570.993       
1329            	182743.187        	8243414.223       
1330            	182745.847        	8243415.673       
1331            	183041.897        	8243693.143       
1332            	182771.627        	8243429.203       
1333            	182919.097        	8243509.893       
1334            	182747.837        	8243423.843       
1335            	182715.387        	8243483.553       
1336            	182776.017        	8243651.183       
1337            	182770.107        	8243647.223       
1338            	182982.227        	8243431.623       
1339            	182946.077        	8243497.763       
1340            	182783.757        	8243408.923       
1341            	182749.459        	8243402.775       
1342            	182726.377        	8243520.993       
1343            	182739.667        	8243501.133       
1344            	182737.727        	8243492.493       
1345            	182724.757        	8243623.133       
1346            	182813.177        	8243568.563       
1347            	182819.437        	8243571.823       
1348            	182732.887        	8243715.993       
1349            	182864.997        	8243596.993       
1350            	182871.137        	8243600.003       
1351            	182916.217        	8243624.833       
1352            	182702.167        	8243562.403       
1353            	182767.387        	8243543.713       
1354            	182967.557        	8243652.443       
1355            	182975.007        	8243656.923       
1356            	182416.437        	8243208.242       
1357            	182109.217        	8243270.082       
1358            	182097.587        	8243288.722       
1359            	182099.157        	8243178.102       
1360            	182117.657        	8243188.242       
1361            	182097.937        	8243263.922       
1362            	182613.697        	8243244.032       
1363            	182657.217        	8243201.082       
1364            	182657.357        	8243190.982       
1365            	182607.967        	8243238.132       
1366            	182571.537        	8243200.732       
1367            	182567.077        	8243196.152       
1368            	182479.927        	8243270.142       
1369            	182176.967        	8243193.652       
1370            	182587.647        	8243444.933       
1371            	182598.927        	8243424.383       
1372            	182653.627        	8243454.433       
1373            	182382.757        	8243430.992       
1374            	182419.897        	8243360.462       
1375            	182428.857        	8243357.802       
1376            	182425.157        	8243363.342       
1377            	182444.007        	8243334.442       
1378            	182441.857        	8243338.282       
1379            	182486.497        	8243257.782       
1380            	182128.997        	8243167.262       
1381            	182157.717        	8243183.342       
1382            	182638.677        	8243330.073       
1383            	182648.587        	8243280.602       
1384            	182384.027        	8243414.563       
1385            	182447.147        	8243336.278       
1386            	182573.920        	8243410.611       
1387            	182595.597        	8243422.553       
1388            	182629.057        	8243351.763       
1389            	182161.997        	8243326.232       
1390            	182134.867        	8243395.492       
1391            	182117.437        	8243301.392       
1392            	182170.487        	8243330.942       
1393            	182215.117        	8243355.142       
1394            	182180.057        	8243418.432       
1395            	182186.857        	8243421.522       
1396            	182233.437        	8243444.532       
1397            	182545.347        	8243421.713       
1398            	182508.177        	8243488.973       
1399            	182239.367        	8243341.792       
1400            	182275.777        	8243274.232       
1401            	182128.627        	8243281.112       
1402            	182165.647        	8243214.122       
1403            	182169.157        	8243216.042       
1404            	182180.477        	8243195.572       
1405            	182513.827        	8243492.043       
1406            	182642.597        	8243562.233       
1407            	182550.657        	8243424.633       
1408            	182636.777        	8243355.983       
1409            	182622.527        	8243652.053       
1410            	182651.367        	8243600.503       
1411            	182603.217        	8243567.463       
1412            	182571.137        	8243624.153       
1413            	182556.691        	8243401.175       
1414            	182596.347        	8243563.653       
1415            	181964.017        	8243481.252       
1416            	181968.406        	8243501.952       
1417            	183780.200        	8245655.598       
1418            	183777.541        	8245655.323       
1419            	184239.096        	8245655.826       
1420            	184382.150        	8245507.406       
1421            	184426.771        	8245461.484       
1422            	183880.556        	8245327.153       
1423            	183879.939        	8245344.473       
1424            	183882.040        	8245366.406       
1425            	183883.477        	8245372.823       
1426            	183890.214        	8245381.301       
1427            	183901.525        	8245394.780       
1428            	183911.691        	8245417.782       
1429            	183985.145        	8245466.793       
1430            	183984.913        	8245467.202       
1431            	183912.028        	8245418.566       
1432            	183912.764        	8245420.871       
1433            	183918.840        	8245426.405       
1434            	183927.372        	8245435.317       
1435            	183939.432        	8245446.414       
1436            	183954.736        	8245454.017       
1437            	183979.883        	8245465.592       
1438            	183982.282        	8245466.601       
1439            	183983.013        	8245466.908       
1440            	183984.681        	8245467.610       
1441            	183911.215        	8245417.995       
1442            	184050.679        	8245494.631       
1443            	184051.537        	8245495.218       
1444            	184052.394        	8245495.805       
PM.VRP.CND.004  	183552.007        	8244620.330       
1446            	183547.879        	8244626.229       
1447            	183701.768        	8244395.238       
1448            	183706.970        	8244398.226       
1449            	183654.947        	8244468.634       
1450            	183658.883        	8244471.215       
1451            	183791.520        	8244448.311       
1452            	183735.767        	8244607.524       
1453            	183735.246        	8244608.277       
1454            	183739.650        	8244601.989       
1455            	183705.467        	8244652.184       
1456            	183984.508        	8244551.514       
1457            	183815.828        	8244499.616       
1458            	183753.665        	8244423.665       
1459            	181978.078        	8243514.712       
1460            	181970.630        	8243525.212       
1461            	181969.047        	8243540.062       
1462            	181971.314        	8243514.695       
1463            	181970.409        	8243514.721       
1464            	181969.723        	8243514.746       
1465            	182598.097        	8243727.688       
1466            	182600.146        	8243723.888       
1467            	182601.926        	8243720.587       
1468            	182635.473        	8243658.692       
1469            	181697.192        	8243762.240       
1470            	182593.842        	8243738.383       
1471            	182594.317        	8243734.573       
1472            	181437.696        	8243580.282       
1473            	181441.177        	8243579.987       
1474            	182638.353        	8243653.499       
1475            	181437.906        	8243582.672       
1476            	181437.305        	8243576.067       
1477            	181444.796        	8243579.682       
1478            	182031.706        	8243438.242       
1479            	183944.836        	8245013.812       
1480            	183956.832        	8245016.836       
1481            	183993.705        	8244949.103       
1482            	183981.389        	8244965.299       
1483            	183968.855        	8244981.874       
1484            	183964.642        	8244989.160       
1485            	183961.860        	8244998.830       
1486            	183957.613        	8245017.041       
1487            	183942.002        	8244898.674       
1488            	183941.478        	8244899.176       
1489            	183509.162        	8244605.978       
1490            	183511.182        	8244607.205       
1491            	183526.963        	8244617.110       
1492            	183539.469        	8244625.058       
1493            	183613.143        	8244674.903       
1494            	183612.829        	8244675.452       
1495            	180995.476        	8242257.971       
1496            	180994.516        	8242325.551       
1497            	180993.806        	8242375.131       
1498            	180864.436        	8242564.361       
1499            	180864.296        	8242561.781       
1500            	180888.826        	8242553.771       
1501            	180904.196        	8242562.351       
1502            	180990.456        	8242610.531       
1503            	181037.316        	8242636.701       
1504            	181082.296        	8242554.891       
1505            	180991.956        	8242505.361       
1506            	181093.160        	8242493.080       
1507            	181093.106        	8242493.051       
1508            	181082.136        	8242487.061       
1509            	180875.216        	8242374.141       
1510            	180869.460        	8242370.999       
1511            	180869.404        	8242370.968       
1512            	181093.486        	8242492.351       
1513            	180992.926        	8242437.471       
1514            	181076.706        	8242564.811       
1515            	180992.016        	8242145.798       
1516            	180997.037        	8242148.361       
1517            	181101.286        	8242565.161       
1518            	183452.437        	8244594.724       
1519            	183470.660        	8244595.161       
1520            	183491.754        	8244595.784       
1521            	181865.675        	8241753.181       
1522            	180936.296        	8242732.661       
PM.VRP.NBN.003  	180877.781        	8242595.677       
1524            	182031.255        	8243440.035       
1525            	182032.589        	8243440.769       
1526            	182035.625        	8243442.568       
1527            	182046.614        	8243449.078       
1528            	182049.244        	8243450.423       
1529            	182029.287        	8243439.176       
1530            	182116.684        	8243487.464       
1531            	182134.318        	8243497.112       
1532            	182146.615        	8243503.867       
1533            	182166.233        	8243514.388       
1534            	182183.777        	8243523.826       
1535            	182201.592        	8243533.378       
1536            	182220.421        	8243543.301       
1537            	182244.396        	8243555.905       
1538            	182261.956        	8243564.985       
1539            	182279.994        	8243574.711       
1540            	182302.232        	8243586.470       
1541            	182318.336        	8243594.985       
1542            	182337.654        	8243605.217       
1543            	182356.580        	8243615.291       
1544            	182374.809        	8243624.989       
1545            	182393.602        	8243635.094       
1546            	182411.765        	8243644.667       
1547            	182430.514        	8243654.582       
1548            	182449.856        	8243664.765       
1549            	182547.748        	8243716.875       
1550            	182569.617        	8243728.516       
1551            	182588.246        	8243738.365       
1552            	182592.952        	8243740.609       
1553            	183033.277        	8243976.855       
1554            	183031.161        	8243977.357       
1555            	183020.131        	8243965.421       
1556            	183032.229        	8243975.790       
1557            	183047.535        	8243987.889       
1558            	183061.244        	8243997.140       
1559            	183075.248        	8244004.059       
1560            	183098.117        	8244014.884       
1561            	183109.828        	8244028.580       
1562            	183122.234        	8244043.725       
1563            	183135.818        	8244060.045       
1564            	183184.521        	8244128.346       
1565            	183239.138        	8244234.206       
1566            	183248.273        	8244251.855       
1567            	183256.888        	8244269.629       
1568            	183264.721        	8244288.556       
1569            	183270.378        	8244303.413       
1570            	183279.201        	8244326.791       
1571            	183286.442        	8244345.529       
1572            	183293.739        	8244364.845       
1573            	183301.209        	8244384.736       
1574            	183308.523        	8244404.252       
1575            	183313.516        	8244417.030       
1576            	182644.559        	8243768.027       
1577            	182704.355        	8243794.984       
1578            	182812.007        	8243843.516       
1579            	182912.441        	8243888.795       
1580            	182595.567        	8243732.203       
1581            	183332.467        	8244561.964       
1582            	183330.765        	8244618.871       
1583            	183352.687        	8244659.894       
1584            	183364.767        	8244697.394       
1585            	183448.067        	8245230.524       
1586            	183454.147        	8245272.634       
1587            	183460.907        	8245317.274       
1588            	183466.957        	8245358.584       
1589            	183472.187        	8245394.204       
1590            	183473.587        	8245403.324       
1591            	183481.717        	8245456.424       
1592            	183483.727        	8245468.104       
1593            	183489.097        	8245499.195       
1594            	183496.567        	8245542.355       
1595            	181347.092        	8243552.059       
1596            	181362.691        	8243563.866       
1597            	181377.482        	8243576.727       
1598            	181389.509        	8243575.386       
1599            	181409.596        	8243572.897       
1600            	181429.488        	8243570.728       
1601            	181433.259        	8243570.385       
1602            	181949.379        	8243515.151       
1603            	181929.252        	8243516.691       
1604            	181910.920        	8243518.941       
1605            	181891.953        	8243521.084       
1606            	181872.042        	8243523.501       
1607            	181851.590        	8243525.534       
1608            	181832.681        	8243527.738       
1609            	181812.605        	8243529.518       
1610            	181791.410        	8243531.875       
1611            	181771.329        	8243533.653       
1612            	181750.466        	8243535.659       
1613            	181736.654        	8243537.776       
1614            	181712.283        	8243540.660       
1615            	181694.138        	8243542.602       
1616            	181678.380        	8243544.057       
1617            	181652.703        	8243546.561       
1618            	181633.118        	8243547.920       
1619            	181609.146        	8243550.668       
1620            	181590.974        	8243552.415       
1621            	181571.107        	8243554.043       
1622            	181550.829        	8243557.102       
1623            	181532.858        	8243559.255       
1624            	181512.181        	8243561.944       
1625            	181491.317        	8243564.024       
1626            	181471.633        	8243566.145       
1627            	181451.256        	8243568.542       
1628            	182404.703        	8243754.055       
1629            	182403.185        	8243754.362       
1630            	182565.457        	8243620.603       
1631            	182552.307        	8243539.893       
1632            	182518.407        	8243595.463       
1633            	182513.437        	8243592.853       
1634            	182544.907        	8243535.843       
1635            	182498.297        	8243511.023       
1636            	182464.817        	8243567.673       
1637            	182491.457        	8243506.233       
1638            	182457.907        	8243565.343       
1639            	182976.867        	8243761.323       
1640            	182939.137        	8243829.293       
1641            	182836.597        	8243772.723       
1642            	182841.487        	8243775.273       
1643            	182887.547        	8243801.053       
1644            	182892.697        	8243804.373       
1645            	181729.207        	8242694.802       
1646            	181735.967        	8242696.602       
1647            	181705.377        	8242688.452       
1648            	181729.785        	8242978.248       
1649            	181728.918        	8242979.955       
1650            	181558.037        	8242995.542       
1651            	181690.977        	8243150.442       
1652            	181689.447        	8243149.612       
1653            	181635.647        	8242908.502       
1654            	181620.978        	8242900.698       
1655            	181545.297        	8242859.372       
1656            	181548.577        	8242628.211       
1657            	181943.567        	8243092.912       
1658            	181911.157        	8243153.572       
1659            	181902.877        	8243153.452       
1660            	181938.007        	8243089.872       
1661            	181855.057        	8243131.192       
1662            	181893.727        	8243153.322       
1663            	181578.117        	8242980.102       
1664            	181548.957        	8242876.622       
1665            	181544.947        	8242884.032       
1666            	181545.077        	8242874.492       
1667            	181844.442        	8243152.562       
1668            	181844.707        	8243152.632       
1669            	181767.527        	8243110.092       
1670            	181745.477        	8243151.222       
1671            	181691.687        	8243142.782       
1672            	181705.807        	8243150.662       
1673            	181542.416        	8243061.852       
1674            	181580.527        	8243082.942       
1675            	181542.957        	8243024.122       
1676            	181543.467        	8242987.692       
1677            	181547.097        	8242732.872       
1678            	181649.887        	8242789.462       
1679            	181548.377        	8242642.382       
1680            	182081.957        	8242783.702       
1681            	182070.557        	8242870.992       
1682            	181914.617        	8242835.772       
1683            	182090.977        	8243057.522       
1684            	181553.387        	8242763.122       
1685            	181546.717        	8242759.482       
1686            	181546.487        	8242775.842       
1687            	181565.527        	8242859.092       
1688            	181545.457        	8242848.082       
1689            	181559.027        	8242765.412       
1690            	181546.297        	8242789.052       
1691            	181905.157        	8243056.132       
1692            	182007.147        	8243100.772       
1693            	182019.157        	8243107.312       
1694            	182003.127        	8243109.792       
1695            	182093.819        	8243064.820       
1696            	182016.282        	8243112.601       
1697            	182014.437        	8243115.992       
1698            	182096.643        	8243034.206       
1699            	182054.337        	8243138.062       
1700            	182095.187        	8243059.812       
1701            	181614.487        	8242912.782       
1702            	181772.347        	8242882.622       
1703            	181767.497        	8242879.962       
1704            	181738.817        	8242932.892       
1705            	181744.507        	8242935.982       
1706            	181942.137        	8242975.612       
1707            	181653.937        	8242817.772       
1708            	181693.777        	8242813.922       
1709            	181699.157        	8242804.322       
1710            	181891.027        	8243064.182       
1711            	181848.470        	8243128.345       
1712            	181801.967        	8243102.622       
1713            	181885.767        	8243061.292       
1714            	181838.037        	8243035.172       
1715            	181795.997        	8243099.322       
1716            	181832.557        	8243032.172       
1717            	181787.467        	8243007.492       
1718            	181750.317        	8243074.382       
1719            	181781.067        	8243003.992       
1720            	181744.467        	8243070.862       
1721            	181736.528        	8242979.650       
1722            	181698.347        	8243046.442       
1723            	182069.337        	8243019.202       
1724            	181730.798        	8242976.520       
1725            	181693.547        	8243043.012       
1726            	181729.047        	8242975.522       
1727            	181677.347        	8242947.232       
1728            	181640.847        	8243014.362       
1729            	181575.617        	8242891.332       
1730            	181613.935        	8242912.485       
1731            	181723.097        	8243085.802       
1732            	181716.807        	8243082.612       
1733            	181685.287        	8243139.192       
1734            	181670.497        	8243057.682       
1735            	181639.717        	8243113.842       
1736            	181664.067        	8243053.912       
1737            	181618.837        	8243028.912       
1738            	181585.307        	8243085.052       
1739            	181611.677        	8243025.252       
1740            	182059.497        	8242868.112       
1741            	182073.937        	8242782.142       
1742            	182051.187        	8242865.952       
1743            	182023.727        	8242770.042       
1744            	182003.247        	8242853.482       
1745            	182017.187        	8242767.872       
1746            	181994.457        	8242851.192       
1747            	181965.947        	8242755.612       
1748            	181943.637        	8242837.972       
1749            	181960.157        	8242753.682       
1750            	181935.967        	8242836.182       
1751            	181908.987        	8242740.362       
1752            	181887.337        	8242822.532       
1753            	181901.727        	8242738.482       
1754            	181880.027        	8242820.542       
1755            	181851.337        	8242725.892       
1756            	181830.087        	8242806.982       
1757            	181844.487        	8242724.302       
1758            	181823.037        	8242805.072       
1759            	181793.567        	8242711.682       
1760            	181772.507        	8242791.842       
1761            	181788.617        	8242709.662       
1762            	181765.747        	8242790.102       
1763            	181714.597        	8242775.612       
1764            	181711.887        	8242782.542       
1765            	181603.437        	8242790.472       
1766            	181601.896        	8242793.260       
1767            	181609.366        	8242797.328       
1768            	181573.007        	8242863.182       
1769            	181616.977        	8242887.302       
1770            	181610.617        	8242795.062       
1771            	181626.149        	8242892.234       
1772            	181903.507        	8243043.942       
1773            	181948.677        	8243068.772       
1774            	181986.107        	8243000.152       
1775            	181955.077        	8243072.432       
1776            	181993.017        	8243003.882       
1777            	182037.657        	8243028.422       
1778            	182000.157        	8243096.972       
1779            	182045.007        	8243032.522       
1780            	182052.007        	8243125.182       
1781            	181508.124        	8242941.476       
1782            	181510.887        	8242936.142       
1783            	181508.417        	8242934.812       
1784            	181458.139        	8242615.929       
1785            	181457.517        	8242617.351       
1786            	181460.000        	8242620.927       
1787            	181456.590        	8242619.506       
1788            	181454.036        	8242618.455       
1789            	181452.969        	8242616.754       
1790            	181454.700        	8242617.541       
1791            	181457.107        	8242618.492       
1792            	181456.960        	8242618.722       
1793            	181453.884        	8242614.418       
1794            	181452.055        	8242613.470       
1795            	181446.305        	8242611.208       
1796            	181391.157        	8242587.941       
1797            	181455.816        	8242615.186       
1798            	181455.257        	8242614.991       
1799            	181386.037        	8242597.751       
1800            	181471.867        	8242606.171       
1801            	181348.776        	8242767.492       
1802            	181348.056        	8242768.812       
1803            	181102.556        	8242719.651       
1804            	181091.276        	8242740.521       
1805            	181011.466        	8242777.231       
1806            	181418.077        	8242654.341       
1807            	181418.609        	8242653.389       
1808            	181407.787        	8242648.311       
1809            	181403.647        	8242654.561       
1810            	181398.087        	8242681.161       
1811            	181425.737        	8242665.521       
1812            	181363.063        	8242746.394       
1813            	181527.416        	8243053.552       
1814            	181536.516        	8243058.582       
1815            	181512.557        	8242943.872       
1816            	181540.867        	8242872.182       
1817            	181536.729        	8243058.700       
1818            	181355.080        	8242772.760       
1819            	181514.047        	8242971.822       
1820            	181427.337        	8242666.951       
1822            	181432.203        	8242669.615       
1823            	181138.716        	8242625.331       
1824            	181222.596        	8242582.301       
1825            	180995.166        	8242765.131       
1826            	181019.656        	8242704.351       
1827            	181505.547        	8242737.052       
1828            	181516.046        	8242831.893       
1829            	181521.557        	8242834.982       
1830            	181439.996        	8242931.142       
1831            	181455.106        	8242939.342       
1832            	181451.446        	8242910.262       
1833            	181346.756        	8242766.392       
1834            	181488.117        	8242843.372       
1835            	181472.887        	8242922.202       
1836            	181461.307        	8242915.852       
1837            	181084.406        	8242595.441       
1838            	181024.186        	8242677.321       
1839            	181039.756        	8242685.721       
1840            	181057.226        	8242695.151       
1841            	181027.066        	8242708.511       
1842            	181461.516        	8242943.162       
1843            	181178.466        	8242658.461       
1844            	181139.837        	8242641.981       
1845            	181357.832        	8242755.252       
1846            	181361.734        	8242748.377       
1847            	181454.267        	8242809.702       
1848            	181511.555        	8242840.188       
1849            	181040.856        	8242787.281       
1850            	181497.837        	8242848.712       
1851            	181505.657        	8242940.142       
1852            	181482.406        	8243028.782       
1853            	181475.746        	8243024.972       
1854            	181507.187        	8242967.672       
1855            	181430.486        	8243000.372       
1856            	181428.983        	8242663.894       
1857            	181453.721        	8242619.012       
1858            	181454.286        	8242617.967       
1859            	181455.724        	8242615.344       
1860            	181034.606        	8242641.781       
1861            	181394.827        	8242676.541       
1862            	181406.277        	8242656.001       
1863            	181185.136        	8242650.871       
1864            	181059.826        	8242609.261       
1865            	181110.006        	8242723.721       
1866            	181146.146        	8242656.371       
1867            	181139.446        	8242652.731       
1868            	181190.756        	8242680.671       
1869            	181155.376        	8242748.531       
1870            	181197.106        	8242684.131       
1871            	181161.026        	8242751.651       
1872            	181243.556        	8242709.671       
1873            	181206.896        	8242776.671       
1874            	181213.086        	8242780.331       
1875            	181248.456        	8242712.361       
1876            	181295.916        	8242738.451       
1877            	181258.986        	8242805.571       
1878            	181301.586        	8242741.571       
1879            	181265.196        	8242808.962       
1880            	181310.036        	8242832.822       
1881            	181073.156        	8242730.761       
1882            	181048.016        	8242790.771       
1883            	181079.396        	8242734.101       
1884            	181093.966        	8242816.561       
1885            	181125.806        	8242759.191       
1886            	181131.986        	8242762.771       
1887            	181100.146        	8242820.041       
1888            	181177.256        	8242788.031       
1889            	181144.946        	8242845.251       
1890            	181152.996        	8242848.431       
1891            	181184.016        	8242791.321       
1892            	181197.906        	8242873.272       
1893            	181229.836        	8242816.671       
1894            	181305.976        	8242857.972       
1895            	181275.376        	8242915.252       
1896            	181352.826        	8242883.272       
1897            	181319.316        	8242939.282       
1898            	181326.236        	8242943.042       
1899            	181357.336        	8242886.742       
1900            	181403.276        	8242911.322       
1901            	181371.716        	8242967.802       
1902            	181409.236        	8242914.442       
1903            	181378.746        	8242971.632       
1904            	181423.986        	8242995.892       
1905            	181229.896        	8242586.261       
1906            	181191.616        	8242654.441       
1907            	181401.877        	8242680.621       
1908            	181364.787        	8242749.112       
1909            	181447.697        	8242706.292       
1910            	181419.900        	8242690.719       
1911            	181410.767        	8242774.312       
1912            	181416.667        	8242777.532       
1913            	181446.360        	8242708.753       
1914            	181446.360        	8242708.753       
1915            	181454.917        	8242709.592       
1916            	181453.282        	8242712.495       
1917            	181499.367        	8242733.632       
1918            	181462.547        	8242802.672       
1919            	181468.817        	8242806.102       
1920            	182096.887        	8243338.202       
1921            	182084.513        	8243360.429       
1922            	181741.467        	8243178.072       
1923            	182096.667        	8243290.202       
1924            	181958.887        	8243187.972       
1925            	181952.938        	8243183.236       
1926            	181907.607        	8243160.212       
1927            	181900.737        	8243157.332       
1928            	181810.717        	8243208.482       
1929            	181736.577        	8243167.812       
1930            	182081.877        	8243368.492       
1931            	182080.397        	8243367.742       
1932            	181857.007        	8243233.772       
1933            	182055.537        	8243349.754       
1934            	182059.727        	8243352.082       
1935            	182021.617        	8243323.682       
1936            	182058.696        	8243343.964       
1937            	181952.277        	8243184.412       
1938            	182053.317        	8243267.042       
1939            	182045.557        	8243262.432       
1940            	181853.937        	8243239.522       
1941            	182065.367        	8243347.612       
1942            	182014.047        	8243318.982       
1943            	181533.896        	8243063.202       
1944            	181532.699        	8243065.830       
1945            	181388.746        	8242982.372       
1946            	181626.752        	8242891.128       
1947            	181613.327        	8242913.482       
1948            	182072.557        	8243359.652       
1949            	182073.137        	8243358.472       
1950            	181418.297        	8242693.581       
1951            	182034.234        	8243430.058       
1952            	181697.753        	8242803.538       
1953            	182070.946        	8242869.408       
1954            	181634.881        	8242909.951       
1955            	181452.764        	8242613.809       
1956            	181457.587        	8242602.575       
1957            	181742.292        	8243176.650       
1958            	181753.131        	8242688.674       
1959            	182527.371        	8243030.343       
1960            	182107.757        	8243297.682       
1961            	181431.537        	8242669.931       
1962            	181431.352        	8242670.271       
1963            	181418.390        	8242693.414       
1964            	182918.284        	8243511.299       
1965            	184296.929        	8245325.539       
1966            	182897.576        	8243977.080       
1967            	182872.970        	8243984.934       
1968            	182859.730        	8243987.773       
1969            	182842.139        	8243992.693       
1970            	182826.819        	8243999.506       
1971            	183472.007        	8245403.540       
1972            	181102.088        	8244537.559       
1973            	183769.015        	8245241.877       
1974            	184379.394        	8245193.253       
1975            	183975.827        	8245094.824       
1976            	184017.157        	8245122.824       
1977            	184043.527        	8245140.784       
1978            	184078.267        	8245161.255       
1979            	184095.887        	8245179.075       
1980            	184099.510        	8245179.473       
1981            	184238.849        	8244977.191       
1982            	184076.239        	8244989.416       
1983            	184229.800        	8245089.637       
1984            	184193.265        	8245064.586       
1985            	184206.788        	8245125.355       
1986            	184227.838        	8245139.595       
1987            	184213.058        	8245161.105       
1988            	184327.808        	8245205.305       
1989            	184216.818        	8245009.384       
1990            	184194.478        	8245042.664       
1991            	184095.088        	8244976.284       
1992            	184058.925        	8244969.584       
1993            	183742.997        	8244850.964       
1994            	183538.067        	8244682.764       
1995            	183515.847        	8244667.544       
1996            	181418.966        	8243870.102       
1997            	181390.543        	8243844.244       
1998            	181675.889        	8243831.691       
1999            	181939.422        	8243800.778       
2000            	181617.231        	8243333.006       
2001            	181663.806        	8243353.312       
2002            	181663.647        	8243349.621       
2003            	182085.745        	8243361.139       
2004            	182084.598        	8243363.290       
2005            	181855.084        	8243237.346       
2006            	181951.522        	8243182.482       
2007            	181902.590        	8243060.753       
2008            	181452.339        	8242813.218       
2009            	181516.046        	8242831.893       
2010            	182460.788        	8243567.517       
2011            	182651.227        	8243584.353       
2012            	182127.493        	8243291.081       
2013            	182143.098        	8243085.282       
2014            	182425.404        	8242921.772       
2015            	182412.601        	8242910.512       
2016            	182399.797        	8242899.252       
2017            	182388.813        	8242889.592       
2018            	182378.143        	8242879.128       
2019            	182365.297        	8242872.132       
2020            	182355.020        	8242866.535       
2021            	182344.744        	8242860.939       
2022            	182986.625        	8243429.459       
2023            	181390.328        	8242086.721       
2024            	181436.429        	8242023.171       
2025            	181424.184        	8241966.419       
2026            	181385.511        	8242085.052       
2027            	181372.788        	8242044.925       
2028            	181600.771        	8241780.028       
2029            	181563.445        	8241794.703       
2030            	181231.878        	8241989.915       
2031            	183884.847        	8244998.774       
2032            	184061.301        	8244966.185       
2033            	183686.766        	8244680.312       
2034            	180121.093        	8245172.403       
2035            	184023.366        	8245481.417       
2036            	184027.677        	8245477.386       
2037            	183670.747        	8245120.264       
2038            	183702.967        	8245115.684       
2039            	183803.543        	8245253.589       
2040            	183769.521        	8245245.238       
2041            	183720.269        	8245232.138       
2042            	183856.647        	8245292.165       
2043            	183982.457        	8245147.504       
2044            	184037.347        	8245184.055       
2045            	184062.037        	8245198.275       
2046            	184076.257        	8245204.965       
2047            	184253.448        	8245059.195       
2048            	184264.328        	8245041.965       
2049            	183561.837        	8244670.804       
2050            	181381.739        	8242021.541       
2051            	181118.396        	8242443.181       
2052            	181086.446        	8242508.051       
2053            	181152.171        	8242236.391       
2054            	181102.106        	8242518.441       
2055            	181260.467        	8241856.531       
2056            	181318.765        	8241802.671       
2057            	181251.648        	8241846.660       
2058            	181206.874        	8241927.553       
2059            	181188.402        	8241837.101       
2060            	181173.196        	8241849.034       
2061            	181172.797        	8241849.351       
2062            	181274.143        	8241770.682       
2063            	181278.917        	8241766.621       
2064            	181265.587        	8241785.811       
2065            	181270.027        	8241773.711       
2066            	182052.661        	8244555.261       
2067            	182047.859        	8244545.840       
2068            	183653.227        	8245390.645       
2069            	182301.147        	8243070.762       
2070            	182299.027        	8243074.012       
2071            	182671.897        	8243177.102       
2072            	182709.127        	8243484.913       
2073            	182691.777        	8243475.383       
2074            	182652.027        	8243567.373       
2075            	182656.187        	8243273.232       
2076            	182712.167        	8243219.012       
2077            	182655.977        	8243288.352       
2078            	182659.407        	8243291.942       
2079            	182677.017        	8243181.542       
2080            	182713.027        	8243370.813       
2081            	182714.529        	8243368.108       
2082            	182654.877        	8243365.893       
2083            	182720.417        	8243226.462       
2084            	182754.437        	8243393.683       
2085            	182815.127        	8243349.390       
2086            	182818.977        	8243342.083       
2087            	182924.187        	8243732.083       
2088            	182598.357        	8243424.073       
2089            	182633.447        	8243354.163       
2090            	182632.874        	8243344.772       
2091            	182631.167        	8243656.759       
2092            	182655.837        	8243298.512       
2093            	182644.337        	8243667.573       
2094            	183256.737        	8244585.154       
2095            	183195.927        	8244593.864       
2096            	183771.655        	8244652.071       
2097            	183504.127        	8244436.864       
2098            	183500.507        	8244434.354       
2099            	183426.530        	8244127.477       
2100            	183446.907        	8244141.847       
2101            	183467.149        	8244160.825       
2102            	183325.930        	8244068.258       
2103            	183489.626        	8244197.889       
2104            	183622.867        	8244514.914       
2105            	183589.127        	8244493.594       
2106            	183555.647        	8244471.524       
2107            	183522.257        	8244449.424       
2108            	183508.877        	8244429.704       
2109            	183938.698        	8244520.904       
2110            	184113.588        	8244889.474       
2111            	182811.572        	8244008.293       
2112            	182910.717        	8244049.853       
2113            	182914.297        	8244055.633       
2114            	182490.847        	8243952.043       
2115            	182482.047        	8243865.073       
2116            	182367.987        	8243969.623       
2117            	182292.067        	8243974.813       
2118            	182242.407        	8244051.473       
2119            	182207.987        	8244143.933       
2120            	182182.647        	8244039.963       
2121            	182961.907        	8244625.874       
2122            	181586.206        	8243278.242       
2123            	182167.647        	8243986.453       
2124            	182092.356        	8243996.053       
2125            	182025.167        	8243547.182       
2126            	181778.685        	8243440.922       
2127            	181764.566        	8243442.412       
2128            	181200.994        	8243122.291       
2129            	181763.286        	8243429.622       
2130            	181918.597        	8243406.482       
2131            	181800.277        	8243339.542       
2132            	181974.887        	8243539.392       
2133            	181975.020        	8243540.553       
2134            	181977.897        	8243565.552       
2135            	181690.376        	8243362.532       
2136            	181626.644        	8244173.415       
2137            	182050.708        	8244544.381       
2138            	182002.154        	8244442.957       
2139            	181974.646        	8244385.543       
2140            	182090.538        	8243785.697       
2141            	181649.021        	8244153.433       
2142            	181633.175        	8244048.106       
2143            	184386.502        	8245025.517       
2144            	184483.984        	8245060.725       
2145            	184349.826        	8245172.414       
2146            	184348.918        	8245173.805       
2147            	184440.587        	8245260.317       
2148            	184533.885        	8245292.208       
2149            	184341.368        	8245092.625       
2150            	183402.697        	8244908.644       
2151            	184552.878        	8245234.875       
2152            	184540.068        	8245273.885       
2153            	183814.292        	8245085.860       
2154            	183903.791        	8245075.242       
2155            	183809.836        	8245057.802       
2156            	183806.789        	8245036.896       
2157            	183750.867        	8245360.845       
2158            	183896.801        	8245025.652       
2159            	183897.579        	8245031.601       
2160            	183902.354        	8245064.258       
2161            	183864.433        	8245028.641       
2162            	183868.506        	8245028.450       
2163            	183879.270        	8245027.945       
2164            	183890.256        	8245026.508       
2165            	183824.597        	8245034.692       
2166            	183480.297        	8244986.034       
2167            	183494.597        	8245047.064       
2168            	183510.297        	8245105.434       
2169            	183517.757        	8245164.134       
2170            	183737.627        	8245355.435       
2171            	183542.017        	8245422.024       
2172            	183470.491        	8244933.125       
2173            	184153.868        	8245132.230       
2174            	184146.071        	8245142.127       
2175            	184316.828        	8245127.775       
2176            	184242.668        	8245076.275       
2177            	184241.968        	8245051.295       
2178            	184050.947        	8245398.475       
2179            	184070.267        	8245401.765       
2180            	184086.847        	8245403.135       
2181            	184103.277        	8245403.955       
2182            	184119.307        	8245404.505       
2183            	184132.457        	8245404.095       
2184            	184140.817        	8245403.545       
2185            	184144.947        	8245402.615       
2186            	183962.517        	8245789.945       
2187            	184012.407        	8245757.615       
2188            	184054.857        	8245730.015       
2189            	184092.257        	8245705.475       
2190            	184118.467        	8245688.605       
2191            	184138.077        	8245675.725       
2192            	184161.847        	8245657.275       
2193            	184180.117        	8245639.985       
2194            	183897.017        	8245767.075       
2195            	183964.247        	8245724.735       
2196            	184043.507        	8245672.105       
2197            	184094.057        	8245639.095       
2198            	184121.877        	8245617.705       
2199            	184141.197        	8245600.585       
2200            	184144.497        	8245597.465       
2201            	183663.527        	8245073.524       
2202            	183659.817        	8245046.084       
2203            	183658.137        	8245021.364       
2204            	183659.397        	8244997.904       
2205            	183662.757        	8244979.884       
2206            	183617.097        	8245080.464       
2207            	183612.577        	8245051.114       
2208            	183610.907        	8245020.934       
2209            	183612.577        	8244997.484       
2210            	183615.727        	8244977.174       
2211            	183620.337        	8244960.224       
2212            	183696.387        	8245069.504       
2213            	183692.777        	8245043.334       
2214            	183691.937        	8245027.834       
2215            	183691.937        	8245005.214       
2216            	183694.457        	8244988.874       
2217            	184157.568        	8245134.585       
2218            	183591.777        	8244944.664       
2219            	183587.587        	8244954.704       
2220            	183580.047        	8244984.814       
2221            	183577.117        	8245017.434       
2222            	183578.787        	8245052.984       
2223            	183584.937        	8245085.034       
2224            	184053.467        	8245362.955       
2225            	184078.297        	8245367.285       
2226            	184098.347        	8245368.425       
2227            	184141.267        	8245367.985       
2228            	184074.537        	8245322.085       
2229            	184098.377        	8245324.325       
2230            	184116.107        	8245324.325       
2231            	184132.057        	8245323.575       
2232            	184154.707        	8245321.495       
2233            	184179.147        	8245318.955       
2234            	184185.697        	8245318.355       
2235            	184190.487        	8245317.385       
2236            	184039.967        	8245277.755       
2237            	184026.587        	8245271.905       
2238            	184002.547        	8245259.065       
2239            	183969.927        	8245236.055       
2240            	184107.457        	8245289.255       
2241            	184141.687        	8245288.225       
2242            	184164.297        	8245286.775       
2243            	184187.507        	8245284.135       
2244            	184064.967        	8245241.925       
2245            	184048.657        	8245236.075       
2246            	184015.607        	8245218.945       
2247            	183960.297        	8245181.334       
2248            	183921.677        	8245341.225       
2249            	183938.537        	8245352.865       
2250            	183952.197        	8245361.065       
2251            	183970.907        	8245370.745       
2252            	183985.297        	8245377.685       
2253            	183993.707        	8245381.675       
2254            	184160.947        	8245206.335       
2255            	184121.817        	8245209.265       
2256            	184288.438        	8245330.515       
2257            	183875.467        	8245733.995       
2258            	183788.697        	8245655.915       
2259            	183800.887        	8245655.815       
2260            	183813.607        	8245655.245       
2261            	183825.157        	8245654.185       
2262            	183829.417        	8245653.495       
2263            	183775.006        	8245655.222       
2264            	183762.137        	8245653.935       
2265            	183750.747        	8245652.295       
2266            	183741.407        	8245649.695       
2267            	183730.727        	8245646.185       
2268            	183717.367        	8245640.035       
2269            	183702.927        	8245633.015       
2270            	183689.807        	8245624.255       
2271            	183674.497        	8245613.265       
2272            	183623.407        	8245128.324       
2273            	182071.252        	8243358.964       
2274            	181249.417        	8242100.691       
2275            	181371.977        	8242042.331       
2276            	181603.891        	8243097.815       
2277            	183088.427        	8243693.313       
2278            	182361.601        	8243664.932       
2279            	182375.977        	8243663.993       
2280            	181138.744        	8244583.287       
2281            	181148.022        	8244591.971       
2282            	182873.742        	8243955.733       
2283            	184091.538        	8245204.942       
2284            	182057.516        	8243346.120       
2285            	181428.987        	8242586.371       
2286            	181099.999        	8242619.879       
2287            	183332.027        	8244559.757       
2288            	183554.217        	8244617.295       
2289            	183999.817        	8245576.875       
2290            	184084.217        	8245247.545       
2291            	181595.041        	8243102.465       
2292            	181270.826        	8242914.572       
2293            	183422.577        	8244591.434       
2294            	181265.820        	8244980.169       
2295            	181200.954        	8244970.479       
2296            	181197.632        	8244969.983       
2297            	181195.257        	8244969.628       
2298            	181368.891        	8242043.014       
2299            	181971.232        	8243539.808       
2300            	182333.281        	8242857.497       
2301            	181373.162        	8242092.228       
2302            	181727.382        	8242701.520       
2303            	181726.717        	8242703.892       
2305            	182459.935        	8242958.962       
2306            	181185.989        	8244915.846       
2307            	181187.912        	8244916.312       
2308            	181191.900        	8244916.447       
2309            	181221.471        	8244917.441       
2310            	181256.612        	8244919.632       
2311            	182053.407        	8244556.784       
2312            	180902.973        	8244406.848       
2313            	182929.027        	8244038.413       
2314            	182929.716        	8244037.982       
2315            	182931.783        	8244036.688       
2316            	181196.331        	8242254.956       
2317            	181197.176        	8242253.484       
2318            	181443.102        	8242021.676       
2319            	182123.295        	8243288.685       
2320            	182116.387        	8243284.742       
2321            	182467.197        	8243572.393       
2322            	183013.037        	8243987.393       
2323            	182996.127        	8243997.903       
2324            	182961.587        	8244018.063       
2325            	182938.690        	8244008.408       
2326            	182930.492        	8244002.442       
2327            	182928.168        	8244001.013       
2328            	182925.744        	8243999.522       
2329            	182915.028        	8243992.934       
2330            	182763.647        	8243907.023       
2331            	184015.887        	8244852.714       
2332            	181089.016        	8244520.493       
2333            	183870.931        	8244845.734       
2334            	183869.281        	8244848.194       
2335            	180884.656        	8242561.531       
2336            	182210.896        	8243105.248       
2337            	182980.583        	8244365.301       
2338            	181499.111        	8242270.515       
2339            	181499.749        	8242228.724       
2340            	182060.229        	8243446.806       
2343            	182053.386        	8243348.559       
2344            	182054.797        	8243351.112       
2345            	182024.447        	8243562.992       
2346            	181778.686        	8243440.922       
2347            	181538.238        	8243366.576       
2348            	181163.725        	8243149.870       
2349            	181165.498        	8243155.851       
2350            	181615.765        	8241801.402       
2351            	184483.598        	8245366.575       
2352            	184381.916        	8245262.774       
2353            	183426.277        	8244616.754       
2354            	182096.679        	8243066.430       
2355            	181453.744        	8242614.338       
2357            	181593.829        	8243102.313       
2358            	181593.831        	8243102.314       
2359            	181594.841        	8243102.899       
2360            	181604.965        	8243104.075       
2361            	183545.878        	8244629.152       
2362            	183559.505        	8244638.487       
2363            	183577.792        	8244650.539       
2364            	183593.432        	8244661.312       
2365            	183613.238        	8244674.782       
2366            	183322.755        	8244047.946       
2367            	183311.511        	8243969.303       
2368            	183297.107        	8243870.346       
2369            	183275.240        	8243718.955       
2370            	183643.067        	8244338.314       
2371            	183649.267        	8244303.484       
2372            	183680.238        	8244244.254       
2373            	183681.430        	8244373.929       
2374            	183643.980        	8244352.952       
2375            	183638.787        	8244350.074       
2376            	183598.868        	8244327.799       
2377            	183551.332        	8244301.196       
2378            	183514.845        	8244276.965       
2379            	183509.183        	8244269.035       
2380            	181433.610        	8243571.698       
2381            	181653.986        	8242840.975       
2382            	181507.273        	8242447.256       
2383            	181508.777        	8242447.601       
2384            	182909.401        	8243894.896       
2385            	182070.700        	8243363.289       
2386            	182035.654        	8243430.811       
2387            	182071.957        	8243383.752       
2388            	182060.047        	8243407.892       
2389            	182081.859        	8243358.948       
2390            	182084.363        	8243360.343       
2391            	184040.774        	8244960.731       
2392            	183538.993        	8244625.375       
2393            	180885.696        	8242562.091       
2394            	180990.346        	8242618.101       
2395            	181185.844        	8242274.378       
2396            	181176.239        	8242291.832       
2397            	181167.147        	8242308.136       
2398            	181476.885        	8242548.108       
2399            	181460.616        	8242598.112       
2400            	182593.144        	8243740.067       
2401            	183324.077        	8244561.341       
2402            	183340.073        	8244617.387       
2403            	183343.406        	8244616.852       
2404            	183375.037        	8244736.054       
2405            	183387.622        	8244810.787       
2406            	183388.687        	8244817.114       
2407            	183415.667        	8245000.334       
2408            	183421.617        	8245043.124       
2409            	183430.337        	8245105.624       
2410            	184320.708        	8245122.215       
2411            	184035.962        	8244957.759       
PM.VRP.CND.002  	184040.466        	8244960.530       
2413            	182512.429        	8243786.312       
2414            	181646.926        	8243799.882       
2415            	181633.305        	8243801.400       
2416            	181618.128        	8243804.201       
2417            	181586.514        	8243811.426       
2418            	181577.436        	8243813.993       
2419            	181561.307        	8243819.061       
2420            	181549.777        	8243823.258       
2421            	181533.051        	8243829.911       
2422            	181510.437        	8243840.575       
2423            	181494.931        	8243849.165       
2424            	181468.086        	8243866.192       
2425            	181460.782        	8243871.075       
2426            	181448.731        	8243880.064       
2427            	181439.213        	8243887.627       
2428            	181423.658        	8243900.665       
2429            	181410.600        	8243912.587       
2430            	181383.807        	8243938.741       
2431            	181354.565        	8243967.285       
2432            	181311.262        	8244009.555       
2433            	181218.025        	8244100.569       
2434            	181128.238        	8244188.024       
2435            	181094.005        	8243784.999       
2436            	181097.406        	8243781.724       
2437            	181100.771        	8243778.422       
2438            	181156.787        	8243724.017       
2439            	181197.205        	8243684.176       
2440            	181207.945        	8243674.034       
2441            	181219.106        	8243663.411       
2442            	181219.409        	8243663.127       
PM.VRP.SPW.010  	181223.053        	8243659.346       
2444            	181313.771        	8243572.389       
2445            	181333.915        	8243550.905       
2446            	181347.813        	8243532.363       
2447            	181357.265        	8243516.452       
2448            	181396.748        	8243455.001       
2449            	181428.251        	8243413.865       
2450            	181471.402        	8243335.306       
2451            	181475.232        	8243328.097       
2452            	181478.818        	8243321.346       
2453            	181486.544        	8243307.734       
2454            	181494.269        	8243294.122       
2455            	181498.059        	8243285.699       
2456            	181500.316        	8243279.064       
2457            	181558.503        	8243174.888       
2458            	181587.240        	8243116.957       
2459            	181593.156        	8243105.880       
2460            	181345.530        	8243535.964       
2461            	181341.357        	8243543.116       
2462            	181238.642        	8243646.952       
2463            	181290.602        	8243594.349       
2464            	181463.645        	8242592.054       
PM.VRP.NBN.005  	181476.567        	8242549.102       
2466            	182447.387        	8242924.292       
2467            	182481.937        	8242890.012       
2468            	182520.127        	8242928.422       
2469            	182690.586        	8243105.649       
2470            	182817.097        	8243235.133       
2471            	182470.560        	8242948.576       
2472            	182570.687        	8243053.502       
2473            	182563.385        	8243060.884       
2474            	182814.897        	8243303.493       
2475            	182530.807        	8242917.782       
2476            	182579.207        	8242963.702       
2477            	182621.335        	8243006.392       
2478            	182743.054        	8243131.133       
2479            	182790.937        	8243180.105       
2480            	182826.811        	8243218.360       
2481            	182830.057        	8243221.823       
2482            	182824.780        	8243243.073       
2483            	182824.957        	8243244.943       
2484            	182820.047        	8243285.863       
2485            	182804.997        	8243337.453       
2486            	182808.697        	8243341.673       
2487            	182828.053        	8243217.343       
2488            	182829.093        	8243216.466       
2489            	182844.203        	8243233.718       
2490            	182912.022        	8243251.633       
2491            	182638.845        	8243652.586       
2492            	182639.012        	8243652.272       
2493            	182671.013        	8243592.683       
2494            	181606.054        	8243109.085       
2495            	182041.736        	8243344.314       
2496            	182119.695        	8243274.324       
2497            	183543.265        	8244869.042       
2498            	183941.006        	8245078.039       
2499            	183864.212        	8245087.704       
2500            	183941.656        	8245077.995       
2501            	181506.767        	8242278.810       
2502            	181509.208        	8242305.950       
2503            	181499.957        	8242316.159       
2504            	181511.761        	8242433.877       
2505            	181499.957        	8242382.196       
2527            	181186.551        	8244927.232       
2528            	181185.432        	8244914.940       
2529            	181184.548        	8244905.234       
2530            	181182.220        	8244884.999       
2531            	181179.701        	8244863.390       
2532            	181171.835        	8244842.537       
2533            	181175.621        	8244826.059       
2534            	181173.301        	8244806.350       
2535            	181171.313        	8244785.025       
2536            	181168.938        	8244763.421       
2537            	181166.385        	8244742.912       
2538            	181163.877        	8244722.875       
2539            	181161.347        	8244703.387       
2540            	181158.762        	8244681.721       
2541            	181156.828        	8244661.505       
2542            	181156.767        	8244658.945       
2543            	181156.802        	8244658.199       
2544            	181156.790        	8244656.699       
2545            	181156.786        	8244656.551       
2546            	181148.393        	8244594.572       
PM.VRP.GUA.014  	181164.730        	8244612.708       
2548            	181154.224        	8244600.405       
2550            	181165.038        	8244613.008       
2551            	181166.215        	8244614.138       
2552            	181166.777        	8244614.704       
2553            	181172.727        	8244620.865       
2554            	181186.960        	8244635.865       
2555            	181202.775        	8244653.047       
2556            	181216.834        	8244667.080       
2557            	181229.839        	8244681.143       
2558            	181243.601        	8244694.850       
2559            	181258.149        	8244710.754       
2560            	181271.956        	8244725.269       
2561            	181284.558        	8244738.571       
2562            	181300.751        	8244756.072       
2563            	181310.081        	8244767.654       
2564            	181318.264        	8244780.000       
2565            	181326.155        	8244793.773       
2566            	181332.855        	8244807.761       
2567            	181334.862        	8244813.577       
2568            	181336.582        	8244819.893       
2569            	181341.092        	8244833.115       
2570            	181344.983        	8244844.634       
2571            	181347.701        	8244858.649       
2572            	181349.717        	8244872.685       
2573            	181349.791        	8244887.416       
2574            	181351.613        	8244905.949       
2575            	181401.096        	8244881.503       
2576            	181417.979        	8244872.196       
2577            	181439.158        	8244861.920       
2578            	181444.193        	8244859.397       
2579            	181464.248        	8244849.349       
2580            	181482.078        	8244839.972       
2581            	181500.787        	8244830.299       
2582            	181519.188        	8244820.910       
2583            	181539.139        	8244810.745       
2584            	181555.914        	8244802.711       
2585            	181575.765        	8244792.659       
2586            	181593.038        	8244783.506       
2587            	181609.861        	8244775.061       
2588            	181633.212        	8244762.698       
2589            	181648.695        	8244755.306       
2590            	181669.337        	8244745.798       
2591            	181685.948        	8244737.310       
2592            	181705.136        	8244728.392       
2593            	181729.749        	8244717.309       
2594            	181745.967        	8244709.722       
2595            	181766.383        	8244700.144       
2596            	181787.398        	8244689.622       
2597            	181807.887        	8244679.250       
2598            	181827.137        	8244669.173       
2599            	181866.211        	8244649.627       
2600            	181263.825        	8244707.883       
2601            	181282.555        	8244698.714       
2602            	181301.770        	8244689.241       
2603            	181320.179        	8244680.050       
2604            	181339.653        	8244671.189       
2605            	181356.999        	8244662.948       
2606            	181375.178        	8244653.514       
2607            	181394.791        	8244644.250       
2608            	181413.307        	8244635.017       
2609            	181432.431        	8244626.016       
2610            	181450.725        	8244616.663       
2611            	181468.505        	8244608.126       
2612            	181487.571        	8244598.522       
2613            	181506.031        	8244589.861       
2614            	181525.224        	8244580.769       
2615            	181543.916        	8244571.391       
2616            	181562.987        	8244562.358       
2617            	181581.179        	8244553.562       
2618            	181600.406        	8244543.797       
2619            	181619.641        	8244534.530       
2620            	181636.402        	8244526.881       
2621            	181654.519        	8244517.398       
2622            	181672.840        	8244509.286       
2623            	181693.457        	8244498.890       
2624            	181713.129        	8244489.974       
2625            	181730.532        	8244480.287       
2626            	181749.824        	8244470.874       
2627            	181768.686        	8244461.447       
2628            	181786.023        	8244453.016       
2629            	181804.618        	8244444.143       
2630            	181823.131        	8244434.969       
2631            	181841.852        	8244425.720       
2632            	181861.956        	8244416.302       
2633            	181880.564        	8244408.062       
2634            	181901.088        	8244398.491       
2635            	181918.990        	8244389.410       
2636            	181938.840        	8244380.272       
2637            	181957.618        	8244370.833       
2638            	181973.788        	8244362.743       
2639            	181992.929        	8244353.351       
2640            	182011.329        	8244345.103       
2641            	182030.221        	8244335.547       
2642            	182048.472        	8244326.424       
2643            	182067.849        	8244317.159       
2644            	182084.975        	8244308.224       
2645            	182103.467        	8244299.129       
2646            	182111.253        	8244314.027       
2647            	182120.613        	8244333.817       
2648            	182130.101        	8244353.252       
2649            	182139.801        	8244372.851       
2650            	182149.085        	8244392.836       
2651            	182158.159        	8244410.925       
2652            	182167.432        	8244430.230       
2653            	182177.034        	8244449.515       
2654            	182186.233        	8244468.760       
2655            	182195.661        	8244487.797       
2656            	182140.797        	8244514.531       
2657            	182140.487        	8244513.707       
2658            	182130.718        	8244494.164       
2659            	182122.227        	8244476.594       
2660            	182113.174        	8244457.240       
2661            	182104.237        	8244439.065       
2662            	182095.906        	8244422.741       
2663            	182086.447        	8244403.883       
2664            	182077.359        	8244385.600       
2665            	182067.221        	8244364.617       
2666            	182175.012        	8244497.239       
2667            	182155.970        	8244506.645       
2668            	182120.963        	8244523.769       
2669            	182102.429        	8244532.692       
2670            	182082.019        	8244543.151       
2671            	182055.240        	8244555.898       
2672            	182035.028        	8244565.668       
2673            	182008.705        	8244578.417       
2674            	181984.356        	8244590.334       
2675            	182009.286        	8244579.314       
2676            	182009.405        	8244579.721       
2677            	182198.574        	8244486.387       
2678            	182215.763        	8244478.067       
2679            	182235.356        	8244468.485       
2680            	182255.278        	8244458.930       
2681            	182286.123        	8244444.164       
2682            	182305.491        	8244434.696       
2683            	182324.224        	8244425.212       
2684            	182343.368        	8244416.149       
2685            	182362.043        	8244406.815       
2686            	182380.058        	8244398.273       
2687            	182397.301        	8244389.908       
2688            	182414.789        	8244382.167       
2689            	182437.786        	8244370.848       
2690            	182453.541        	8244363.775       
2691            	182476.469        	8244352.171       
2692            	182495.165        	8244343.441       
2693            	182514.731        	8244334.026       
2694            	182534.137        	8244324.600       
2695            	182552.738        	8244316.198       
2696            	182571.543        	8244307.060       
2697            	182587.715        	8244299.261       
2698            	182609.276        	8244288.856       
2699            	182625.456        	8244281.374       
2700            	182644.990        	8244271.705       
2701            	182640.778        	8244263.415       
2702            	182633.823        	8244248.494       
2703            	182625.466        	8244231.729       
2704            	182617.277        	8244214.675       
2705            	182609.940        	8244199.329       
2706            	182601.241        	8244182.292       
2707            	182593.956        	8244168.644       
2708            	182585.952        	8244152.755       
2709            	182579.231        	8244138.172       
2710            	182572.303        	8244123.185       
2711            	182565.227        	8244108.630       
2712            	182667.700        	8244260.126       
2713            	182684.931        	8244250.393       
2714            	182679.822        	8244238.114       
2715            	182671.985        	8244224.074       
2716            	182662.557        	8244206.054       
2717            	182678.610        	8244196.420       
2718            	182697.178        	8244184.793       
2719            	182715.353        	8244173.850       
2720            	182730.084        	8244164.619       
2721            	182731.415        	8244164.110       
2722            	182733.823        	8244162.966       
2723            	182633.369        	8243343.904       
PM.VRP.NBN.001  	182638.537        	8243653.187       
2731            	181339.173        	8243545.263       
2732            	181959.348        	8243513.832       
2733            	182065.057        	8243446.312       
2734            	182029.807        	8243439.394       
2735            	182605.726        	8243747.733       
2736            	182625.046        	8243757.863       
2737            	183192.978        	8244145.614       
2738            	183910.739        	8245418.208       
2739            	181182.338        	8242316.505       
2740            	181186.323        	8242309.435       
2741            	181190.307        	8242302.365       
2742            	181178.020        	8242314.062       
2743            	181173.701        	8242311.619       
2744            	181170.683        	8242310.094       
2745            	181167.664        	8242308.568       
2746            	183778.292        	8244785.055       
2747            	183778.839        	8244784.323       
2748            	183948.139        	8245058.021       
2749            	183947.605        	8245057.883       
2750            	181148.739        	8242341.784       
2751            	181170.302        	8243145.943       
2752            	181223.434        	8243002.664       
2753            	181278.763        	8243052.481       
2754            	182639.133        	8243653.922       
2755            	182639.621        	8243653.032       
2756            	182639.807        	8243652.694       
2757            	183361.815        	8244598.572       
2758            	183362.925        	8244600.223       
2759            	183366.645        	8244606.244       
2760            	183369.850        	8244605.913       
2761            	183371.308        	8244605.762       
2762            	183384.135        	8244604.060       
2763            	183397.400        	8244601.938       
2764            	181565.254        	8242402.742       
2767            	181523.259        	8242451.506       
2768            	181519.498        	8242401.238       
2769            	181515.901        	8242360.743       
2770            	181510.290        	8242290.026       
2771            	181510.132        	8242288.032       
2772            	181159.256        	8244657.379       
2773            	181160.812        	8244656.911       
2774            	181258.656        	8244767.076       
2775            	181288.168        	8244805.304       
2776            	181302.766        	8244839.409       
2777            	181310.674        	8244865.081       
2778            	181315.004        	8244914.175       
2779            	181314.419        	8244965.359       
2780            	181313.752        	8245014.572       
2781            	181310.180        	8245065.746       
2782            	181308.304        	8245077.469       
2783            	181281.510        	8245058.122       
2784            	181263.203        	8245048.297       
2785            	181244.492        	8245037.675       
2786            	181226.709        	8245018.220       
2787            	181199.767        	8244982.470       
2788            	181192.978        	8244969.095       
2789            	183947.204        	8245057.739       
2790            	183777.825        	8244785.389       
2791            	183792.848        	8244795.181       
2792            	183827.614        	8244818.406       
2793            	183838.351        	8244826.050       
2794            	183872.001        	8244849.472       
2795            	183883.254        	8244857.083       
2796            	183914.463        	8244879.385       
2797            	183930.714        	8244890.032       
2798            	183942.064        	8244898.339       
2799            	183957.050        	8245018.669       
2800            	183952.419        	8245036.805       
2801            	181551.482        	8243186.783       
2802            	181543.006        	8243201.948       
2803            	183993.237        	8245471.098       
2804            	183994.006        	8245471.328       
2805            	183994.775        	8245471.557       
2806            	183998.706        	8245472.989       
2808            	184050.550        	8245494.583       
2809            	184020.859        	8245480.452       
2810            	183887.652        	8245290.310       
2811            	183883.321        	8245310.269       
2812            	183988.959        	8245469.354       
2813            	184040.547        	8245488.032       
PM.VRP.CND.003  	184045.484        	8245491.284       
2815            	181506.892        	8243267.182       
2816            	181514.060        	8243253.519       
2817            	181519.084        	8243244.866       
2818            	181524.107        	8243236.213       
2819            	181529.223        	8243226.916       
2820            	181534.339        	8243217.618       
2821            	181539.303        	8243208.813       
2822            	181989.751        	8243512.062       
2823            	183552.903        	8244618.893       
2825            	181274.958        	8245053.913       
2826            	181245.147        	8245037.522       
2827            	181225.648        	8245017.522       
2828            	181200.950        	8244984.892       
2829            	181190.802        	8244968.242       
2830            	181193.381        	8244962.536       
2831            	181186.930        	8244912.814       
2832            	181181.145        	8244861.422       
2833            	181175.721        	8244816.060       
2834            	181169.331        	8244758.088       
2835            	181161.677        	8244698.720       
2836            	181153.739        	8244651.875       
2837            	181155.997        	8244651.766       
2838            	181156.021        	8244651.911       
2839            	181978.178        	8243513.835       
2840            	183942.514        	8245077.039       
2841            	183942.131        	8245078.229       
2842            	183942.113        	8245078.284       
2843            	183959.654        	8244909.992       
2844            	183976.585        	8244921.613       
2845            	183993.996        	8244934.195       
2846            	183629.612        	8244685.550       
2847            	183646.981        	8244697.033       
2848            	183664.480        	8244708.715       
2849            	183681.811        	8244720.472       
2850            	183697.197        	8244730.770       
2851            	183710.344        	8244739.465       
2852            	183732.601        	8244754.590       
2853            	183749.732        	8244766.137       
2854            	183769.955        	8244779.976       
2855            	183500.509        	8244600.140       
2856            	183505.911        	8244604.091       
PM.VRP.CND.001  	183507.458        	8244604.924       
2858            	183508.760        	8244605.789       
2859            	183509.097        	8244605.948       
2861            	183508.109        	8244605.357       
2862            	181181.113        	8242318.809       
2863            	181179.888        	8242321.113       
2864            	181158.212        	8242324.609       
2865            	181805.818        	8242231.639       
9999            	180875.268        	8242589.730       
2869            	182030.460        	8243437.315       
VZ1.SAT.NBN.014 	183199.675        	8244158.645       
2871            	183201.980        	8244162.977       
2872            	183205.012        	8244169.221       
2873            	183205.074        	8244169.338       
2874            	183205.117        	8244169.421       
2875            	183220.830        	8244199.213       
2876            	183230.073        	8244216.868       
2877            	183324.879        	8244565.157       
2878            	183329.611        	8244587.660       
2879            	182517.139        	8243771.245       
2880            	182516.534        	8243767.315       
2881            	182489.220        	8243735.950       
2882            	182463.402        	8243720.235       
2883            	182428.839        	8243718.167       
2884            	182407.442        	8243720.979       
2885            	182405.585        	8243721.358       
2886            	182404.824        	8243722.642       
2887            	182405.434        	8243752.526       
105             	181085.629        	8242612.082       
382             	182115.045        	8243283.932       
2341            	181093.155        	8243785.916       

[VERTICES]
;Link            	X-Coord           	Y-Coord

[LABELS]
;X-Coord             Y-Coord             Label & Anchor Node
180876.844        	8242592.800       	"VRP.NBN.003"	9999
181519.940        	8242592.475       	"VRP.NBN.005"	PM.VRP.NBN.005
182639.813        	8243653.085       	"F (VMA 27011)"	2755
182638.828        	8243653.218       	"VRP.NBN.001"	PM.VRP.NBN.001
182182.758        	8242910.528       	"VRP.NBN.002"	PM.VRP.NBN.002
181227.563        	8243672.278       	"VRP.SPW.010"	2462
183507.875        	8244605.063       	"VRP.CND.001"	PM.VRP.CND.001
183552.875        	8244619.611       	"VRP.CND.004"	PM.VRP.CND.004
184041.000        	8244960.686       	"VRP.CND.002"	2391
184049.750        	8245493.264       	"VRP.CND.003"	2808
181196.331        	8242254.956       	"VMA 13781 (F)"	2316
180877.781        	8242595.677       	"VMA 109457"	PM.VRP.NBN.003
181102.813        	8242615.727       	"VMA 10674"	2286
180876.938        	8242586.395       	"VMA 109458"	1498
183199.016        	8244157.870       	"VZ1.SAT.NBN.014"	VZ1.SAT.NBN.014
181500.953        	8242294.411       	"VMA 27760"	2770
181512.547        	8242454.029       	"VMA 27759"	2767
182057.344        	8243360.625       	"VMA 22708"	2273
182087.734        	8243364.329       	"VMA 12366"	2004
182126.656        	8243288.333       	"VMA 12394"	2012
181721.859        	8242705.969       	"VMA 12377"	2303
182194.688        	8242813.293       	"VMA 12416"	108
181857.438        	8243239.745       	"VMA 9959"	2005
182447.172        	8242968.805       	"VMA 12404"	687
182567.234        	8243064.179       	"VMA 23513"	2473
182825.672        	8243245.115       	"VMA 23514"	2483
182827.391        	8243214.214       	"VMA 23520"	2487
182667.781        	8243604.119       	"VMA 12401"	701
182657.750        	8243595.430       	"VMA 12393"	782
182641.547        	8243583.759       	"VMA 12402"	1328
182631.167        	8243656.759       	"VMA 12391 (F)"	2091
182735.022        	8243336.411       	"VMA 23515 (F)"	2486
181165.234        	8244612.700       	"VRP.GUA.014"	PM.VRP.GUA.014
181085.629        	8242612.082       	"VMA NOVA 001 (F)"	105

[BACKDROP]
  DIMENSIONS  	179894.350        	8241506.475       	184882.680        	8246095.361       
 UNITS          	None
 FILE           	
 OFFSET         	0.00            	0.00            

[END]
